%nproc=1
%mem=1GB
%chk=GauExternal_1.chk
#P hf/gen force

Step 1 of composite scheme

0 1
C -0.012533695562 2.59602161345 2.479412491476
C -0.001777500649 1.314899995067 4.769358627099
C 0.001777500649 1.316453202538 0.142485451378
C 0.001777500649 -1.314899995067 4.769358627099
C 0.012533695562 -2.59602161345 2.479412491476
C -0.001777500649 -1.316453202538 0.142485451378
C -0.067445653558 -2.809832424524 -2.284636167783
C 0.067445653558 2.809832424524 -2.284636167783
C 0.708159444302 -1.249034947167 -4.566677022621
C -0.708159444302 1.249034947167 -4.566677022621

@/example/path/to/include/basis/set/custom

--link1--
%nproc=1
%mem=1GB
%chk=GauExternal_2.chk
#P rohf/gen force

Step 2 of composite scheme

0 1
C -0.012533695562 2.59602161345 2.479412491476
C -0.001777500649 1.314899995067 4.769358627099
C 0.001777500649 1.316453202538 0.142485451378
C 0.001777500649 -1.314899995067 4.769358627099
C 0.012533695562 -2.59602161345 2.479412491476
C -0.001777500649 -1.316453202538 0.142485451378
C -0.067445653558 -2.809832424524 -2.284636167783
C 0.067445653558 2.809832424524 -2.284636167783
C 0.708159444302 -1.249034947167 -4.566677022621
C -0.708159444302 1.249034947167 -4.566677022621

testttt

--link1--
%nproc=1
%mem=1GB
%chk=GauExternal_3.chk
#P uhf/gen force

Step 3 of composite scheme

0 1
C -0.012533695562 2.59602161345 2.479412491476
C -0.001777500649 1.314899995067 4.769358627099
C 0.001777500649 1.316453202538 0.142485451378
C 0.001777500649 -1.314899995067 4.769358627099
C 0.012533695562 -2.59602161345 2.479412491476
C -0.001777500649 -1.316453202538 0.142485451378
C -0.067445653558 -2.809832424524 -2.284636167783
C 0.067445653558 2.809832424524 -2.284636167783
C 0.708159444302 -1.249034947167 -4.566677022621
C -0.708159444302 1.249034947167 -4.566677022621

testttt_222222

