%chk=Pinone_ONIOM.chk
%oldchk=Pinone_rev.chk
%nprocs=1
# opt=(readFC,maxcycles=100,nomicro)  oniom(External=("MolproExt molpro_preamble.dat molpro_ending.dat 27 600 read",activeatoms):External=("GauExt gau_preamble.dat gau_ending.dat 32 3200 read",activeatoms))

32735

0 1 0 1 0 1
O                0    2.04725700   -1.61251800    0.35401600 H
C                0   -1.05708700   -0.24424000   -0.18866800 L H 4
C                0   -0.64789400    1.25126100   -0.01911000 L
C                0   -0.01274400   -0.53749100    0.94667100 H
C                0   -0.24405400    0.91642500    1.43734500 L H 4
C                0    0.61029300    1.57516400   -0.82339700 L H 8
C                0    1.34427000   -0.62463500    0.29978100 H
C                0    1.77853800    0.63851500   -0.43821500 H
C                0   -0.85739700   -0.92100800   -1.53786600 L
C                0   -2.48320900   -0.50377000    0.28875200 L
H                0   -1.43147800    1.99612000   -0.18179600 L
H                0   -0.18593100   -1.38413400    1.61216500 H
H                0   -1.07418200    0.97888200    2.13794800 L
H                0    0.61210500    1.44885300    1.85720400 L
H                0    0.89692000    2.61448100   -0.64173800 L
H                0    0.39493000    1.49222700   -1.89161900 L
H                0    2.46276800    1.15122600    0.24594000 H
H                0    2.37907100    0.33854400   -1.29809700 H
H                0    0.15043900   -0.80364600   -1.93859400 L
H                0   -1.05013000   -1.99398200   -1.45071600 L
H                0   -1.55924600   -0.51441700   -2.27248900 L
H                0   -2.66366000   -1.57823600    0.38182500 L
H                0   -2.69651500   -0.04233800    1.25385300 L
H                0   -3.19743700   -0.10475900   -0.43777900 L



