External Calculation                                                    
SP        RHF                                                         STO-3G              
Number of atoms                            I                6
Info1-9                                    I   N=           9
          20          15           0           0           0         110
           1           1           2
Full Title                                 C   N=           2
External Calculation    
Route                                      C   N=           2
#P hf/sto-3g scf=xqc    
Charge                                     I                0
Multiplicity                               I                1
Number of electrons                        I               46
Number of alpha electrons                  I               23
Number of beta electrons                   I               23
Number of basis functions                  I               30
Number of independent functions            I               30
Number of point charges in /Mol/           I                0
Number of translation vectors              I                0
Atomic numbers                             I   N=           6
           6           1           6           1          16          16
Nuclear charges                            R   N=           6
  6.00000000E+00  1.00000000E+00  6.00000000E+00  1.00000000E+00  1.60000000E+01
  1.60000000E+01
Current cartesian coordinates              R   N=          18
 -1.08578998E-03 -1.28084886E+00 -2.88889492E-34 -1.75462103E+00 -2.28763894E+00
  0.00000000E+00  0.00000000E+00  1.28010777E+00 -1.23259516E-32  1.75353524E+00
  2.28689785E+00  0.00000000E+00 -2.90409684E+00  2.97578671E+00 -4.93038066E-32
  2.90457187E+00 -2.97546249E+00  0.00000000E+00
Number of symbols in /Mol/                 I                0
Int Atom Types                             I   N=           6
           0           0           0           0           0           0
Force Field                                I                0
Atom Types                                 C   N=           6
                                                            
            
MM charges                                 R   N=           6
  0.00000000E+00  0.00000000E+00  0.00000000E+00  0.00000000E+00  0.00000000E+00
  0.00000000E+00
Integer atomic weights                     I   N=           6
          12           1          12           1          32          32
Real atomic weights                        R   N=           6
  1.20000000E+01  1.00782504E+00  1.20000000E+01  1.00782504E+00  3.19720718E+01
  3.19720718E+01
Atom fragment info                         I   N=           6
           0           0           0           0           0           0
Atom residue num                           I   N=           6
           0           0           0           0           0           0
Nuclear spins                              I   N=           6
           0           1           0           1           0           0
Nuclear ZEff                               R   N=           6
 -3.60000000E+00 -1.00000000E+00 -3.60000000E+00 -1.00000000E+00 -1.36000000E+01
 -1.36000000E+01
Nuclear ZNuc                               R   N=           6
  6.00000000E+00  1.00000000E+00  6.00000000E+00  1.00000000E+00  1.60000000E+01
  1.60000000E+01
Nuclear QMom                               R   N=           6
  0.00000000E+00  0.00000000E+00  0.00000000E+00  0.00000000E+00  0.00000000E+00
  0.00000000E+00
Nuclear GFac                               R   N=           6
  0.00000000E+00  2.79284600E+00  0.00000000E+00  2.79284600E+00  0.00000000E+00
  0.00000000E+00
MicOpt                                     I   N=           6
          -1          -1          -1          -1          -1          -1
Number of residues                         I                0
Number of secondary structures             I                0
SymInf integers                            I   N=          26
           1           2           1           1           1           1
           1          -1           0           0           0           0
           0           0           0           0           0           0
           0           0           0           0           0           0
           0           0
RotTr to input orientation                 R   N=          12
  8.25952015E-01  5.63740427E-01 -1.22464680E-16  5.63740427E-01 -8.25952015E-01
  0.00000000E+00 -1.01149949E-16 -6.90382909E-17 -1.00000000E+00  6.57296043E-04
  0.00000000E+00  0.00000000E+00
Number of contracted shells                I               12
Number of primitive shells                 I               36
Pure/Cartesian d shells                    I                0
Pure/Cartesian f shells                    I                0
Highest angular momentum                   I                1
Largest degree of contraction              I                3
Shell types                                I   N=          12
           0          -1           0           0          -1           0
           0          -1          -1           0          -1          -1
Number of primitives per shell             I   N=          12
           3           3           3           3           3           3
           3           3           3           3           3           3
Shell to atom map                          I   N=          12
           1           1           2           3           3           4
           5           5           5           6           6           6
Primitive exponents                        R   N=          36
  7.16168373E+01  1.30450963E+01  3.53051216E+00  2.94124936E+00  6.83483096E-01
  2.22289916E-01  3.42525091E+00  6.23913730E-01  1.68855404E-01  7.16168373E+01
  1.30450963E+01  3.53051216E+00  2.94124936E+00  6.83483096E-01  2.22289916E-01
  3.42525091E+00  6.23913730E-01  1.68855404E-01  5.33125736E+02  9.71095183E+01
  2.62816254E+01  3.33297517E+01  7.74511752E+00  2.51895260E+00  2.02919427E+00
  5.66140052E-01  2.21583379E-01  5.33125736E+02  9.71095183E+01  2.62816254E+01
  3.33297517E+01  7.74511752E+00  2.51895260E+00  2.02919427E+00  5.66140052E-01
  2.21583379E-01
Contraction coefficients                   R   N=          36
  1.54328967E-01  5.35328142E-01  4.44634542E-01 -9.99672292E-02  3.99512826E-01
  7.00115469E-01  1.54328967E-01  5.35328142E-01  4.44634542E-01  1.54328967E-01
  5.35328142E-01  4.44634542E-01 -9.99672292E-02  3.99512826E-01  7.00115469E-01
  1.54328967E-01  5.35328142E-01  4.44634542E-01  1.54328967E-01  5.35328142E-01
  4.44634542E-01 -9.99672292E-02  3.99512826E-01  7.00115469E-01 -2.19620369E-01
  2.25595434E-01  9.00398426E-01  1.54328967E-01  5.35328142E-01  4.44634542E-01
 -9.99672292E-02  3.99512826E-01  7.00115469E-01 -2.19620369E-01  2.25595434E-01
  9.00398426E-01
P(S=P) Contraction coefficients            R   N=          36
  0.00000000E+00  0.00000000E+00  0.00000000E+00  1.55916275E-01  6.07683719E-01
  3.91957393E-01  0.00000000E+00  0.00000000E+00  0.00000000E+00  0.00000000E+00
  0.00000000E+00  0.00000000E+00  1.55916275E-01  6.07683719E-01  3.91957393E-01
  0.00000000E+00  0.00000000E+00  0.00000000E+00  0.00000000E+00  0.00000000E+00
  0.00000000E+00  1.55916275E-01  6.07683719E-01  3.91957393E-01  1.05876043E-02
  5.95167005E-01  4.62001012E-01  0.00000000E+00  0.00000000E+00  0.00000000E+00
  1.55916275E-01  6.07683719E-01  3.91957393E-01  1.05876043E-02  5.95167005E-01
  4.62001012E-01
Coordinates of each shell                  R   N=          36
 -1.08578998E-03 -1.28084886E+00  0.00000000E+00 -1.08578998E-03 -1.28084886E+00
  0.00000000E+00 -1.75462103E+00 -2.28763894E+00  0.00000000E+00  0.00000000E+00
  1.28010777E+00  0.00000000E+00  0.00000000E+00  1.28010777E+00  0.00000000E+00
  1.75353524E+00  2.28689785E+00  0.00000000E+00 -2.90409684E+00  2.97578671E+00
  0.00000000E+00 -2.90409684E+00  2.97578671E+00  0.00000000E+00 -2.90409684E+00
  2.97578671E+00  0.00000000E+00  2.90457187E+00 -2.97546249E+00  0.00000000E+00
  2.90457187E+00 -2.97546249E+00  0.00000000E+00  2.90457187E+00 -2.97546249E+00
  0.00000000E+00
Num ILSW                                   I              100
ILSW                                       I   N=         100
           0           0           0           0           2           0
           0           0           0           0           0          -1
           5           0           0           0           0           0
           0           0           0           0           0           0
           1           0           0           0           0           0
           0           0      100000           0          -1           0
           0           0           0           0           0           0
           0           0           0           1           0           0
           0 -2000000000           1           0           0           0
           0           0           4          52           0           0
           0           0           0           0           0           0
           0           0           0           6           0           1
           0           0           0           0           0           0
           0           0           0           0           0           0
           0           0           0           0           0           0
           0           0           0           0           0           0
           0           0           0           0
Num RLSW                                   I               52
RLSW                                       R   N=          52
  1.00000000E+00  1.00000000E+00  1.00000000E+00  1.00000000E+00  1.00000000E+00
  0.00000000E+00  0.00000000E+00  1.00000000E+00  0.00000000E+00  0.00000000E+00
  0.00000000E+00  0.00000000E+00  1.00000000E+00  0.00000000E+00  0.00000000E+00
  0.00000000E+00  0.00000000E+00  1.00000000E+00  0.00000000E+00  0.00000000E+00
  0.00000000E+00  0.00000000E+00  1.00000000E+00  0.00000000E+00  0.00000000E+00
  0.00000000E+00  0.00000000E+00  1.00000000E+00  0.00000000E+00  0.00000000E+00
  0.00000000E+00  0.00000000E+00  1.00000000E+00  0.00000000E+00  0.00000000E+00
  0.00000000E+00  0.00000000E+00  0.00000000E+00  1.00000000E+00  1.00000000E+00
  0.00000000E+00  1.00000000E+00  0.00000000E+00  0.00000000E+00  0.00000000E+00
  0.00000000E+00  0.00000000E+00  0.00000000E+00  0.00000000E+00  0.00000000E+00
  0.00000000E+00  0.00000000E+00
MxBond                                     I                3
NBond                                      I   N=           6
           3           1           3           1           1           1
IBond                                      I   N=          18
           2           3           6           1           0           0
           1           4           5           3           0           0
           3           0           0           1           0           0
RBond                                      R   N=          18
  1.00000000E+00  2.00000000E+00  1.00000000E+00  1.00000000E+00  0.00000000E+00
  0.00000000E+00  2.00000000E+00  1.00000000E+00  1.00000000E+00  1.00000000E+00
  0.00000000E+00  0.00000000E+00  1.00000000E+00  0.00000000E+00  0.00000000E+00
  1.00000000E+00  0.00000000E+00  0.00000000E+00
Virial Ratio                               R      2.010923884465929E+00
SCF Energy                                 R     -8.621596688256320E+02
Total Energy                               R     -8.621596688256320E+02
RMS Density                                R      7.429623209196370E-09
Job Status                                 I                1
Nuclear derivative order                   I                0
External E-field                           R   N=          35
  0.00000000E+00  0.00000000E+00  0.00000000E+00  0.00000000E+00  0.00000000E+00
  0.00000000E+00  0.00000000E+00  0.00000000E+00  0.00000000E+00  0.00000000E+00
  0.00000000E+00  0.00000000E+00  0.00000000E+00  0.00000000E+00  0.00000000E+00
  0.00000000E+00  0.00000000E+00  0.00000000E+00  0.00000000E+00  0.00000000E+00
  0.00000000E+00  0.00000000E+00  0.00000000E+00  0.00000000E+00  0.00000000E+00
  0.00000000E+00  0.00000000E+00  0.00000000E+00  0.00000000E+00  0.00000000E+00
  0.00000000E+00  0.00000000E+00  0.00000000E+00  0.00000000E+00  0.00000000E+00
IOpCl                                      I                0
IROHF                                      I                0
Alpha Orbital Energies                     R   N=          30
 -9.07031063E+01 -9.07030770E+01 -1.10470860E+01 -1.10466354E+01 -8.61378261E+00
 -8.61373193E+00 -6.24458698E+00 -6.24455787E+00 -6.24437272E+00 -6.24432482E+00
 -6.24053586E+00 -6.24050571E+00 -1.02991474E+00 -8.75197200E-01 -7.52952777E-01
 -7.08164800E-01 -5.46432557E-01 -4.64059551E-01 -3.76013138E-01 -3.61319863E-01
 -2.52706336E-01 -2.45696687E-01 -1.93400478E-01  7.59763578E-02  3.18138741E-01
  4.48647175E-01  5.22448261E-01  6.58013958E-01  8.58207649E-01  9.22168728E-01
Alpha MO coefficients                      R   N=         900
  1.49995995E-06 -3.31829960E-05  2.02780644E-05  1.65082310E-05  0.00000000E+00
  4.52891833E-05 -6.57794335E-05  4.71539898E-04 -3.87361398E-04  2.19472552E-04
  0.00000000E+00  1.02553576E-05  9.93922808E-01  1.71052131E-02  1.35867419E-04
 -7.84727797E-05  0.00000000E+00 -2.29316295E-03 -2.66776931E-04  1.56533522E-04
  0.00000000E+00 -2.19391952E-02 -3.78540634E-04  3.28634469E-06 -3.06003314E-06
  0.00000000E+00  5.47230195E-05 -7.27720312E-06  9.33509921E-06  0.00000000E+00
 -6.57530393E-05  4.70127703E-04  3.88533971E-04 -2.18623880E-04  0.00000000E+00
  1.22884564E-05 -1.40490732E-06 -1.24317808E-05 -3.73773812E-05 -6.83298054E-06
  0.00000000E+00  4.58280294E-05  2.19397440E-02  3.76605990E-04  2.71110052E-06
 -4.00073773E-07  0.00000000E+00 -4.65002390E-05 -4.49352271E-06 -2.43839417E-06
  0.00000000E+00  9.93922830E-01  1.71051485E-02 -1.35822891E-04  7.82905253E-05
  0.00000000E+00 -2.29267301E-03  2.66501737E-04 -1.55968133E-04  0.00000000E+00
  7.13679196E-01  1.96903671E-02 -7.87402987E-04 -1.75807651E-03  0.00000000E+00
 -5.00179879E-03  6.90001715E-01  1.86749385E-02  7.65206168E-04  1.92331702E-03
  0.00000000E+00 -4.83302043E-03 -5.38313621E-05  1.07664768E-04  3.11345444E-04
 -2.11109899E-04  0.00000000E+00 -2.76818482E-03 -2.37484302E-03  1.51557344E-03
  0.00000000E+00 -5.56121174E-05  1.10475086E-04 -3.22400920E-04  2.17065956E-04
  0.00000000E+00 -2.86634652E-03  2.46122640E-03 -1.56462679E-03  0.00000000E+00
 -6.89491819E-01 -2.98137611E-02  6.07050418E-04 -4.85787998E-03  0.00000000E+00
  4.91977920E-03  7.13185511E-01  3.04641168E-02  6.31124186E-04 -4.79362425E-03
  0.00000000E+00 -5.08591871E-03 -5.42760973E-05  8.13472604E-05  3.31663040E-04
 -1.86382349E-04  0.00000000E+00 -3.02182824E-03 -2.61566242E-03  1.53965833E-03
  0.00000000E+00  5.24023553E-05 -7.77776717E-05  3.20967970E-04 -1.78857401E-04
  0.00000000E+00  2.92412091E-03 -2.53332799E-03  1.48502110E-03  0.00000000E+00
 -5.39658106E-04  4.37205442E-03  2.85716039E-03 -1.94232391E-03  0.00000000E+00
 -5.55159465E-04  1.00706557E-03 -7.42563936E-03  5.30413996E-03 -3.20683866E-03
  0.00000000E+00  1.89849742E-04 -3.20332886E-01  9.12880238E-01  8.22313178E-03
 -4.73822012E-03  0.00000000E+00  4.36083603E-02  4.78456264E-03 -2.84378448E-03
  0.00000000E+00  1.80161958E-01 -5.13422444E-01  4.62263901E-03 -2.65449894E-03
  0.00000000E+00 -2.45847581E-02  2.71921270E-03 -1.65484588E-03  0.00000000E+00
  1.05120890E-03 -7.09240896E-03 -5.51002586E-03  2.97071398E-03  0.00000000E+00
 -5.48684944E-04  6.18074217E-04 -3.79306035E-03  3.22472454E-03 -1.53189219E-03
  0.00000000E+00 -7.57909033E-04 -1.80171749E-01  5.13452047E-01  4.62967281E-03
 -2.67762430E-03  0.00000000E+00  2.44101204E-02  2.63349917E-03 -1.48715012E-03
  0.00000000E+00 -3.20338652E-01  9.12897507E-01 -8.22743752E-03  4.74225114E-03
  0.00000000E+00  4.35044174E-02 -4.73251531E-03  2.74283017E-03  0.00000000E+00
  0.00000000E+00  0.00000000E+00  0.00000000E+00  0.00000000E+00 -5.68484629E-04
  0.00000000E+00  0.00000000E+00  0.00000000E+00  0.00000000E+00  0.00000000E+00
 -3.87806647E-03  0.00000000E+00  0.00000000E+00  0.00000000E+00  0.00000000E+00
  0.00000000E+00  9.64070434E-01  0.00000000E+00  0.00000000E+00  0.00000000E+00
  5.17450429E-02  0.00000000E+00  0.00000000E+00  0.00000000E+00  0.00000000E+00
  2.02571303E-01  0.00000000E+00  0.00000000E+00  0.00000000E+00  1.08928778E-02
  0.00000000E+00  0.00000000E+00  0.00000000E+00  0.00000000E+00 -3.98315693E-03
  0.00000000E+00  0.00000000E+00  0.00000000E+00  0.00000000E+00  0.00000000E+00
  1.08275341E-03  0.00000000E+00  0.00000000E+00  0.00000000E+00  0.00000000E+00
  0.00000000E+00 -2.02584322E-01  0.00000000E+00  0.00000000E+00  0.00000000E+00
 -1.08511343E-02  0.00000000E+00  0.00000000E+00  0.00000000E+00  0.00000000E+00
  9.64073437E-01  0.00000000E+00  0.00000000E+00  0.00000000E+00  5.17351674E-02
 -6.13861867E-04  6.54257438E-03  4.05408177E-03 -2.55908241E-03  0.00000000E+00
 -5.40330358E-04  1.23202741E-03 -1.20286152E-02  8.11950185E-03 -4.77698107E-03
  0.00000000E+00  2.47653140E-04  4.35355164E-03 -1.26923479E-02  7.51000693E-01
 -4.41966404E-01  0.00000000E+00  6.37665863E-03  4.61226927E-02 -2.71387780E-02
  0.00000000E+00 -2.28238432E-03  6.65489216E-03  3.91373691E-01 -2.33613002E-01
  0.00000000E+00 -3.40228886E-03  2.40757077E-02 -1.44001638E-02  0.00000000E+00
 -1.27677962E-03  1.16525104E-02  8.39653790E-03 -4.68003450E-03  0.00000000E+00
  3.45089793E-04 -6.98506433E-04  5.84379843E-03 -4.58405443E-03  2.38767033E-03
  0.00000000E+00  5.91825001E-04 -2.26625805E-03  6.60574469E-03 -3.95624432E-01
  2.26413429E-01  0.00000000E+00 -3.21172974E-03 -2.42223604E-02  1.38041110E-02
  0.00000000E+00 -4.34276630E-03  1.26599820E-02  7.53539169E-01 -4.37663798E-01
  0.00000000E+00 -6.26840582E-03  4.62116245E-02 -2.67902546E-02  0.00000000E+00
 -5.06984479E-05 -9.94168712E-04 -9.36096961E-04 -1.20515393E-03  0.00000000E+00
  7.35093333E-04 -2.15941520E-06  3.74204483E-04 -1.99809445E-03 -3.69859231E-03
  0.00000000E+00  2.80985424E-04  2.52411223E-05 -7.45773729E-05  4.82377569E-01
  8.22155877E-01  0.00000000E+00 -3.37358489E-05  2.46443482E-02  4.19696607E-02
  0.00000000E+00 -2.19778303E-05  6.89404679E-05  1.31078775E-01  2.14911885E-01
  0.00000000E+00  1.17046055E-04  6.62794064E-03  1.10498547E-02  0.00000000E+00
  3.11355988E-05  1.34943891E-04 -1.76317139E-03 -3.56687989E-03  0.00000000E+00
 -7.41798980E-04  5.95095933E-05  9.31042586E-04  5.55362029E-05  7.14950223E-04
  0.00000000E+00 -1.00627200E-03  1.04936314E-05 -3.56432260E-05 -1.23034335E-01
 -2.19633185E-01  0.00000000E+00 -1.16019900E-04 -6.36543018E-03 -1.11204548E-02
  0.00000000E+00 -1.69284681E-05  4.77270187E-05  4.79760018E-01  8.23691563E-01
  0.00000000E+00 -2.73982896E-05  2.45493202E-02  4.20026234E-02  0.00000000E+00
 -1.66530266E-01  4.50688371E-01  1.23362338E-02  9.62886118E-02  0.00000000E+00
  1.03766457E-01 -1.66589435E-01  4.50839598E-01 -1.24095063E-02 -9.61966809E-02
  0.00000000E+00  1.03796223E-01  2.43437327E-02 -8.37587322E-02 -2.49833153E-02
  1.78956647E-02  0.00000000E+00  2.22342079E-01  5.61237820E-02 -4.00063263E-02
  0.00000000E+00  2.43135071E-02 -8.36530739E-02  2.49580738E-02 -1.78631906E-02
  0.00000000E+00  2.22081336E-01 -5.60721791E-02  3.99364234E-02  0.00000000E+00
  8.99484451E-02 -2.76169064E-01 -8.75695104E-02  1.21513114E-01  0.00000000E+00
 -8.09564514E-02 -8.98173263E-02  2.75790029E-01 -8.76779585E-02  1.21814725E-01
  0.00000000E+00  8.08406398E-02  5.29977949E-02 -1.80512543E-01 -3.35960182E-02
  1.74050488E-02  0.00000000E+00  5.21433298E-01  7.79490159E-02 -4.04955032E-02
  0.00000000E+00 -5.29730655E-02  1.80425573E-01 -3.35844290E-02  1.73855109E-02
  0.00000000E+00 -5.21217920E-01  7.79333519E-02 -4.04576327E-02  0.00000000E+00
  6.24163729E-02 -1.75780053E-01  1.14205673E-01 -1.89960945E-01  0.00000000E+00
 -7.04986367E-02  6.23549623E-02 -1.75620659E-01 -1.13878699E-01  1.90065933E-01
  0.00000000E+00 -7.02231883E-02  5.96338069E-02 -2.00707612E-01 -6.50914672E-03
 -3.43112103E-03  0.00000000E+00  6.27703504E-01  1.32143619E-02  1.16935161E-02
  0.00000000E+00  5.97085014E-02 -2.00957983E-01  6.50156851E-03  3.41968401E-03
  0.00000000E+00  6.28499889E-01 -1.31910581E-02 -1.16606518E-02  0.00000000E+00
  9.08456812E-02 -2.89717916E-01  2.55538454E-01  1.30758700E-01  0.00000000E+00
 -3.08026188E-01 -9.09166074E-02  2.89924406E-01  2.55682033E-01  1.30462882E-01
  0.00000000E+00  3.08073211E-01 -2.46225695E-02  8.24293171E-02 -1.68159789E-02
 -1.20819219E-02  0.00000000E+00 -2.66143394E-01  4.77943401E-02  3.35664473E-02
  0.00000000E+00  2.45486527E-02 -8.21823912E-02 -1.67961253E-02 -1.20963310E-02
  0.00000000E+00  2.65338281E-01  4.77427875E-02  3.36087099E-02  0.00000000E+00
 -6.34434877E-04  2.12535707E-02 -1.95976968E-01 -4.22461062E-01  0.00000000E+00
  3.43461685E-01 -6.17664341E-04  2.11911536E-02  1.96054955E-01  4.22467318E-01
  0.00000000E+00  3.43438475E-01 -8.97656664E-03  2.92926394E-02 -3.10073523E-02
 -2.30936635E-02  0.00000000E+00 -1.07917122E-01  8.87940539E-02  6.96559789E-02
  0.00000000E+00 -8.96605438E-03  2.92598810E-02  3.09491368E-02  2.30764785E-02
  0.00000000E+00 -1.07772373E-01 -8.86342808E-02 -6.95986770E-02  0.00000000E+00
 -6.31409097E-02  2.55788072E-01  3.20546694E-01 -9.60905079E-02  0.00000000E+00
 -7.66979617E-02  6.31492022E-02 -2.55834679E-01  3.20690794E-01 -9.61758016E-02
  0.00000000E+00  7.67834198E-02  3.39377412E-02 -1.09128783E-01  9.98053620E-02
 -8.05425158E-02  0.00000000E+00  4.31865554E-01 -2.84195811E-01  2.35394711E-01
  0.00000000E+00 -3.39190338E-02  1.09072611E-01  9.97761803E-02 -8.04291012E-02
  0.00000000E+00 -4.31579422E-01 -2.84131813E-01  2.35078525E-01  0.00000000E+00
  0.00000000E+00  0.00000000E+00  0.00000000E+00  0.00000000E+00  5.36794615E-01
  0.00000000E+00  0.00000000E+00  0.00000000E+00  0.00000000E+00  0.00000000E+00
  5.36993422E-01  0.00000000E+00  0.00000000E+00  0.00000000E+00  0.00000000E+00
  0.00000000E+00 -1.03365692E-01  0.00000000E+00  0.00000000E+00  0.00000000E+00
  3.23682420E-01  0.00000000E+00  0.00000000E+00  0.00000000E+00  0.00000000E+00
 -1.03279258E-01  0.00000000E+00  0.00000000E+00  0.00000000E+00  3.23421412E-01
  2.28693782E-02 -1.32933956E-01 -3.40413744E-01  1.96157322E-01  0.00000000E+00
  1.90790830E-01  2.28135931E-02 -1.32675412E-01  3.40189349E-01 -1.96100126E-01
  0.00000000E+00  1.90804743E-01  1.86148277E-02 -5.81016779E-02  1.42836773E-01
 -5.56150926E-02  0.00000000E+00  2.60408631E-01 -4.28315956E-01  1.60190544E-01
  0.00000000E+00  1.86265051E-02 -5.81421378E-02 -1.42933980E-01  5.55327820E-02
  0.00000000E+00  2.60523048E-01  4.28620046E-01 -1.59946245E-01  0.00000000E+00
 -1.44800104E-02  6.16136273E-02 -5.04236748E-02  4.64241619E-02  0.00000000E+00
  9.39458524E-02  1.44708008E-02 -6.15774150E-02 -5.05271906E-02  4.62700633E-02
  0.00000000E+00 -9.41898220E-02 -9.14440904E-04  2.74403164E-03 -1.24260019E-01
 -1.81994812E-01  0.00000000E+00 -1.44026643E-02  4.06276677E-01  6.01245925E-01
  0.00000000E+00  9.15888248E-04 -2.74916159E-03 -1.24079492E-01 -1.81967979E-01
  0.00000000E+00  1.44151541E-02  4.05680697E-01  6.01149999E-01  0.00000000E+00
  1.46459983E-02 -5.32772733E-02  2.06275246E-02 -1.13902757E-01  0.00000000E+00
  9.57149408E-02  1.46508939E-02 -5.32913853E-02 -2.05987969E-02  1.13873524E-01
  0.00000000E+00  9.57080167E-02 -1.34099332E-03  3.98849042E-03  8.54729504E-02
  2.01915749E-01  0.00000000E+00 -2.12775080E-02 -2.86898511E-01 -6.64253655E-01
  0.00000000E+00 -1.34124463E-03  3.98987844E-03 -8.54184952E-02 -2.02082052E-01
  0.00000000E+00 -2.12733402E-02  2.86714575E-01  6.64803272E-01  0.00000000E+00
  0.00000000E+00  0.00000000E+00  0.00000000E+00  0.00000000E+00  2.97514397E-01
  0.00000000E+00  0.00000000E+00  0.00000000E+00  0.00000000E+00  0.00000000E+00
 -2.97244678E-01  0.00000000E+00  0.00000000E+00  0.00000000E+00  0.00000000E+00
  0.00000000E+00  2.00075830E-01  0.00000000E+00  0.00000000E+00  0.00000000E+00
 -6.46146094E-01  0.00000000E+00  0.00000000E+00  0.00000000E+00  0.00000000E+00
 -2.00140663E-01  0.00000000E+00  0.00000000E+00  0.00000000E+00  6.46360448E-01
  0.00000000E+00  0.00000000E+00  0.00000000E+00  0.00000000E+00 -3.53043162E-01
  0.00000000E+00  0.00000000E+00  0.00000000E+00  0.00000000E+00  0.00000000E+00
 -3.52801112E-01  0.00000000E+00  0.00000000E+00  0.00000000E+00  0.00000000E+00
  0.00000000E+00 -1.99944310E-01  0.00000000E+00  0.00000000E+00  0.00000000E+00
  6.61807381E-01  0.00000000E+00  0.00000000E+00  0.00000000E+00  0.00000000E+00
 -1.99964536E-01  0.00000000E+00  0.00000000E+00  0.00000000E+00  6.61869055E-01
  0.00000000E+00  0.00000000E+00  0.00000000E+00  0.00000000E+00 -7.56377341E-01
  0.00000000E+00  0.00000000E+00  0.00000000E+00  0.00000000E+00  0.00000000E+00
  7.56474333E-01  0.00000000E+00  0.00000000E+00  0.00000000E+00  0.00000000E+00
  0.00000000E+00  1.02906927E-01  0.00000000E+00  0.00000000E+00  0.00000000E+00
 -3.53869747E-01  0.00000000E+00  0.00000000E+00  0.00000000E+00  0.00000000E+00
 -1.02819512E-01  0.00000000E+00  0.00000000E+00  0.00000000E+00  3.53559093E-01
 -9.52659684E-02  5.05683946E-01  4.66144884E-01 -1.47059059E-01  0.00000000E+00
  3.74373280E-02  9.48400895E-02 -5.03326530E-01  4.64905672E-01 -1.45476561E-01
  0.00000000E+00 -3.88621261E-02  2.08099761E-02 -6.20061632E-02 -1.67521728E-01
  1.08523220E-01  0.00000000E+00  3.31791136E-01  6.15729522E-01 -3.98824822E-01
  0.00000000E+00 -2.08800496E-02  6.22192782E-02 -1.68256734E-01  1.08722125E-01
  0.00000000E+00 -3.32852963E-01  6.18379235E-01 -3.99534960E-01  0.00000000E+00
 -1.06419454E-01  6.26224189E-01  2.97907085E-01 -4.32514418E-01  0.00000000E+00
 -3.51898419E-01 -1.06797511E-01  6.28329533E-01 -3.00241233E-01  4.32841175E-01
  0.00000000E+00 -3.51074563E-01 -1.86319155E-02  5.46049237E-02  1.58852879E-01
 -7.15666849E-02  0.00000000E+00 -3.08345113E-01 -5.93010320E-01  2.69200985E-01
  0.00000000E+00 -1.85360839E-02  5.43287960E-02 -1.58203656E-01  7.10030027E-02
  0.00000000E+00 -3.06698630E-01  5.90528837E-01 -2.67070482E-01  0.00000000E+00
 -1.27973914E-01  8.07003015E-01 -4.82900881E-01 -1.28534263E-01  0.00000000E+00
 -9.07854821E-01  1.28046956E-01 -8.07447095E-01 -4.82719029E-01 -1.28826040E-01
  0.00000000E+00  9.08094532E-01  2.17932113E-03 -7.21339342E-03 -1.88535632E-02
 -6.82910690E-04  0.00000000E+00  2.77051572E-02  6.93419244E-02  3.53515277E-03
  0.00000000E+00 -2.16547617E-03  7.17399159E-03 -1.87370854E-02 -7.39947735E-04
  0.00000000E+00 -2.74629147E-02  6.88895658E-02  3.75165441E-03  0.00000000E+00
 -5.11386160E-02  3.81899615E-01 -8.55134622E-01 -2.12837690E-01  0.00000000E+00
 -8.19560373E-01 -5.10295789E-02  3.81100991E-01  8.55223282E-01  2.13642382E-01
  0.00000000E+00 -8.19657732E-01  7.98976835E-03 -2.17388517E-02 -3.96328552E-02
  4.44062195E-02  0.00000000E+00  1.52688253E-01  1.62784734E-01 -1.78491188E-01
  0.00000000E+00  7.98925581E-03 -2.17402746E-02  3.96741146E-02 -4.43513650E-02
  0.00000000E+00  1.52641191E-01 -1.62929190E-01  1.78254341E-01  0.00000000E+00
 -1.14041850E-01  8.46130042E-01  5.19458452E-02  1.12467679E+00  0.00000000E+00
  1.35850171E-01  1.14042421E-01 -8.46176668E-01  5.11685550E-02  1.12468426E+00
  0.00000000E+00 -1.35307546E-01 -1.87060219E-03  5.10806577E-03  2.44701825E-02
  1.77582265E-02  0.00000000E+00 -3.50466007E-02 -9.70853704E-02 -7.04850187E-02
  0.00000000E+00  1.85464222E-03 -5.06639499E-03  2.43491550E-02  1.78148728E-02
  0.00000000E+00  3.47143889E-02 -9.65760323E-02 -7.07210452E-02  0.00000000E+00
Orthonormal basis                          R   N=         900
  1.14061666E-01  3.59679297E-01 -1.60284753E-02  1.32514818E-01  0.00000000E+00
  2.06947708E-01  1.14102752E-01  3.59792554E-01  1.60088257E-02 -1.32399188E-01
  0.00000000E+00  2.07043355E-01  9.97380041E-03  2.84533506E-02  2.36455431E-02
 -2.03998836E-02  0.00000000E+00  9.49393695E-02  9.49314151E-02 -8.23204928E-02
  0.00000000E+00  9.96196890E-03  2.84204108E-02 -2.36267093E-02  2.03788462E-02
  0.00000000E+00  9.48459842E-02 -9.48625334E-02  8.22410859E-02  0.00000000E+00
  1.01716405E-01  2.25330980E-01 -1.92734562E-01 -2.18443330E-01  0.00000000E+00
  3.25242006E-01 -1.01634589E-01 -2.25146626E-01 -1.92655789E-01 -2.18725604E-01
  0.00000000E+00 -3.25157994E-01 -1.30907698E-02 -2.83963989E-02 -3.98424065E-02
 -9.64330600E-03  0.00000000E+00 -6.32787494E-02 -1.16841900E-01 -2.91324255E-02
  0.00000000E+00  1.30559868E-02  2.83223471E-02 -3.97784490E-02 -9.65578437E-03
  0.00000000E+00  6.31416093E-02 -1.16669530E-01 -2.91635066E-02  0.00000000E+00
  4.92314906E-02  1.12299710E-01  3.44487273E-01 -1.07632132E-01  0.00000000E+00
 -7.75425235E-02 -4.91747988E-02 -1.12185337E-01  3.44563893E-01 -1.07994220E-01
  0.00000000E+00  7.75589155E-02 -6.24290166E-02 -1.23605655E-01 -7.36938327E-02
  5.94061285E-02  0.00000000E+00 -2.20993562E-01 -1.84508277E-01  1.52106959E-01
  0.00000000E+00  6.23853362E-02  1.23521245E-01 -7.36899955E-02  5.93601822E-02
  0.00000000E+00  2.20887069E-01 -1.84522234E-01  1.52008104E-01  0.00000000E+00
  3.29218352E-02  1.63795479E-02 -6.70845909E-02  3.93981455E-01  0.00000000E+00
 -9.02701476E-02  3.30769351E-02  1.66345234E-02  6.69671877E-02 -3.93764758E-01
  0.00000000E+00 -9.00742255E-02 -1.48726787E-01 -2.15328144E-01 -1.04827200E-01
 -1.80400693E-02  0.00000000E+00 -2.09064232E-01 -1.89254283E-01 -3.95306439E-02
  0.00000000E+00 -1.48824086E-01 -2.15470794E-01  1.04918095E-01  1.80361301E-02
  0.00000000E+00 -2.09239729E-01  1.89435246E-01  3.95152067E-02  0.00000000E+00
 -5.96541341E-03 -1.62686891E-02  1.91126424E-01  2.40360666E-01  0.00000000E+00
 -2.31167228E-01 -5.90852734E-03 -1.61919920E-02 -1.91206307E-01 -2.40299107E-01
  0.00000000E+00 -2.31133837E-01  2.44863906E-01  2.95090598E-01 -6.48634934E-02
 -7.23242310E-02  0.00000000E+00  1.62540207E-01 -1.02167498E-01 -1.10386177E-01
  0.00000000E+00  2.44967694E-01  2.95215712E-01  6.47603901E-02  7.22235006E-02
  0.00000000E+00  1.62610492E-01  1.02009402E-01  1.10232672E-01  0.00000000E+00
  3.76080240E-02  4.20432708E-02  7.91701155E-02 -3.59562627E-02  0.00000000E+00
 -4.98549035E-03 -3.76048089E-02 -4.20267696E-02  7.90942011E-02 -3.60203311E-02
  0.00000000E+00  4.92249966E-03  3.37082175E-01  3.81021461E-01 -1.22230613E-01
  8.50729875E-02  0.00000000E+00  1.56742400E-01 -1.73963383E-01  1.21539103E-01
  0.00000000E+00 -3.36981263E-01 -3.80907026E-01 -1.22250722E-01  8.50174774E-02
  0.00000000E+00 -1.56687691E-01 -1.73995752E-01  1.21462527E-01  0.00000000E+00
  1.10690784E-02  4.10718093E-03 -2.60715362E-01  2.24081703E-03  0.00000000E+00
  1.89984654E-01  1.10538120E-02  4.11011339E-03  2.60704285E-01 -2.22229201E-03
  0.00000000E+00  1.89992048E-01  1.66628749E-01  1.62117434E-01 -2.26146399E-01
  1.98204364E-01  0.00000000E+00  1.83588543E-02 -2.69731027E-01  2.37769925E-01
  0.00000000E+00  1.66610811E-01  1.62099112E-01  2.26508673E-01 -1.97828911E-01
  0.00000000E+00  1.83381127E-02  2.70181918E-01 -2.37318644E-01  0.00000000E+00
  5.23134049E-02  4.24800041E-02 -5.40907234E-02 -8.69332223E-03  0.00000000E+00
  7.41728256E-02 -5.24477297E-02 -4.25765178E-02 -5.41708300E-02 -8.42415620E-03
  0.00000000E+00 -7.41373438E-02 -6.34057622E-03 -4.92113595E-03  2.48647986E-01
  3.76952381E-01  0.00000000E+00  9.33674807E-04  2.35215029E-01  3.58790579E-01
  0.00000000E+00  6.32695783E-03  4.90981879E-03  2.48707562E-01  3.78159987E-01
  0.00000000E+00 -9.46706644E-04  2.35279755E-01  3.59932822E-01  0.00000000E+00
  5.11167756E-02  3.00130051E-02  8.70381551E-02  1.89073908E-01  0.00000000E+00
 -1.44292800E-01  5.10016957E-02  2.99254920E-02 -8.72306966E-02 -1.89057376E-01
  0.00000000E+00 -1.44496591E-01  1.07561451E-02  7.58069467E-03  2.29561089E-01
  3.75768253E-01  0.00000000E+00 -5.64393381E-03  2.01140589E-01  3.28075493E-01
  0.00000000E+00  1.07506134E-02  7.57684316E-03 -2.28750486E-01 -3.75030319E-01
  0.00000000E+00 -5.64006119E-03 -2.00433333E-01 -3.27430896E-01  0.00000000E+00
  1.42944689E-01  8.07857567E-02  1.31254298E-01 -6.78327770E-02  0.00000000E+00
 -3.63519371E-03 -1.42931412E-01 -8.07829251E-02  1.31228239E-01 -6.78199115E-02
  0.00000000E+00  3.61664898E-03  2.63985495E-01  1.17876264E-01  3.56264001E-01
 -2.37529481E-01  0.00000000E+00 -2.65535949E-01  1.96880839E-01 -1.30648178E-01
  0.00000000E+00 -2.63868939E-01 -1.17823421E-01  3.56297542E-01 -2.37237474E-01
  0.00000000E+00  2.65434220E-01  1.96891956E-01 -1.30483368E-01  0.00000000E+00
  8.10948230E-02  5.80721554E-02  2.18825964E-01 -9.32986753E-02  0.00000000E+00
 -8.86280951E-02  8.08901829E-02  5.79895963E-02 -2.18765546E-01  9.32584074E-02
  0.00000000E+00 -8.86530981E-02 -3.33525433E-01 -1.06148252E-01 -2.85330146E-01
  1.46905437E-01  0.00000000E+00  3.78929548E-01 -1.14241021E-01  6.00712452E-02
  0.00000000E+00 -3.33555185E-01 -1.06156273E-01  2.85571183E-01 -1.46705959E-01
  0.00000000E+00  3.78991542E-01  1.14322070E-01 -5.99865391E-02  0.00000000E+00
  6.39442671E-01  2.45921120E-02  1.94585185E-02  8.73391927E-02  0.00000000E+00
 -1.14197552E-01 -6.39335113E-01 -2.45999154E-02  1.94727428E-02  8.73012269E-02
  0.00000000E+00  1.14148269E-01 -1.62097465E-01 -1.05453632E-03 -9.34465198E-03
 -6.34592518E-02  0.00000000E+00  2.19531614E-01 -2.32683501E-03  3.65645408E-03
  0.00000000E+00  1.62214602E-01  1.05478601E-03 -9.32192421E-03 -6.34306309E-02
  0.00000000E+00 -2.19700784E-01 -2.32437257E-03  3.65285089E-03  0.00000000E+00
  6.63774154E-01 -4.65434357E-02  3.66357261E-02 -1.42365279E-01  0.00000000E+00
 -1.15478125E-01  6.63977345E-01 -4.65567935E-02 -3.65642910E-02  1.42298787E-01
  0.00000000E+00 -1.15495250E-01  1.15537378E-01 -1.17773470E-02 -8.36687031E-02
 -3.48767390E-02  0.00000000E+00 -1.66388449E-01  1.22651095E-02  6.90851938E-03
  0.00000000E+00  1.15588775E-01 -1.17822933E-02  8.36773337E-02  3.49342584E-02
  0.00000000E+00 -1.66458003E-01 -1.22662037E-02 -6.91827748E-03  0.00000000E+00
 -1.88318584E-01  7.28093831E-02  1.45839245E-01 -1.18223855E-01  0.00000000E+00
  5.62013609E-02  1.87985474E-01 -7.26280342E-02  1.45562918E-01 -1.18165847E-01
  0.00000000E+00 -5.62141942E-02 -2.70982068E-01  1.10100000E-01  4.21886998E-01
 -2.36505404E-01  0.00000000E+00  3.48243925E-01 -2.27258831E-01  1.27389660E-01
  0.00000000E+00  2.71217212E-01 -1.10194474E-01  4.22432979E-01 -2.36536828E-01
  0.00000000E+00 -3.48526939E-01 -2.27562337E-01  1.27411343E-01  0.00000000E+00
  1.77365695E-01 -1.06188909E-01 -1.87809176E-01  6.97170026E-02  0.00000000E+00
  1.59046786E-02  1.77525613E-01 -1.06241979E-01  1.87909436E-01 -6.97939462E-02
  0.00000000E+00  1.58694330E-02 -2.21834855E-01  1.05977120E-01  4.56657852E-01
 -2.60738843E-01  0.00000000E+00  2.75055452E-01 -2.86321068E-01  1.62980232E-01
  0.00000000E+00 -2.21566413E-01  1.05847741E-01 -4.56374541E-01  2.60120534E-01
  0.00000000E+00  2.74702144E-01  2.86154544E-01 -1.62596858E-01  0.00000000E+00
 -4.07514279E-02  3.53981384E-02 -2.21266894E-02  2.26764214E-02  0.00000000E+00
  9.06486362E-02  4.08730192E-02 -3.54934360E-02 -2.22309199E-02  2.28324117E-02
  0.00000000E+00 -9.06398064E-02  2.83127696E-03 -2.23293921E-03 -2.87421520E-01
 -4.92050518E-01  0.00000000E+00 -2.88278573E-03  2.93767783E-01  5.03848641E-01
  0.00000000E+00 -2.83270454E-03  2.23308204E-03 -2.87695128E-01 -4.93404826E-01
  0.00000000E+00  2.86802333E-03  2.94054351E-01  5.05231520E-01  0.00000000E+00
 -5.61601286E-02  4.65085630E-02 -4.31134047E-03  8.69700256E-02  0.00000000E+00
 -5.19891553E-02 -5.60524554E-02  4.64073767E-02  4.23288214E-03 -8.68629163E-02
  0.00000000E+00 -5.22640050E-02 -3.17278718E-03  2.67987130E-03 -2.73401236E-01
 -4.95559461E-01  0.00000000E+00  5.23789203E-03  2.86293521E-01  5.15945556E-01
  0.00000000E+00 -3.17818808E-03  2.68402794E-03  2.72487881E-01  4.94590625E-01
  0.00000000E+00  5.24009105E-03 -2.85341745E-01 -5.14937127E-01  0.00000000E+00
  3.49633901E-02 -5.19128381E-02 -1.12918647E-01  8.19091905E-02  0.00000000E+00
 -3.98553737E-02 -3.48568566E-02  5.17340388E-02 -1.12662938E-01  8.18221930E-02
  0.00000000E+00  3.98848882E-02  5.10502670E-01 -5.97051883E-01  1.63940072E-01
 -9.59454199E-02  0.00000000E+00  2.09050955E-01 -2.58624868E-01  1.51212689E-01
  0.00000000E+00 -5.11193369E-01  5.97858913E-01  1.64234575E-01 -9.59913616E-02
  0.00000000E+00 -2.09346457E-01 -2.59083019E-01  1.51282388E-01  0.00000000E+00
  3.67058919E-02 -7.08957658E-02 -1.15488295E-01  4.68965354E-02  0.00000000E+00
  3.59176620E-04  3.67278655E-02 -7.09354678E-02  1.15582507E-01 -4.69480502E-02
  0.00000000E+00  3.10712150E-04 -5.23961777E-01  6.22611274E-01 -1.26238550E-01
  7.07023168E-02  0.00000000E+00 -2.48377691E-01  2.03439914E-01 -1.14295675E-01
  0.00000000E+00 -5.23219361E-01  6.21728300E-01  1.26125205E-01 -7.05152941E-02
  0.00000000E+00 -2.48038534E-01 -2.03250760E-01  1.13991608E-01  0.00000000E+00
 -5.97285037E-02  1.19914792E-01  5.44546714E-01 -2.59426377E-01  0.00000000E+00
  2.92051595E-01  5.91808071E-02 -1.18400679E-01  5.42785213E-01 -2.58633614E-01
  0.00000000E+00 -2.92210530E-01  1.34085740E-01 -2.38224349E-01 -1.92511535E-01
  1.20969896E-01  0.00000000E+00  5.00573993E-01  4.81054205E-01 -3.01148483E-01
  0.00000000E+00 -1.34512566E-01  2.38985715E-01 -1.93239989E-01  1.21219839E-01
  0.00000000E+00 -5.02121002E-01  4.82848174E-01 -3.01763673E-01  0.00000000E+00
  1.33380890E-01 -4.39768420E-01 -6.19157529E-01  2.66856628E-01  0.00000000E+00
 -5.64380725E-02  1.33326988E-01 -4.39551679E-01  6.22219230E-01 -2.65348816E-01
  0.00000000E+00 -6.01472073E-02  9.34428941E-02 -1.82840251E-01 -1.81582321E-01
  1.01646751E-01  0.00000000E+00  5.05552707E-01  5.14335852E-01 -2.89688977E-01
  0.00000000E+00  9.31925691E-02 -1.82356200E-01  1.81236467E-01 -1.01143329E-01
  0.00000000E+00  5.04115961E-01 -5.13315778E-01  2.88251154E-01  0.00000000E+00
  6.06139432E-02 -1.71427371E-01  3.34171354E-01  8.24833935E-01  0.00000000E+00
  7.74953313E-01 -6.09952948E-02  1.72762311E-01  3.31863196E-01  8.25694563E-01
  0.00000000E+00 -7.74448802E-01 -2.13274682E-02  4.41737886E-02  5.93265311E-02
  2.41758077E-03  0.00000000E+00 -1.27445573E-01 -1.75072287E-01 -7.02350182E-03
  0.00000000E+00  2.10505417E-02 -4.36110878E-02  5.87081134E-02  2.76646829E-03
  0.00000000E+00  1.25645679E-01 -1.73195699E-01 -8.08196154E-03  0.00000000E+00
  1.45397190E-01 -6.68070622E-01  6.23495723E-01  3.56718075E-01  0.00000000E+00
  8.86319335E-01  1.45411850E-01 -6.68078756E-01 -6.23381592E-01 -3.57169984E-01
  0.00000000E+00  8.86425061E-01  2.99507511E-03 -7.92058073E-03 -2.34298819E-02
 -1.34726480E-02  0.00000000E+00  8.04416696E-03  6.92989797E-02  4.68899029E-02
  0.00000000E+00  2.96098086E-03 -7.84528520E-03  2.33289188E-02  1.35189907E-02
  0.00000000E+00  7.76491641E-03 -6.89590610E-02 -4.70345480E-02  0.00000000E+00
  2.43490146E-01 -1.31346975E+00  8.58205441E-02 -7.09866830E-01  0.00000000E+00
  3.62793989E-01 -2.43526526E-01  1.31367147E+00  8.57238653E-02 -7.09737346E-01
  0.00000000E+00 -3.62865383E-01 -1.15580168E-02  2.90538313E-02  2.83556120E-02
 -3.39525454E-02  0.00000000E+00 -1.18830598E-01 -1.03820415E-01  1.25677267E-01
  0.00000000E+00  1.15464963E-02 -2.90259748E-02  2.83449295E-02 -3.39034509E-02
  0.00000000E+00  1.18703052E-01 -1.03780014E-01  1.25493909E-01  0.00000000E+00
  0.00000000E+00  0.00000000E+00  0.00000000E+00  0.00000000E+00  4.14387164E-01
  0.00000000E+00  0.00000000E+00  0.00000000E+00  0.00000000E+00  0.00000000E+00
  4.14523809E-01  0.00000000E+00  0.00000000E+00  0.00000000E+00  0.00000000E+00
  0.00000000E+00  2.66772098E-01  0.00000000E+00  0.00000000E+00  0.00000000E+00
  3.56450752E-01  0.00000000E+00  0.00000000E+00  0.00000000E+00  0.00000000E+00
  2.66494347E-01  0.00000000E+00  0.00000000E+00  0.00000000E+00  3.56083861E-01
  0.00000000E+00  0.00000000E+00  0.00000000E+00  0.00000000E+00  1.00653113E-01
  0.00000000E+00  0.00000000E+00  0.00000000E+00  0.00000000E+00  0.00000000E+00
 -1.00506901E-01  0.00000000E+00  0.00000000E+00  0.00000000E+00  0.00000000E+00
  0.00000000E+00 -4.27823142E-01  0.00000000E+00  0.00000000E+00  0.00000000E+00
 -4.47367577E-01  0.00000000E+00  0.00000000E+00  0.00000000E+00  0.00000000E+00
  4.28192065E-01  0.00000000E+00  0.00000000E+00  0.00000000E+00  4.47754547E-01
  0.00000000E+00  0.00000000E+00  0.00000000E+00  0.00000000E+00  4.65614014E-01
  0.00000000E+00  0.00000000E+00  0.00000000E+00  0.00000000E+00  0.00000000E+00
  4.65497638E-01  0.00000000E+00  0.00000000E+00  0.00000000E+00  0.00000000E+00
  0.00000000E+00 -3.95092815E-01  0.00000000E+00  0.00000000E+00  0.00000000E+00
 -2.46059761E-01  0.00000000E+00  0.00000000E+00  0.00000000E+00  0.00000000E+00
 -3.94867438E-01  0.00000000E+00  0.00000000E+00  0.00000000E+00 -2.45915270E-01
  0.00000000E+00  0.00000000E+00  0.00000000E+00  0.00000000E+00  5.68501076E-01
  0.00000000E+00  0.00000000E+00  0.00000000E+00  0.00000000E+00  0.00000000E+00
 -5.68372511E-01  0.00000000E+00  0.00000000E+00  0.00000000E+00  0.00000000E+00
  0.00000000E+00  4.44253393E-01  0.00000000E+00  0.00000000E+00  0.00000000E+00
 -2.97055563E-01  0.00000000E+00  0.00000000E+00  0.00000000E+00  0.00000000E+00
 -4.43959738E-01  0.00000000E+00  0.00000000E+00  0.00000000E+00  2.96863829E-01
  0.00000000E+00  0.00000000E+00  0.00000000E+00  0.00000000E+00 -1.56081427E-01
  0.00000000E+00  0.00000000E+00  0.00000000E+00  0.00000000E+00  0.00000000E+00
 -1.55692093E-01  0.00000000E+00  0.00000000E+00  0.00000000E+00  0.00000000E+00
  0.00000000E+00 -5.55343470E-01  0.00000000E+00  0.00000000E+00  0.00000000E+00
  5.96859958E-01  0.00000000E+00  0.00000000E+00  0.00000000E+00  0.00000000E+00
 -5.56023680E-01  0.00000000E+00  0.00000000E+00  0.00000000E+00  5.97590547E-01
  0.00000000E+00  0.00000000E+00  0.00000000E+00  0.00000000E+00 -5.72037196E-01
  0.00000000E+00  0.00000000E+00  0.00000000E+00  0.00000000E+00  0.00000000E+00
  5.72317720E-01  0.00000000E+00  0.00000000E+00  0.00000000E+00  0.00000000E+00
  0.00000000E+00  3.94574206E-01  0.00000000E+00  0.00000000E+00  0.00000000E+00
 -5.06022803E-01  0.00000000E+00  0.00000000E+00  0.00000000E+00  0.00000000E+00
 -3.93957772E-01  0.00000000E+00  0.00000000E+00  0.00000000E+00  5.05228992E-01
Total SCF Density                          R   N=         465
  2.07529306E+00 -2.46963800E-01  9.71871311E-01 -1.49147887E-02  1.09302879E-01
  6.92601478E-01  1.10088106E-02 -9.06972004E-02 -3.45469629E-02  6.37230730E-01
  0.00000000E+00  0.00000000E+00  0.00000000E+00  0.00000000E+00  7.53358928E-01
 -1.09755817E-01  2.67041238E-01 -4.75982385E-01 -2.67180106E-01  0.00000000E+00
  5.90919541E-01  2.50804940E-02 -5.87082459E-02  3.51339430E-03 -1.15389364E-01
  0.00000000E+00  3.14162219E-02  2.07529046E+00 -5.87090932E-02  5.00680871E-02
 -7.09420661E-03  2.81665964E-01  0.00000000E+00 -1.23392164E-01 -2.46938965E-01
  9.71753266E-01 -3.50199246E-03  7.03727925E-03  2.10820484E-02 -7.39144885E-03
  0.00000000E+00  7.19932274E-02  1.49051525E-02 -1.09211619E-01  6.92599831E-01
  1.15375285E-01 -2.81589557E-01 -7.32605876E-03 -4.64010610E-01 -4.92590629E-33
  1.13701060E-01 -1.09979165E-02  9.06377212E-02 -3.45013213E-02  6.37224192E-01
  0.00000000E+00  0.00000000E+00  0.00000000E+00  0.00000000E+00  3.99636996E-01
  0.00000000E+00  0.00000000E+00  0.00000000E+00  0.00000000E+00  0.00000000E+00
  7.53465092E-01  3.14181391E-02 -1.23425845E-01 -7.20068328E-02 -1.13685911E-01
  0.00000000E+00  1.26134138E-01 -1.09747185E-01  2.67030898E-01  4.76068014E-01
  2.67104704E-01  0.00000000E+00  5.90968963E-01  9.26526934E-04 -2.25164187E-03
  5.20427335E-03 -2.74511855E-03  0.00000000E+00 -8.28171492E-04 -1.77251766E-03
  4.54734478E-04 -1.02513946E-02  5.65916045E-03  0.00000000E+00 -3.68463597E-03
  2.26521671E+00 -3.39700103E-03  8.46777319E-03 -1.65985676E-02  1.00923468E-02
  0.00000000E+00  3.77580214E-03  6.73583646E-03 -2.10867342E-03  3.58329514E-02
 -2.02273002E-02  0.00000000E+00  1.34086725E-02 -7.97312239E-01  2.40065131E+00
 -1.50001383E-03 -4.97304247E-03 -1.08930206E-02  1.67114757E-02  0.00000000E+00
  2.22342369E-02  3.79853711E-02 -1.55296621E-01  1.71467784E-01 -1.16568047E-01
  0.00000000E+00  6.86523764E-02  9.60873577E-03 -2.86247549E-02  2.04916934E+00
  1.32115443E-02 -5.88178328E-02  1.18555724E-02 -4.41698327E-02 -1.05957800E-34
 -9.27335595E-03 -2.13572085E-02  8.93749913E-02 -1.10003957E-01  4.22241769E-02
  2.93200495E-33  2.40056782E-02 -5.42263158E-03  1.61047944E-02  5.17380404E-02
  2.11118508E+00  0.00000000E+00  0.00000000E+00  0.00000000E+00  0.00000000E+00
  8.59631800E-03  0.00000000E+00  0.00000000E+00  0.00000000E+00  0.00000000E+00
  0.00000000E+00 -2.37872501E-01  0.00000000E+00  0.00000000E+00  0.00000000E+00
  0.00000000E+00  0.00000000E+00  2.04237403E+00  7.27810737E-03 -6.33805479E-03
  6.39422674E-02 -2.46692501E-02  0.00000000E+00 -1.07054763E-02  1.64541872E-02
 -1.78622788E-01  3.89156405E-02 -2.95515223E-02  0.00000000E+00 -3.14337110E-02
  1.53870529E-01 -5.48030458E-01  1.34918689E-01 -7.63021473E-02  0.00000000E+00
  2.11074011E+00  1.89932637E-03  2.81470529E-02  3.69221745E-02 -4.81245419E-02
  0.00000000E+00 -6.97447718E-02 -9.87872455E-02  3.58322462E-01 -4.60812733E-01
  2.94849076E-01  0.00000000E+00 -2.25638740E-01 -3.06182506E-02  9.19100535E-02
 -2.30542797E-01 -1.79418584E-01  0.00000000E+00 -3.88485314E-01  1.06913362E+00
 -4.57258028E-02  1.88252897E-01 -4.75886551E-02  1.52657750E-01  4.55394121E-34
  3.47251478E-02  5.50410064E-02 -2.05271280E-01  2.75711583E-01 -1.33845747E-01
 -9.01437269E-33 -9.10802654E-02  1.72458043E-02 -5.15956739E-02 -1.79621123E-01
 -4.45611059E-01  2.72777595E-33  2.18679314E-01  6.02742015E-01  1.79196846E+00
  0.00000000E+00  0.00000000E+00  0.00000000E+00  0.00000000E+00 -3.69459603E-02
  0.00000000E+00  0.00000000E+00  0.00000000E+00  0.00000000E+00  0.00000000E+00
  7.31332797E-01  0.00000000E+00  0.00000000E+00  0.00000000E+00  0.00000000E+00
  0.00000000E+00 -2.21303476E-01  0.00000000E+00  0.00000000E+00  0.00000000E+00
  1.05014076E+00 -1.76928740E-03  4.48425238E-04  1.02416762E-02 -5.65029845E-03
  0.00000000E+00 -3.67773342E-03  9.27189848E-04 -2.25625294E-03 -5.20427931E-03
  2.74477093E-03  0.00000000E+00 -8.27978068E-04  4.45710153E-05 -1.87345298E-04
 -6.21471378E-04  9.87519501E-04  0.00000000E+00 -8.94106087E-05  1.67861913E-03
 -3.05874419E-03  0.00000000E+00  2.26521737E+00  6.72331877E-03 -2.08532227E-03
 -3.57970421E-02  2.01946818E-02  0.00000000E+00  1.33868252E-02 -3.39856867E-03
  8.48091022E-03  1.65990367E-02 -1.00895163E-02  0.00000000E+00  3.77579548E-03
 -1.87317693E-04  7.45673497E-04  2.19209685E-03 -3.27154399E-03  0.00000000E+00
 -2.64363765E-04 -6.04667245E-03  1.02537388E-02  0.00000000E+00 -7.97314055E-01
  2.40065605E+00 -3.79931116E-02  1.55341602E-01  1.71544615E-01 -1.16543160E-01
  0.00000000E+00 -6.86154048E-02  1.51026096E-03  4.91333419E-03 -1.08889188E-02
  1.67523553E-02  0.00000000E+00 -2.22437142E-02  6.21954157E-04 -2.19382233E-03
 -5.09959861E-03  9.21800988E-03  0.00000000E+00  5.47557553E-03  1.55008981E-02
 -3.05944907E-02  0.00000000E+00 -9.60966305E-03  2.86308408E-02  2.04909150E+00
  2.13272859E-02 -8.92498843E-02 -1.09907110E-01  4.21455438E-02  2.93208980E-33
 -2.40094516E-02 -1.32081548E-02  5.88117504E-02  1.18443522E-02 -4.41230176E-02
 -1.05725447E-34  9.27870785E-03 -9.87678742E-04  3.27190374E-03  9.20980263E-03
 -9.55066177E-03  7.24296020E-34 -1.11407916E-02 -3.02643716E-02  3.24007396E-02
 -2.36439357E-33  5.41516335E-03 -1.60842618E-02  5.17078790E-02  2.11124657E+00
  0.00000000E+00  0.00000000E+00  0.00000000E+00  0.00000000E+00 -2.37879385E-01
  0.00000000E+00  0.00000000E+00  0.00000000E+00  0.00000000E+00  0.00000000E+00
  8.57746727E-03  0.00000000E+00  0.00000000E+00  0.00000000E+00  0.00000000E+00
  0.00000000E+00 -5.87618742E-02  0.00000000E+00  0.00000000E+00  0.00000000E+00
  1.91822396E-01  0.00000000E+00  0.00000000E+00  0.00000000E+00  0.00000000E+00
  2.04239123E+00  1.64626644E-02 -1.78535269E-01 -3.89604544E-02  2.95127946E-02
  0.00000000E+00 -3.13433280E-02  7.29492251E-03 -6.41101714E-03 -6.39449534E-02
  2.46886891E-02  0.00000000E+00 -1.07107432E-02 -8.90544640E-05 -2.65989129E-04
 -5.47177402E-03  1.11367929E-02  0.00000000E+00 -1.03755249E-02  1.25475024E-02
 -3.21453159E-02  0.00000000E+00  1.53879926E-01 -5.48060284E-01 -1.34902088E-01
  7.61800124E-02  0.00000000E+00  2.11076600E+00  9.88176346E-02 -3.58528355E-01
 -4.61026328E-01  2.94868392E-01  0.00000000E+00  2.25487466E-01 -1.94030143E-03
 -2.79411673E-02  3.69111936E-02 -4.82764163E-02  0.00000000E+00  6.97717252E-02
 -1.68015056E-03  6.05225310E-03  1.55015832E-02 -3.02899238E-02  0.00000000E+00
 -1.25588104E-02 -4.62209125E-02  9.91818698E-02  0.00000000E+00  3.06201549E-02
 -9.19242291E-02 -2.30295308E-01 -1.79300002E-01  0.00000000E+00  3.88474036E-01
  1.06831861E+00 -5.49640883E-02  2.05009238E-01  2.75497933E-01 -1.33661467E-01
 -9.01520472E-33  9.10709307E-02  4.57184848E-02 -1.88247951E-01 -4.75591601E-02
  1.52510921E-01  4.54538195E-34 -3.47599892E-02  3.05972725E-03 -1.02566007E-02
 -3.05683238E-02  3.24004767E-02 -2.36439345E-33  3.21626337E-02  9.91004149E-02
 -1.08483998E-01  7.71494100E-33 -1.72210773E-02  5.15257032E-02 -1.79503440E-01
 -4.45831257E-01  2.72853791E-33 -2.18338480E-01  6.02327409E-01  1.79271399E+00
  0.00000000E+00  0.00000000E+00  0.00000000E+00  0.00000000E+00  7.31400299E-01
  0.00000000E+00  0.00000000E+00  0.00000000E+00  0.00000000E+00  0.00000000E+00
 -3.68765194E-02  0.00000000E+00  0.00000000E+00  0.00000000E+00  0.00000000E+00
  0.00000000E+00  1.91822386E-01  0.00000000E+00  0.00000000E+00  0.00000000E+00
 -6.25910373E-01  0.00000000E+00  0.00000000E+00  0.00000000E+00  0.00000000E+00
 -2.21365294E-01  0.00000000E+00  0.00000000E+00  0.00000000E+00  1.05035684E+00
Mulliken Charges                           R   N=           6
 -1.51233291E-01  7.45586301E-02 -1.51344709E-01  7.45446006E-02  7.67728238E-02
  7.67019458E-02
ONIOM Charges                              I   N=          16
           0           0           0           0           0           0
           0           0           0           0           0           0
           0           0           0           0
ONIOM Multiplicities                       I   N=          16
           1           0           0           0           0           0
           0           0           0           0           0           0
           0           0           0           0
Atom Layers                                I   N=           6
           1           1           1           1           1           1
Atom Modifiers                             I   N=           6
           0           0           0           0           0           0
Int Atom Modified Types                    I   N=           6
           0           0           0           0           0           0
Force Field                                I                0
Atom Modified Types                        C   N=           6
                                                            
            
Link Atoms                                 I   N=           6
           0           0           0           0           0           0
Atom Modified MM Charges                   R   N=           6
  0.00000000E+00  0.00000000E+00  0.00000000E+00  0.00000000E+00  0.00000000E+00
  0.00000000E+00
Link Distances                             R   N=          24
  0.00000000E+00  0.00000000E+00  0.00000000E+00  0.00000000E+00  0.00000000E+00
  0.00000000E+00  0.00000000E+00  0.00000000E+00  0.00000000E+00  0.00000000E+00
  0.00000000E+00  0.00000000E+00  0.00000000E+00  0.00000000E+00  0.00000000E+00
  0.00000000E+00  0.00000000E+00  0.00000000E+00  0.00000000E+00  0.00000000E+00
  0.00000000E+00  0.00000000E+00  0.00000000E+00  0.00000000E+00
Cartesian Gradient                         R   N=          18
  0.00000000E+00  0.00000000E+00 -0.00000000E+00  0.00000000E+00  0.00000000E+00
 -0.00000000E+00  0.00000000E+00  0.00000000E+00 -0.00000000E+00  0.00000000E+00
  0.00000000E+00 -0.00000000E+00  0.00000000E+00  0.00000000E+00 -0.00000000E+00
  0.00000000E+00  0.00000000E+00 -0.00000000E+00
Nonadiabatic coupling                      R   N=          18
  0.00000000E+00  0.00000000E+00 -0.00000000E+00  0.00000000E+00  0.00000000E+00
 -0.00000000E+00  0.00000000E+00  0.00000000E+00 -0.00000000E+00  0.00000000E+00
  0.00000000E+00 -0.00000000E+00  0.00000000E+00  0.00000000E+00 -0.00000000E+00
  0.00000000E+00  0.00000000E+00 -0.00000000E+00
Dipole Moment                              R   N=           3
 -1.89008473E-04 -1.49363741E-04 -2.92199684E-33
Quadrupole Moment                          R   N=           6
 -6.96725477E-01 -1.15793966E+00  1.85466514E+00  1.51791231E+00 -4.93038066E-32
  0.00000000E+00
QEq coupling tensors                       R   N=          36
  6.30395879E-03 -3.52210163E-02 -4.97531682E-02 -3.85185989E-34  7.70371978E-34
  4.34492095E-02 -2.18317342E-01 -2.34356700E-01  3.88351492E-02 -9.24446373E-33
 -6.16297582E-33  1.79482192E-01  6.24893522E-03 -3.50996837E-02 -4.98737012E-02
  0.00000000E+00  7.70371978E-34  4.36247660E-02 -2.18334395E-01 -2.34327435E-01
  3.88498193E-02  1.23259516E-32  6.16297582E-33  1.79484576E-01 -1.04151710E+00
  2.97370865E+00  2.51995544E+00  0.00000000E+00  9.86076132E-32 -1.47843834E+00
 -1.04601048E+00  2.97199041E+00  2.52347386E+00 -4.93038066E-32  4.93038066E-32
 -1.47746338E+00
ClPar MaxAn                                I              200
ClPar NIntPar                              I                4
ClPar NRealPar                             I               16
ClPar NBits                                I               30
ClPar LenBitVec                            I                1
ClPar Read BitMap                          I   N=         200
           0           0           0           0           0           0
           0           0           0           0           0           0
           0           0           0           0           0           0
           0           0           0           0           0           0
           0           0           0           0           0           0
           0           0           0           0           0           0
           0           0           0           0           0           0
           0           0           0           0           0           0
           0           0           0           0           0           0
           0           0           0           0           0           0
           0           0           0           0           0           0
           0           0           0           0           0           0
           0           0           0           0           0           0
           0           0           0           0           0           0
           0           0           0           0           0           0
           0           0           0           0           0           0
           0           0           0           0           0           0
           0           0           0           0           0           0
           0           0           0           0           0           0
           0           0           0           0           0           0
           0           0           0           0           0           0
           0           0           0           0           0           0
           0           0           0           0           0           0
           0           0           0           0           0           0
           0           0           0           0           0           0
           0           0           0           0           0           0
           0           0           0           0           0           0
           0           0           0           0           0           0
           0           0           0           0           0           0
           0           0           0           0           0           0
           0           0           0           0           0           0
           0           0           0           0           0           0
           0           0           0           0           0           0
           0           0
ClPar Default BitMap                       I   N=         200
        2016        2016        2016        2016        2016        2016
        2016        2016        2016        2016        2016        2016
        2016        2016        2016        2016        2016        2016
        2016        2016        2016        2016        2016        2016
        2016        2016        2016        2016        2016        2016
        2016        2016        2016        2016        2016        2016
        2016        2016        2016        2016        2016        2016
        2016        2016        2016        2016        2016        2016
        2016        2016        2016        2016        2016        2016
        2016        2016        2016        2016        2016        2016
        2016        2016        2016        2016        2016        2016
        2016        2016        2016        2016        2016        2016
        2016        2016        2016        2016        2016        2016
        2016        2016        2016        2016        2016        2016
        2016        2016         480         480         480         480
         480         480         480         480         480         480
         480         480         480         480         480         480
         480         480         480         480         480         480
         480         480         480         480         480         480
         480         480         480         480         480         480
         480         480         480         480         480         480
         480         480         480         480         480         480
         480         480         480         480         480         480
         480         480         480         480         480         480
         480         480         480         480         480         480
         480         480         480         480         480         480
         480         480         480         480         480         480
         480         480         480         480         480         480
         480         480         480         480         480         480
         480         480         480         480         480         480
         480         480         480         480         480         480
         480         480         480         480         480         480
         480         480         480         480         480         480
         480         480
ClPar Int Params                           I   N=         800
           0           0           0           0           0           0
           0           0           0           0           0           0
           0           0           0           0           0           0
           0           0           0           0           0           0
           0           0           0           0           0           0
           0           0           0           0           0           0
           0           0           0           0           0           0
           0           0           0           0           0           0
           0           0           0           0           0           0
           0           0           0           0           0           0
           0           0           0           0           0           0
           0           0           0           0           0           0
           0           0           0           0           0           0
           0           0           0           0           0           0
           0           0           0           0           0           0
           0           0           0           0           0           0
           0           0           0           0           0           0
           0           0           0           0           0           0
           0           0           0           0           0           0
           0           0           0           0           0           0
           0           0           0           0           0           0
           0           0           0           0           0           0
           0           0           0           0           0           0
           0           0           0           0           0           0
           0           0           0           0           0           0
           0           0           0           0           0           0
           0           0           0           0           0           0
           0           0           0           0           0           0
           0           0           0           0           0           0
           0           0           0           0           0           0
           0           0           0           0           0           0
           0           0           0           0           0           0
           0           0           0           0           0           0
           0           0           0           0           0           0
           0           0           0           0           0           0
           0           0           0           0           0           0
           0           0           0           0           0           0
           0           0           0           0           0           0
           0           0           0           0           0           0
           0           0           0           0           0           0
           0           0           0           0           0           0
           0           0           0           0           0           0
           0           0           0           0           0           0
           0           0           0           0           0           0
           0           0           0           0           0           0
           0           0           0           0           0           0
           0           0           0           0           0           0
           0           0           0           0           0           0
           0           0           0           0           0           0
           0           0           0           0           0           0
           0           0           0           0           0           0
           0           0           0           0           0           0
           0           0           0           0           0           0
           0           0           0           0           0           0
           0           0           0           0           0           0
           0           0           0           0           0           0
           0           0           0           0           0           0
           0           0           0           0           0           0
           0           0           0           0           0           0
           0           0           0           0           0           0
           0           0           0           0           0           0
           0           0           0           0           0           0
           0           0           0           0           0           0
           0           0           0           0           0           0
           0           0           0           0           0           0
           0           0           0           0           0           0
           0           0           0           0           0           0
           0           0           0           0           0           0
           0           0           0           0           0           0
           0           0           0           0           0           0
           0           0           0           0           0           0
           0           0           0           0           0           0
           0           0           0           0           0           0
           0           0           0           0           0           0
           0           0           0           0           0           0
           0           0           0           0           0           0
           0           0           0           0           0           0
           0           0           0           0           0           0
           0           0           0           0           0           0
           0           0           0           0           0           0
           0           0           0           0           0           0
           0           0           0           0           0           0
           0           0           0           0           0           0
           0           0           0           0           0           0
           0           0           0           0           0           0
           0           0           0           0           0           0
           0           0           0           0           0           0
           0           0           0           0           0           0
           0           0           0           0           0           0
           0           0           0           0           0           0
           0           0           0           0           0           0
           0           0           0           0           0           0
           0           0           0           0           0           0
           0           0           0           0           0           0
           0           0           0           0           0           0
           0           0           0           0           0           0
           0           0           0           0           0           0
           0           0           0           0           0           0
           0           0           0           0           0           0
           0           0           0           0           0           0
           0           0           0           0           0           0
           0           0           0           0           0           0
           0           0           0           0           0           0
           0           0           0           0           0           0
           0           0           0           0           0           0
           0           0           0           0           0           0
           0           0           0           0           0           0
           0           0           0           0           0           0
           0           0           0           0           0           0
           0           0           0           0           0           0
           0           0           0           0           0           0
           0           0           0           0           0           0
           0           0           0           0           0           0
           0           0           0           0           0           0
           0           0           0           0           0           0
           0           0           0           0           0           0
           0           0           0           0           0           0
           0           0           0           0           0           0
           0           0           0           0           0           0
           0           0           0           0           0           0
           0           0           0           0           0           0
           0           0           0           0           0           0
           0           0           0           0           0           0
           0           0           0           0           0           0
           0           0           0           0           0           0
           0           0           0           0           0           0
           0           0           0           0           0           0
           0           0           0           0           0           0
           0           0           0           0           0           0
           0           0           0           0           0           0
           0           0           0           0           0           0
           0           0           0           0           0           0
           0           0           0           0           0           0
           0           0
ClPar Real Params                          R   N=        3200
  0.00000000E+00  0.00000000E+00  0.00000000E+00  0.00000000E+00  0.00000000E+00
  0.00000000E+00  0.00000000E+00  0.00000000E+00  0.00000000E+00  0.00000000E+00
  0.00000000E+00  0.00000000E+00  0.00000000E+00  0.00000000E+00  0.00000000E+00
  0.00000000E+00  0.00000000E+00  0.00000000E+00  0.00000000E+00  0.00000000E+00
  0.00000000E+00  0.00000000E+00  0.00000000E+00  0.00000000E+00  0.00000000E+00
  0.00000000E+00  0.00000000E+00  0.00000000E+00  0.00000000E+00  0.00000000E+00
  0.00000000E+00  0.00000000E+00  0.00000000E+00  0.00000000E+00  0.00000000E+00
  0.00000000E+00  0.00000000E+00  0.00000000E+00  0.00000000E+00  0.00000000E+00
  0.00000000E+00  0.00000000E+00  0.00000000E+00  0.00000000E+00  0.00000000E+00
  0.00000000E+00  0.00000000E+00  0.00000000E+00  0.00000000E+00  0.00000000E+00
  0.00000000E+00  0.00000000E+00  0.00000000E+00  0.00000000E+00  0.00000000E+00
  0.00000000E+00  0.00000000E+00  0.00000000E+00  0.00000000E+00  0.00000000E+00
  0.00000000E+00  0.00000000E+00  0.00000000E+00  0.00000000E+00  0.00000000E+00
  0.00000000E+00  0.00000000E+00  0.00000000E+00  0.00000000E+00  0.00000000E+00
  0.00000000E+00  0.00000000E+00  0.00000000E+00  0.00000000E+00  0.00000000E+00
  0.00000000E+00  0.00000000E+00  0.00000000E+00  0.00000000E+00  0.00000000E+00
  0.00000000E+00  0.00000000E+00  0.00000000E+00  0.00000000E+00  0.00000000E+00
  0.00000000E+00  0.00000000E+00  0.00000000E+00  0.00000000E+00  0.00000000E+00
  0.00000000E+00  0.00000000E+00  0.00000000E+00  0.00000000E+00  0.00000000E+00
  0.00000000E+00  0.00000000E+00  0.00000000E+00  0.00000000E+00  0.00000000E+00
  0.00000000E+00  0.00000000E+00  0.00000000E+00  0.00000000E+00  0.00000000E+00
  0.00000000E+00  0.00000000E+00  0.00000000E+00  0.00000000E+00  0.00000000E+00
  0.00000000E+00  0.00000000E+00  0.00000000E+00  0.00000000E+00  0.00000000E+00
  0.00000000E+00  0.00000000E+00  0.00000000E+00  0.00000000E+00  0.00000000E+00
  0.00000000E+00  0.00000000E+00  0.00000000E+00  0.00000000E+00  0.00000000E+00
  0.00000000E+00  0.00000000E+00  0.00000000E+00  0.00000000E+00  0.00000000E+00
  0.00000000E+00  0.00000000E+00  0.00000000E+00  0.00000000E+00  0.00000000E+00
  0.00000000E+00  0.00000000E+00  0.00000000E+00  0.00000000E+00  0.00000000E+00
  0.00000000E+00  0.00000000E+00  0.00000000E+00  0.00000000E+00  0.00000000E+00
  0.00000000E+00  0.00000000E+00  0.00000000E+00  0.00000000E+00  0.00000000E+00
  0.00000000E+00  0.00000000E+00  0.00000000E+00  0.00000000E+00  0.00000000E+00
  0.00000000E+00  0.00000000E+00  0.00000000E+00  0.00000000E+00  0.00000000E+00
  0.00000000E+00  0.00000000E+00  0.00000000E+00  0.00000000E+00  0.00000000E+00
  0.00000000E+00  0.00000000E+00  0.00000000E+00  0.00000000E+00  0.00000000E+00
  0.00000000E+00  0.00000000E+00  0.00000000E+00  0.00000000E+00  0.00000000E+00
  0.00000000E+00  0.00000000E+00  0.00000000E+00  0.00000000E+00  0.00000000E+00
  0.00000000E+00  0.00000000E+00  0.00000000E+00  0.00000000E+00  0.00000000E+00
  0.00000000E+00  0.00000000E+00  0.00000000E+00  0.00000000E+00  0.00000000E+00
  0.00000000E+00  0.00000000E+00  0.00000000E+00  0.00000000E+00  0.00000000E+00
  0.00000000E+00  0.00000000E+00  0.00000000E+00  0.00000000E+00  0.00000000E+00
  2.26000000E-01  4.43000000E-01  1.01000000E-01  1.47000000E-01  1.92000000E-01
  2.40000000E-01  2.75000000E-01  3.03000000E-01  3.25000000E-01  4.13000000E-01
  9.60000000E-02  1.35000000E-01  1.73000000E-01  2.11000000E-01  2.48000000E-01
  2.86000000E-01  3.23000000E-01  3.60000000E-01  8.20000000E-02  1.04000000E-01
  1.17000000E-01  1.23000000E-01  1.29000000E-01  1.34000000E-01  1.40000000E-01
  1.44000000E-01  1.48000000E-01  1.52000000E-01  1.55000000E-01  1.76000000E-01
  1.98000000E-01  2.19000000E-01  2.39000000E-01  2.60000000E-01  2.80000000E-01
  3.00000000E-01  7.90000000E-02  9.90000000E-02  1.19000000E-01  1.26000000E-01
  1.33000000E-01  1.40000000E-01  1.47000000E-01  1.53000000E-01  1.58000000E-01
  1.63000000E-01  1.57000000E-01  1.70000000E-01  1.87000000E-01  2.03000000E-01
  2.19000000E-01  2.34000000E-01  2.50000000E-01  2.65000000E-01  7.40000000E-02
  9.20000000E-02  1.05000000E-01  1.06000000E-01  1.07000000E-01  1.08000000E-01
  1.09000000E-01  1.10000000E-01  1.11000000E-01  1.12000000E-01  1.13000000E-01
  1.14000000E-01  1.15000000E-01  1.16000000E-01  1.17000000E-01  1.17000000E-01
  1.26000000E-01  1.36000000E-01  1.46000000E-01  1.55000000E-01  1.65000000E-01
  1.73000000E-01  1.82000000E-01  1.90000000E-01  1.62000000E-01  1.78000000E-01
  1.10000000E-01  1.35000000E-01  1.59000000E-01  1.83000000E-01  2.07000000E-01
  2.31000000E-01  6.90000000E-02  9.40000000E-02  1.02000000E-01  1.03000000E-01
  1.05000000E-01  1.07000000E-01  1.09000000E-01  1.11000000E-01  1.13000000E-01
  1.15000000E-01  1.17000000E-01  1.19000000E-01  1.20000000E-01  1.22000000E-01
  1.24000000E-01  1.26000000E-01  1.28000000E-01  1.28000000E-01  1.28000000E-01
  1.28000000E-01  1.28000000E-01  1.28000000E-01  1.28000000E-01  1.28000000E-01
  1.28000000E-01  1.28000000E-01  1.28000000E-01  1.28000000E-01  1.28000000E-01
  1.28000000E-01  1.28000000E-01  1.28000000E-01  1.28000000E-01  1.28000000E-01
  1.28000000E-01  1.28000000E-01  1.28000000E-01  1.28000000E-01  1.28000000E-01
  1.28000000E-01  1.28000000E-01  1.28000000E-01  1.28000000E-01  1.28000000E-01
  1.28000000E-01  1.28000000E-01  1.28000000E-01  1.28000000E-01  1.28000000E-01
  1.28000000E-01  1.28000000E-01  1.28000000E-01  1.28000000E-01  1.28000000E-01
  1.28000000E-01  1.28000000E-01  1.28000000E-01  1.28000000E-01  1.28000000E-01
  1.28000000E-01  1.28000000E-01  1.28000000E-01  1.28000000E-01  1.28000000E-01
  1.28000000E-01  1.28000000E-01  1.28000000E-01  1.28000000E-01  1.28000000E-01
  1.28000000E-01  1.28000000E-01  1.28000000E-01  1.28000000E-01  1.28000000E-01
  1.28000000E-01  1.28000000E-01  1.28000000E-01  1.28000000E-01  1.28000000E-01
  1.28000000E-01  1.28000000E-01  1.28000000E-01  1.28000000E-01  1.28000000E-01
  1.28000000E-01  1.28000000E-01  1.28000000E-01  1.28000000E-01  1.28000000E-01
  1.28000000E-01  1.28000000E-01  1.28000000E-01  1.28000000E-01  1.28000000E-01
  1.28000000E-01  1.28000000E-01  1.28000000E-01  1.28000000E-01  1.28000000E-01
  1.28000000E-01  1.28000000E-01  1.28000000E-01  1.28000000E-01  1.28000000E-01
  1.28000000E-01  1.28000000E-01  1.28000000E-01  1.28000000E-01  1.28000000E-01
  1.28000000E-01  1.28000000E-01  1.28000000E-01  1.28000000E-01  1.28000000E-01
  5.47000000E-01  5.92000000E-01  5.99000000E-01  6.68000000E-01  6.98000000E-01
  7.18000000E-01  7.26000000E-01  7.36000000E-01  7.43000000E-01  7.45000000E-01
  6.07000000E-01  6.66000000E-01  6.93000000E-01  7.09000000E-01  7.20000000E-01
  7.29000000E-01  7.35000000E-01  7.40000000E-01  6.08000000E-01  7.34000000E-01
  7.46000000E-01  7.55000000E-01  7.61000000E-01  7.65000000E-01  7.67000000E-01
  7.60000000E-01  7.49000000E-01  7.33000000E-01  7.08000000E-01  6.48000000E-01
  6.88000000E-01  7.09000000E-01  7.22000000E-01  7.31000000E-01  7.38000000E-01
  7.44000000E-01  6.09000000E-01  7.30000000E-01  7.41000000E-01  7.52000000E-01
  7.58000000E-01  7.63000000E-01  7.66000000E-01  7.58000000E-01  7.48000000E-01
  7.33000000E-01  7.01000000E-01  6.45000000E-01  6.86000000E-01  7.08000000E-01
  7.22000000E-01  7.31000000E-01  7.38000000E-01  7.44000000E-01  6.08000000E-01
  7.28000000E-01  7.32000000E-01  7.32000000E-01  7.32000000E-01  7.32000000E-01
  7.32000000E-01  7.32000000E-01  7.32000000E-01  7.32000000E-01  7.32000000E-01
  7.31000000E-01  7.31000000E-01  7.31000000E-01  7.31000000E-01  7.46000000E-01
  7.37000000E-01  7.46000000E-01  7.51000000E-01  7.55000000E-01  7.58000000E-01
  7.47000000E-01  7.32000000E-01  7.11000000E-01  7.41000000E-01  7.07000000E-01
  7.47000000E-01  7.43000000E-01  7.42000000E-01  7.42000000E-01  7.43000000E-01
  7.44000000E-01  6.05000000E-01  7.24000000E-01  7.26000000E-01  7.26000000E-01
  7.27000000E-01  7.27000000E-01  7.27000000E-01  7.28000000E-01  7.28000000E-01
  7.28000000E-01  7.28000000E-01  7.28000000E-01  7.29000000E-01  7.29000000E-01
  7.29000000E-01  7.29000000E-01  7.29000000E-01  7.29000000E-01  7.29000000E-01
  7.29000000E-01  7.29000000E-01  7.29000000E-01  7.29000000E-01  7.29000000E-01
  7.29000000E-01  7.29000000E-01  7.29000000E-01  7.29000000E-01  7.29000000E-01
  7.29000000E-01  7.29000000E-01  7.29000000E-01  7.29000000E-01  7.29000000E-01
  7.29000000E-01  7.29000000E-01  7.29000000E-01  7.29000000E-01  7.29000000E-01
  7.29000000E-01  7.29000000E-01  7.29000000E-01  7.29000000E-01  7.29000000E-01
  7.29000000E-01  7.29000000E-01  7.29000000E-01  7.29000000E-01  7.29000000E-01
  7.29000000E-01  7.29000000E-01  7.29000000E-01  7.29000000E-01  7.29000000E-01
  7.29000000E-01  7.29000000E-01  7.29000000E-01  7.29000000E-01  7.29000000E-01
  7.29000000E-01  7.29000000E-01  7.29000000E-01  7.29000000E-01  7.29000000E-01
  7.29000000E-01  7.29000000E-01  7.29000000E-01  7.29000000E-01  7.29000000E-01
  7.29000000E-01  7.29000000E-01  7.29000000E-01  7.29000000E-01  7.29000000E-01
  7.29000000E-01  7.29000000E-01  7.29000000E-01  7.29000000E-01  7.29000000E-01
  7.29000000E-01  7.29000000E-01  7.29000000E-01  7.29000000E-01  7.29000000E-01
  7.29000000E-01  7.29000000E-01  7.29000000E-01  7.29000000E-01  7.29000000E-01
  7.29000000E-01  7.29000000E-01  7.29000000E-01  7.29000000E-01  7.29000000E-01
  7.29000000E-01  7.29000000E-01  7.29000000E-01  7.29000000E-01  7.29000000E-01
  7.29000000E-01  7.29000000E-01  7.29000000E-01  7.29000000E-01  7.29000000E-01
  7.29000000E-01  7.29000000E-01  7.29000000E-01  7.29000000E-01  7.29000000E-01
  7.29000000E-01  7.29000000E-01  7.29000000E-01  7.29000000E-01  7.29000000E-01
  1.00000000E+00  1.70400000E+00  3.23000000E-01  3.89000000E-01  4.67000000E-01
  5.67000000E-01  6.36000000E-01  6.64000000E-01  6.96000000E-01  8.79000000E-01
  3.07000000E-01  3.48000000E-01  4.00000000E-01  4.54000000E-01  5.09000000E-01
  5.65000000E-01  6.21000000E-01  6.77000000E-01  2.56000000E-01  3.50000000E-01
  3.64000000E-01  3.62000000E-01  3.62000000E-01  3.62000000E-01  3.62000000E-01
  3.65000000E-01  3.69000000E-01  3.75000000E-01  3.86000000E-01  4.46000000E-01
  4.55000000E-01  4.74000000E-01  4.96000000E-01  5.20000000E-01  5.45000000E-01
  5.70000000E-01  2.45000000E-01  3.22000000E-01  3.55000000E-01  3.59000000E-01
  3.64000000E-01  3.70000000E-01  3.76000000E-01  3.85000000E-01  3.95000000E-01
  4.08000000E-01  3.76000000E-01  4.23000000E-01  4.22000000E-01  4.32000000E-01
  4.45000000E-01  4.59000000E-01  4.75000000E-01  4.91000000E-01  2.28000000E-01
  2.92000000E-01  2.89000000E-01  2.92000000E-01  2.95000000E-01  2.98000000E-01
  3.00000000E-01  3.03000000E-01  3.06000000E-01  3.09000000E-01  3.12000000E-01
  3.15000000E-01  3.18000000E-01  3.21000000E-01  3.24000000E-01  3.61000000E-01
  3.69000000E-01  3.70000000E-01  3.72000000E-01  3.75000000E-01  3.78000000E-01
  3.85000000E-01  3.94000000E-01  4.07000000E-01  5.26000000E-01  6.21000000E-01
  3.36000000E-01  3.54000000E-01  3.71000000E-01  3.86000000E-01  4.02000000E-01
  4.17000000E-01  2.09000000E-01  2.94000000E-01  2.65000000E-01  2.72000000E-01
  2.78000000E-01  2.84000000E-01  2.91000000E-01  2.97000000E-01  3.03000000E-01
  3.10000000E-01  3.16000000E-01  3.22000000E-01  3.29000000E-01  3.35000000E-01
  3.41000000E-01  3.48000000E-01  3.54000000E-01  3.54000000E-01  3.54000000E-01
  3.54000000E-01  3.54000000E-01  3.54000000E-01  3.54000000E-01  3.54000000E-01
  3.54000000E-01  3.54000000E-01  3.54000000E-01  3.54000000E-01  3.54000000E-01
  3.54000000E-01  3.54000000E-01  3.54000000E-01  3.54000000E-01  3.54000000E-01
  3.54000000E-01  3.54000000E-01  3.54000000E-01  3.54000000E-01  3.54000000E-01
  3.54000000E-01  3.54000000E-01  3.54000000E-01  3.54000000E-01  3.54000000E-01
  3.54000000E-01  3.54000000E-01  3.54000000E-01  3.54000000E-01  3.54000000E-01
  3.54000000E-01  3.54000000E-01  3.54000000E-01  3.54000000E-01  3.54000000E-01
  3.54000000E-01  3.54000000E-01  3.54000000E-01  3.54000000E-01  3.54000000E-01
  3.54000000E-01  3.54000000E-01  3.54000000E-01  3.54000000E-01  3.54000000E-01
  3.54000000E-01  3.54000000E-01  3.54000000E-01  3.54000000E-01  3.54000000E-01
  3.54000000E-01  3.54000000E-01  3.54000000E-01  3.54000000E-01  3.54000000E-01
  3.54000000E-01  3.54000000E-01  3.54000000E-01  3.54000000E-01  3.54000000E-01
  3.54000000E-01  3.54000000E-01  3.54000000E-01  3.54000000E-01  3.54000000E-01
  3.54000000E-01  3.54000000E-01  3.54000000E-01  3.54000000E-01  3.54000000E-01
  3.54000000E-01  3.54000000E-01  3.54000000E-01  3.54000000E-01  3.54000000E-01
  3.54000000E-01  3.54000000E-01  3.54000000E-01  3.54000000E-01  3.54000000E-01
  3.54000000E-01  3.54000000E-01  3.54000000E-01  3.54000000E-01  3.54000000E-01
  3.54000000E-01  3.54000000E-01  3.54000000E-01  3.54000000E-01  3.54000000E-01
  3.54000000E-01  3.54000000E-01  3.54000000E-01  3.54000000E-01  3.54000000E-01
  2.74000000E-01  2.96000000E-01  5.80000000E-02  4.40000000E-02  3.90000000E-02
  3.90000000E-02  3.60000000E-02  3.20000000E-02  2.90000000E-02  3.30000000E-02
  5.50000000E-02  3.90000000E-02  3.30000000E-02  3.00000000E-02  2.80000000E-02
  2.60000000E-02  2.50000000E-02  2.50000000E-02  4.50000000E-02  4.40000000E-02
  3.30000000E-02  2.50000000E-02  2.10000000E-02  1.80000000E-02  1.50000000E-02
  1.80000000E-02  2.10000000E-02  2.50000000E-02  3.30000000E-02  5.00000000E-02
  3.80000000E-02  3.10000000E-02  2.70000000E-02  2.40000000E-02  2.20000000E-02
  2.10000000E-02  4.30000000E-02  4.00000000E-02  3.20000000E-02  2.50000000E-02
  2.10000000E-02  1.80000000E-02  1.60000000E-02  1.90000000E-02  2.20000000E-02
  2.80000000E-02  3.10000000E-02  4.70000000E-02  3.40000000E-02  2.80000000E-02
  2.40000000E-02  2.10000000E-02  1.90000000E-02  1.80000000E-02  3.90000000E-02
  3.60000000E-02  2.50000000E-02  2.50000000E-02  2.50000000E-02  2.60000000E-02
  2.60000000E-02  2.60000000E-02  2.70000000E-02  2.70000000E-02  2.70000000E-02
  2.70000000E-02  2.80000000E-02  2.80000000E-02  2.80000000E-02  3.30000000E-02
  3.30000000E-02  2.60000000E-02  2.10000000E-02  1.80000000E-02  1.60000000E-02
  1.80000000E-02  2.20000000E-02  2.60000000E-02  4.90000000E-02  8.20000000E-02
  3.00000000E-02  2.40000000E-02  2.10000000E-02  1.80000000E-02  1.60000000E-02
  1.50000000E-02  3.50000000E-02  3.60000000E-02  2.20000000E-02  2.30000000E-02
  2.40000000E-02  2.40000000E-02  2.50000000E-02  2.50000000E-02  2.60000000E-02
  2.70000000E-02  2.70000000E-02  2.80000000E-02  2.80000000E-02  2.90000000E-02
  3.00000000E-02  3.00000000E-02  3.10000000E-02  3.10000000E-02  3.10000000E-02
  3.10000000E-02  3.10000000E-02  3.10000000E-02  3.10000000E-02  3.10000000E-02
  3.10000000E-02  3.10000000E-02  3.10000000E-02  3.10000000E-02  3.10000000E-02
  3.10000000E-02  3.10000000E-02  3.10000000E-02  3.10000000E-02  3.10000000E-02
  3.10000000E-02  3.10000000E-02  3.10000000E-02  3.10000000E-02  3.10000000E-02
  3.10000000E-02  3.10000000E-02  3.10000000E-02  3.10000000E-02  3.10000000E-02
  3.10000000E-02  3.10000000E-02  3.10000000E-02  3.10000000E-02  3.10000000E-02
  3.10000000E-02  3.10000000E-02  3.10000000E-02  3.10000000E-02  3.10000000E-02
  3.10000000E-02  3.10000000E-02  3.10000000E-02  3.10000000E-02  3.10000000E-02
  3.10000000E-02  3.10000000E-02  3.10000000E-02  3.10000000E-02  3.10000000E-02
  3.10000000E-02  3.10000000E-02  3.10000000E-02  3.10000000E-02  3.10000000E-02
  3.10000000E-02  3.10000000E-02  3.10000000E-02  3.10000000E-02  3.10000000E-02
  3.10000000E-02  3.10000000E-02  3.10000000E-02  3.10000000E-02  3.10000000E-02
  3.10000000E-02  3.10000000E-02  3.10000000E-02  3.10000000E-02  3.10000000E-02
  3.10000000E-02  3.10000000E-02  3.10000000E-02  3.10000000E-02  3.10000000E-02
  3.10000000E-02  3.10000000E-02  3.10000000E-02  3.10000000E-02  3.10000000E-02
  3.10000000E-02  3.10000000E-02  3.10000000E-02  3.10000000E-02  3.10000000E-02
  3.10000000E-02  3.10000000E-02  3.10000000E-02  3.10000000E-02  3.10000000E-02
  3.10000000E-02  3.10000000E-02  3.10000000E-02  3.10000000E-02  3.10000000E-02
  3.10000000E-02  3.10000000E-02  3.10000000E-02  3.10000000E-02  3.10000000E-02
 -5.92770000E-01 -9.17860000E-01 -2.48668000E+00 -8.36430000E-01 -3.18470000E-01
 -4.55790000E-01 -5.70730000E-01 -6.77940000E-01 -7.69860000E-01 -8.51140000E-01
 -1.51908000E+00 -3.18830000E-01 -2.17900000E-01 -3.01260000E-01 -3.72750000E-01
 -4.15890000E-01 -4.45930000E-01 -5.91320000E-01 -9.56370000E-01 -2.88450000E-01
 -4.87320000E-01 -6.34280000E-01 -7.17490000E-01 -7.91980000E-01 -8.68490000E-01
 -9.17520000E-01 -9.54890000E-01 -9.88460000E-01 -1.50055000E+00 -2.92560000E-01
 -2.14960000E-01 -2.91180000E-01 -3.42080000E-01 -3.84480000E-01 -4.34940000E-01
 -5.24310000E-01 -8.10070000E-01 -2.58460000E-01 -4.35550000E-01 -5.32740000E-01
 -6.08450000E-01 -6.10260000E-01 -7.58920000E-01 -8.90130000E-01 -8.45780000E-01
 -8.69340000E-01 -1.38234000E+00 -2.64850000E-01 -1.97280000E-01 -2.65040000E-01
 -2.94470000E-01 -3.16570000E-01 -3.63590000E-01 -4.57840000E-01 -8.61830000E-01
 -1.33004000E+00 -6.82880000E-01 -6.25540000E-01 -6.35430000E-01 -8.79690000E-01
 -9.02690000E-01 -9.59650000E-01 -1.01869000E+00 -6.81170000E-01 -7.96500000E-01
 -9.04950000E-01 -8.34790000E-01 -9.01560000E-01 -9.74130000E-01 -1.03326000E+00
 -7.15490000E-01 -7.83960000E-01 -8.28380000E-01 -5.61040000E-01 -1.03841000E+00
 -8.62500000E-01 -9.59300000E-01 -1.01755000E+00 -7.64900000E-01 -1.29467000E+00
 -1.92740000E-01 -2.56010000E-01 -3.19820000E-01 -1.94660000E-01 -2.60090000E-01
 -4.27990000E-01  0.00000000E+00  0.00000000E+00  0.00000000E+00  0.00000000E+00
  0.00000000E+00  0.00000000E+00  0.00000000E+00  0.00000000E+00  0.00000000E+00
  0.00000000E+00  0.00000000E+00  0.00000000E+00  0.00000000E+00  0.00000000E+00
  0.00000000E+00  0.00000000E+00  0.00000000E+00  0.00000000E+00  0.00000000E+00
  0.00000000E+00  0.00000000E+00  0.00000000E+00  0.00000000E+00  0.00000000E+00
  0.00000000E+00  0.00000000E+00  0.00000000E+00  0.00000000E+00  0.00000000E+00
  0.00000000E+00  0.00000000E+00  0.00000000E+00  0.00000000E+00  0.00000000E+00
  0.00000000E+00  0.00000000E+00  0.00000000E+00  0.00000000E+00  0.00000000E+00
  0.00000000E+00  0.00000000E+00  0.00000000E+00  0.00000000E+00  0.00000000E+00
  0.00000000E+00  0.00000000E+00  0.00000000E+00  0.00000000E+00  0.00000000E+00
  0.00000000E+00  0.00000000E+00  0.00000000E+00  0.00000000E+00  0.00000000E+00
  0.00000000E+00  0.00000000E+00  0.00000000E+00  0.00000000E+00  0.00000000E+00
  0.00000000E+00  0.00000000E+00  0.00000000E+00  0.00000000E+00  0.00000000E+00
  0.00000000E+00  0.00000000E+00  0.00000000E+00  0.00000000E+00  0.00000000E+00
  0.00000000E+00  0.00000000E+00  0.00000000E+00  0.00000000E+00  0.00000000E+00
  0.00000000E+00  0.00000000E+00  0.00000000E+00  0.00000000E+00  0.00000000E+00
  0.00000000E+00  0.00000000E+00  0.00000000E+00  0.00000000E+00  0.00000000E+00
  0.00000000E+00  0.00000000E+00  0.00000000E+00  0.00000000E+00  0.00000000E+00
  0.00000000E+00  0.00000000E+00  0.00000000E+00  0.00000000E+00  0.00000000E+00
  0.00000000E+00  0.00000000E+00  0.00000000E+00  0.00000000E+00  0.00000000E+00
  0.00000000E+00  0.00000000E+00  0.00000000E+00  0.00000000E+00  0.00000000E+00
  0.00000000E+00  0.00000000E+00  0.00000000E+00  0.00000000E+00  0.00000000E+00
  0.00000000E+00  0.00000000E+00  0.00000000E+00  0.00000000E+00  0.00000000E+00
  1.90440000E+00  1.36430000E+00  4.84000000E-01  7.31600000E+00  9.24030000E+00
  8.78200000E+00  5.61290000E+00  4.83340000E+00  3.24870000E+00  2.71090000E+00
  2.01130000E+00  1.50282000E+01  1.46788000E+01  2.13546000E+01  2.38290000E+01
  1.98022000E+01  1.50468000E+01  1.09745000E+01  1.27219000E+01  1.51949000E+01
  1.57342000E+01  2.79222000E+01  1.61366000E+01  2.21252000E+01  2.45676000E+01
  1.96016000E+01  1.79818000E+01  1.72396000E+01  5.01500000E+00  1.92898000E+01
  2.34477000E+01  2.23993000E+01  2.96586000E+01  2.60081000E+01  2.15580000E+01
  1.69594000E+01  1.56479000E+01  1.86897000E+01  1.93530000E+01  3.43444000E+01
  1.98480000E+01  2.72140000E+01  3.02182000E+01  2.41099000E+01  2.21176000E+01
  2.12047000E+01  7.56690000E+00  2.37264000E+01  2.93879000E+01  3.01278000E+01
  4.19382000E+01  3.85203000E+01  3.39511000E+01  2.75774000E+01  1.56460000E+01
  1.04460000E+01  2.01830000E+01  4.99540000E+01  4.76430000E+01  1.18690000E+01
  1.08670000E+01  9.96100000E+00  9.18700000E+00  3.67980000E+01  1.34070000E+01
  9.38200000E+00  9.81700000E+00  8.90800000E+00  8.40700000E+00  8.05800000E+00
  1.29600000E+01  2.67920000E+01  2.49300000E+01  3.45630000E+01  1.11860000E+01
  1.09440000E+01  1.01270000E+01  9.40400000E+00  1.36660000E+01  7.81000000E+00
  6.93600000E+01  5.86630000E+01  4.79690000E+01  4.52740000E+01  3.92290000E+01
  3.30660000E+01  0.00000000E+00  0.00000000E+00  0.00000000E+00  0.00000000E+00
  0.00000000E+00  0.00000000E+00  0.00000000E+00  0.00000000E+00  0.00000000E+00
  0.00000000E+00  0.00000000E+00  0.00000000E+00  0.00000000E+00  0.00000000E+00
  0.00000000E+00  0.00000000E+00  0.00000000E+00  0.00000000E+00  0.00000000E+00
  0.00000000E+00  0.00000000E+00  0.00000000E+00  0.00000000E+00  0.00000000E+00
  0.00000000E+00  0.00000000E+00  0.00000000E+00  0.00000000E+00  0.00000000E+00
  0.00000000E+00  0.00000000E+00  0.00000000E+00  0.00000000E+00  0.00000000E+00
  0.00000000E+00  0.00000000E+00  0.00000000E+00  0.00000000E+00  0.00000000E+00
  0.00000000E+00  0.00000000E+00  0.00000000E+00  0.00000000E+00  0.00000000E+00
  0.00000000E+00  0.00000000E+00  0.00000000E+00  0.00000000E+00  0.00000000E+00
  0.00000000E+00  0.00000000E+00  0.00000000E+00  0.00000000E+00  0.00000000E+00
  0.00000000E+00  0.00000000E+00  0.00000000E+00  0.00000000E+00  0.00000000E+00
  0.00000000E+00  0.00000000E+00  0.00000000E+00  0.00000000E+00  0.00000000E+00
  0.00000000E+00  0.00000000E+00  0.00000000E+00  0.00000000E+00  0.00000000E+00
  0.00000000E+00  0.00000000E+00  0.00000000E+00  0.00000000E+00  0.00000000E+00
  0.00000000E+00  0.00000000E+00  0.00000000E+00  0.00000000E+00  0.00000000E+00
  0.00000000E+00  0.00000000E+00  0.00000000E+00  0.00000000E+00  0.00000000E+00
  0.00000000E+00  0.00000000E+00  0.00000000E+00  0.00000000E+00  0.00000000E+00
  0.00000000E+00  0.00000000E+00  0.00000000E+00  0.00000000E+00  0.00000000E+00
  0.00000000E+00  0.00000000E+00  0.00000000E+00  0.00000000E+00  0.00000000E+00
  0.00000000E+00  0.00000000E+00  0.00000000E+00  0.00000000E+00  0.00000000E+00
  0.00000000E+00  0.00000000E+00  0.00000000E+00  0.00000000E+00  0.00000000E+00
  0.00000000E+00  0.00000000E+00  0.00000000E+00  0.00000000E+00  0.00000000E+00
  0.00000000E+00  0.00000000E+00  0.00000000E+00  0.00000000E+00  0.00000000E+00
  0.00000000E+00  0.00000000E+00  0.00000000E+00  0.00000000E+00  0.00000000E+00
  0.00000000E+00  0.00000000E+00  0.00000000E+00  0.00000000E+00  0.00000000E+00
  0.00000000E+00  0.00000000E+00  0.00000000E+00  0.00000000E+00  0.00000000E+00
  0.00000000E+00  0.00000000E+00  0.00000000E+00  0.00000000E+00  0.00000000E+00
  0.00000000E+00  0.00000000E+00  0.00000000E+00  0.00000000E+00  0.00000000E+00
  0.00000000E+00  0.00000000E+00  0.00000000E+00  0.00000000E+00  0.00000000E+00
  0.00000000E+00  0.00000000E+00  0.00000000E+00  0.00000000E+00  0.00000000E+00
  0.00000000E+00  0.00000000E+00  0.00000000E+00  0.00000000E+00  0.00000000E+00
  0.00000000E+00  0.00000000E+00  0.00000000E+00  0.00000000E+00  0.00000000E+00
  0.00000000E+00  0.00000000E+00  0.00000000E+00  0.00000000E+00  0.00000000E+00
  0.00000000E+00  0.00000000E+00  0.00000000E+00  0.00000000E+00  0.00000000E+00
  0.00000000E+00  0.00000000E+00  0.00000000E+00  0.00000000E+00  0.00000000E+00
  0.00000000E+00  0.00000000E+00  0.00000000E+00  0.00000000E+00  0.00000000E+00
  0.00000000E+00  0.00000000E+00  0.00000000E+00  0.00000000E+00  0.00000000E+00
  0.00000000E+00  0.00000000E+00  0.00000000E+00  0.00000000E+00  0.00000000E+00
  0.00000000E+00  0.00000000E+00  0.00000000E+00  0.00000000E+00  0.00000000E+00
  0.00000000E+00  0.00000000E+00  0.00000000E+00  0.00000000E+00  0.00000000E+00
  0.00000000E+00  0.00000000E+00  0.00000000E+00  0.00000000E+00  0.00000000E+00
  0.00000000E+00  0.00000000E+00  0.00000000E+00  0.00000000E+00  0.00000000E+00
  0.00000000E+00  0.00000000E+00  0.00000000E+00  0.00000000E+00  0.00000000E+00
  0.00000000E+00  0.00000000E+00  0.00000000E+00  0.00000000E+00  0.00000000E+00
  0.00000000E+00  0.00000000E+00  0.00000000E+00  0.00000000E+00  0.00000000E+00
  0.00000000E+00  0.00000000E+00  0.00000000E+00  0.00000000E+00  0.00000000E+00
  0.00000000E+00  0.00000000E+00  0.00000000E+00  0.00000000E+00  0.00000000E+00
  0.00000000E+00  0.00000000E+00  0.00000000E+00  0.00000000E+00  0.00000000E+00
  0.00000000E+00  0.00000000E+00  0.00000000E+00  0.00000000E+00  0.00000000E+00
  0.00000000E+00  0.00000000E+00  0.00000000E+00  0.00000000E+00  0.00000000E+00
  0.00000000E+00  0.00000000E+00  0.00000000E+00  0.00000000E+00  0.00000000E+00
  0.00000000E+00  0.00000000E+00  0.00000000E+00  0.00000000E+00  0.00000000E+00
  0.00000000E+00  0.00000000E+00  0.00000000E+00  0.00000000E+00  0.00000000E+00
  0.00000000E+00  0.00000000E+00  0.00000000E+00  0.00000000E+00  0.00000000E+00
  0.00000000E+00  0.00000000E+00  0.00000000E+00  0.00000000E+00  0.00000000E+00
  0.00000000E+00  0.00000000E+00  0.00000000E+00  0.00000000E+00  0.00000000E+00
  0.00000000E+00  0.00000000E+00  0.00000000E+00  0.00000000E+00  0.00000000E+00
  0.00000000E+00  0.00000000E+00  0.00000000E+00  0.00000000E+00  0.00000000E+00
  0.00000000E+00  0.00000000E+00  0.00000000E+00  0.00000000E+00  0.00000000E+00
  0.00000000E+00  0.00000000E+00  0.00000000E+00  0.00000000E+00  0.00000000E+00
  0.00000000E+00  0.00000000E+00  0.00000000E+00  0.00000000E+00  0.00000000E+00
  0.00000000E+00  0.00000000E+00  0.00000000E+00  0.00000000E+00  0.00000000E+00
  0.00000000E+00  0.00000000E+00  0.00000000E+00  0.00000000E+00  0.00000000E+00
  0.00000000E+00  0.00000000E+00  0.00000000E+00  0.00000000E+00  0.00000000E+00
  0.00000000E+00  0.00000000E+00  0.00000000E+00  0.00000000E+00  0.00000000E+00
  0.00000000E+00  0.00000000E+00  0.00000000E+00  0.00000000E+00  0.00000000E+00
  0.00000000E+00  0.00000000E+00  0.00000000E+00  0.00000000E+00  0.00000000E+00
  0.00000000E+00  0.00000000E+00  0.00000000E+00  0.00000000E+00  0.00000000E+00
  0.00000000E+00  0.00000000E+00  0.00000000E+00  0.00000000E+00  0.00000000E+00
  0.00000000E+00  0.00000000E+00  0.00000000E+00  0.00000000E+00  0.00000000E+00
  0.00000000E+00  0.00000000E+00  0.00000000E+00  0.00000000E+00  0.00000000E+00
  0.00000000E+00  0.00000000E+00  0.00000000E+00  0.00000000E+00  0.00000000E+00
  0.00000000E+00  0.00000000E+00  0.00000000E+00  0.00000000E+00  0.00000000E+00
  0.00000000E+00  0.00000000E+00  0.00000000E+00  0.00000000E+00  0.00000000E+00
  0.00000000E+00  0.00000000E+00  0.00000000E+00  0.00000000E+00  0.00000000E+00
  0.00000000E+00  0.00000000E+00  0.00000000E+00  0.00000000E+00  0.00000000E+00
  0.00000000E+00  0.00000000E+00  0.00000000E+00  0.00000000E+00  0.00000000E+00
  0.00000000E+00  0.00000000E+00  0.00000000E+00  0.00000000E+00  0.00000000E+00
  0.00000000E+00  0.00000000E+00  0.00000000E+00  0.00000000E+00  0.00000000E+00
  0.00000000E+00  0.00000000E+00  0.00000000E+00  0.00000000E+00  0.00000000E+00
  0.00000000E+00  0.00000000E+00  0.00000000E+00  0.00000000E+00  0.00000000E+00
  0.00000000E+00  0.00000000E+00  0.00000000E+00  0.00000000E+00  0.00000000E+00
  0.00000000E+00  0.00000000E+00  0.00000000E+00  0.00000000E+00  0.00000000E+00
  0.00000000E+00  0.00000000E+00  0.00000000E+00  0.00000000E+00  0.00000000E+00
  0.00000000E+00  0.00000000E+00  0.00000000E+00  0.00000000E+00  0.00000000E+00
  0.00000000E+00  0.00000000E+00  0.00000000E+00  0.00000000E+00  0.00000000E+00
  0.00000000E+00  0.00000000E+00  0.00000000E+00  0.00000000E+00  0.00000000E+00
  0.00000000E+00  0.00000000E+00  0.00000000E+00  0.00000000E+00  0.00000000E+00
  0.00000000E+00  0.00000000E+00  0.00000000E+00  0.00000000E+00  0.00000000E+00
  0.00000000E+00  0.00000000E+00  0.00000000E+00  0.00000000E+00  0.00000000E+00
  0.00000000E+00  0.00000000E+00  0.00000000E+00  0.00000000E+00  0.00000000E+00
  0.00000000E+00  0.00000000E+00  0.00000000E+00  0.00000000E+00  0.00000000E+00
  0.00000000E+00  0.00000000E+00  0.00000000E+00  0.00000000E+00  0.00000000E+00
  0.00000000E+00  0.00000000E+00  0.00000000E+00  0.00000000E+00  0.00000000E+00
  0.00000000E+00  0.00000000E+00  0.00000000E+00  0.00000000E+00  0.00000000E+00
  0.00000000E+00  0.00000000E+00  0.00000000E+00  0.00000000E+00  0.00000000E+00
  0.00000000E+00  0.00000000E+00  0.00000000E+00  0.00000000E+00  0.00000000E+00
  0.00000000E+00  0.00000000E+00  0.00000000E+00  0.00000000E+00  0.00000000E+00
  0.00000000E+00  0.00000000E+00  0.00000000E+00  0.00000000E+00  0.00000000E+00
  0.00000000E+00  0.00000000E+00  0.00000000E+00  0.00000000E+00  0.00000000E+00
  0.00000000E+00  0.00000000E+00  0.00000000E+00  0.00000000E+00  0.00000000E+00
  0.00000000E+00  0.00000000E+00  0.00000000E+00  0.00000000E+00  0.00000000E+00
  0.00000000E+00  0.00000000E+00  0.00000000E+00  0.00000000E+00  0.00000000E+00
  0.00000000E+00  0.00000000E+00  0.00000000E+00  0.00000000E+00  0.00000000E+00
  0.00000000E+00  0.00000000E+00  0.00000000E+00  0.00000000E+00  0.00000000E+00
  0.00000000E+00  0.00000000E+00  0.00000000E+00  0.00000000E+00  0.00000000E+00
  0.00000000E+00  0.00000000E+00  0.00000000E+00  0.00000000E+00  0.00000000E+00
  0.00000000E+00  0.00000000E+00  0.00000000E+00  0.00000000E+00  0.00000000E+00
  0.00000000E+00  0.00000000E+00  0.00000000E+00  0.00000000E+00  0.00000000E+00
  0.00000000E+00  0.00000000E+00  0.00000000E+00  0.00000000E+00  0.00000000E+00
  0.00000000E+00  0.00000000E+00  0.00000000E+00  0.00000000E+00  0.00000000E+00
  0.00000000E+00  0.00000000E+00  0.00000000E+00  0.00000000E+00  0.00000000E+00
  0.00000000E+00  0.00000000E+00  0.00000000E+00  0.00000000E+00  0.00000000E+00
  0.00000000E+00  0.00000000E+00  0.00000000E+00  0.00000000E+00  0.00000000E+00
  0.00000000E+00  0.00000000E+00  0.00000000E+00  0.00000000E+00  0.00000000E+00
  0.00000000E+00  0.00000000E+00  0.00000000E+00  0.00000000E+00  0.00000000E+00
  0.00000000E+00  0.00000000E+00  0.00000000E+00  0.00000000E+00  0.00000000E+00
  0.00000000E+00  0.00000000E+00  0.00000000E+00  0.00000000E+00  0.00000000E+00
  0.00000000E+00  0.00000000E+00  0.00000000E+00  0.00000000E+00  0.00000000E+00
  0.00000000E+00  0.00000000E+00  0.00000000E+00  0.00000000E+00  0.00000000E+00
  0.00000000E+00  0.00000000E+00  0.00000000E+00  0.00000000E+00  0.00000000E+00
  0.00000000E+00  0.00000000E+00  0.00000000E+00  0.00000000E+00  0.00000000E+00
  0.00000000E+00  0.00000000E+00  0.00000000E+00  0.00000000E+00  0.00000000E+00
  0.00000000E+00  0.00000000E+00  0.00000000E+00  0.00000000E+00  0.00000000E+00
  0.00000000E+00  0.00000000E+00  0.00000000E+00  0.00000000E+00  0.00000000E+00
  0.00000000E+00  0.00000000E+00  0.00000000E+00  0.00000000E+00  0.00000000E+00
  0.00000000E+00  0.00000000E+00  0.00000000E+00  0.00000000E+00  0.00000000E+00
  0.00000000E+00  0.00000000E+00  0.00000000E+00  0.00000000E+00  0.00000000E+00
  0.00000000E+00  0.00000000E+00  0.00000000E+00  0.00000000E+00  0.00000000E+00
  0.00000000E+00  0.00000000E+00  0.00000000E+00  0.00000000E+00  0.00000000E+00
  0.00000000E+00  0.00000000E+00  0.00000000E+00  0.00000000E+00  0.00000000E+00
  0.00000000E+00  0.00000000E+00  0.00000000E+00  0.00000000E+00  0.00000000E+00
  0.00000000E+00  0.00000000E+00  0.00000000E+00  0.00000000E+00  0.00000000E+00
  0.00000000E+00  0.00000000E+00  0.00000000E+00  0.00000000E+00  0.00000000E+00
  0.00000000E+00  0.00000000E+00  0.00000000E+00  0.00000000E+00  0.00000000E+00
  0.00000000E+00  0.00000000E+00  0.00000000E+00  0.00000000E+00  0.00000000E+00
  0.00000000E+00  0.00000000E+00  0.00000000E+00  0.00000000E+00  0.00000000E+00
  0.00000000E+00  0.00000000E+00  0.00000000E+00  0.00000000E+00  0.00000000E+00
  0.00000000E+00  0.00000000E+00  0.00000000E+00  0.00000000E+00  0.00000000E+00
  0.00000000E+00  0.00000000E+00  0.00000000E+00  0.00000000E+00  0.00000000E+00
  0.00000000E+00  0.00000000E+00  0.00000000E+00  0.00000000E+00  0.00000000E+00
  0.00000000E+00  0.00000000E+00  0.00000000E+00  0.00000000E+00  0.00000000E+00
  0.00000000E+00  0.00000000E+00  0.00000000E+00  0.00000000E+00  0.00000000E+00
  0.00000000E+00  0.00000000E+00  0.00000000E+00  0.00000000E+00  0.00000000E+00
  0.00000000E+00  0.00000000E+00  0.00000000E+00  0.00000000E+00  0.00000000E+00
  0.00000000E+00  0.00000000E+00  0.00000000E+00  0.00000000E+00  0.00000000E+00
  0.00000000E+00  0.00000000E+00  0.00000000E+00  0.00000000E+00  0.00000000E+00
  0.00000000E+00  0.00000000E+00  0.00000000E+00  0.00000000E+00  0.00000000E+00
  0.00000000E+00  0.00000000E+00  0.00000000E+00  0.00000000E+00  0.00000000E+00
  0.00000000E+00  0.00000000E+00  0.00000000E+00  0.00000000E+00  0.00000000E+00
  0.00000000E+00  0.00000000E+00  0.00000000E+00  0.00000000E+00  0.00000000E+00
  0.00000000E+00  0.00000000E+00  0.00000000E+00  0.00000000E+00  0.00000000E+00
  0.00000000E+00  0.00000000E+00  0.00000000E+00  0.00000000E+00  0.00000000E+00
  0.00000000E+00  0.00000000E+00  0.00000000E+00  0.00000000E+00  0.00000000E+00
  0.00000000E+00  0.00000000E+00  0.00000000E+00  0.00000000E+00  0.00000000E+00
  0.00000000E+00  0.00000000E+00  0.00000000E+00  0.00000000E+00  0.00000000E+00
  0.00000000E+00  0.00000000E+00  0.00000000E+00  0.00000000E+00  0.00000000E+00
  0.00000000E+00  0.00000000E+00  0.00000000E+00  0.00000000E+00  0.00000000E+00
  0.00000000E+00  0.00000000E+00  0.00000000E+00  0.00000000E+00  0.00000000E+00
  0.00000000E+00  0.00000000E+00  0.00000000E+00  0.00000000E+00  0.00000000E+00
  0.00000000E+00  0.00000000E+00  0.00000000E+00  0.00000000E+00  0.00000000E+00
  0.00000000E+00  0.00000000E+00  0.00000000E+00  0.00000000E+00  0.00000000E+00
  0.00000000E+00  0.00000000E+00  0.00000000E+00  0.00000000E+00  0.00000000E+00
  0.00000000E+00  0.00000000E+00  0.00000000E+00  0.00000000E+00  0.00000000E+00
  0.00000000E+00  0.00000000E+00  0.00000000E+00  0.00000000E+00  0.00000000E+00
  0.00000000E+00  0.00000000E+00  0.00000000E+00  0.00000000E+00  0.00000000E+00
  0.00000000E+00  0.00000000E+00  0.00000000E+00  0.00000000E+00  0.00000000E+00
  0.00000000E+00  0.00000000E+00  0.00000000E+00  0.00000000E+00  0.00000000E+00
  0.00000000E+00  0.00000000E+00  0.00000000E+00  0.00000000E+00  0.00000000E+00
  0.00000000E+00  0.00000000E+00  0.00000000E+00  0.00000000E+00  0.00000000E+00
  0.00000000E+00  0.00000000E+00  0.00000000E+00  0.00000000E+00  0.00000000E+00
  0.00000000E+00  0.00000000E+00  0.00000000E+00  0.00000000E+00  0.00000000E+00
  0.00000000E+00  0.00000000E+00  0.00000000E+00  0.00000000E+00  0.00000000E+00
  0.00000000E+00  0.00000000E+00  0.00000000E+00  0.00000000E+00  0.00000000E+00
  0.00000000E+00  0.00000000E+00  0.00000000E+00  0.00000000E+00  0.00000000E+00
  0.00000000E+00  0.00000000E+00  0.00000000E+00  0.00000000E+00  0.00000000E+00
  0.00000000E+00  0.00000000E+00  0.00000000E+00  0.00000000E+00  0.00000000E+00
  0.00000000E+00  0.00000000E+00  0.00000000E+00  0.00000000E+00  0.00000000E+00
  0.00000000E+00  0.00000000E+00  0.00000000E+00  0.00000000E+00  0.00000000E+00
  0.00000000E+00  0.00000000E+00  0.00000000E+00  0.00000000E+00  0.00000000E+00
  0.00000000E+00  0.00000000E+00  0.00000000E+00  0.00000000E+00  0.00000000E+00
  0.00000000E+00  0.00000000E+00  0.00000000E+00  0.00000000E+00  0.00000000E+00
  0.00000000E+00  0.00000000E+00  0.00000000E+00  0.00000000E+00  0.00000000E+00
  0.00000000E+00  0.00000000E+00  0.00000000E+00  0.00000000E+00  0.00000000E+00
  0.00000000E+00  0.00000000E+00  0.00000000E+00  0.00000000E+00  0.00000000E+00
  0.00000000E+00  0.00000000E+00  0.00000000E+00  0.00000000E+00  0.00000000E+00
  0.00000000E+00  0.00000000E+00  0.00000000E+00  0.00000000E+00  0.00000000E+00
  0.00000000E+00  0.00000000E+00  0.00000000E+00  0.00000000E+00  0.00000000E+00
  0.00000000E+00  0.00000000E+00  0.00000000E+00  0.00000000E+00  0.00000000E+00
  0.00000000E+00  0.00000000E+00  0.00000000E+00  0.00000000E+00  0.00000000E+00
  0.00000000E+00  0.00000000E+00  0.00000000E+00  0.00000000E+00  0.00000000E+00
  0.00000000E+00  0.00000000E+00  0.00000000E+00  0.00000000E+00  0.00000000E+00
  0.00000000E+00  0.00000000E+00  0.00000000E+00  0.00000000E+00  0.00000000E+00
  0.00000000E+00  0.00000000E+00  0.00000000E+00  0.00000000E+00  0.00000000E+00
  0.00000000E+00  0.00000000E+00  0.00000000E+00  0.00000000E+00  0.00000000E+00
  0.00000000E+00  0.00000000E+00  0.00000000E+00  0.00000000E+00  0.00000000E+00
  0.00000000E+00  0.00000000E+00  0.00000000E+00  0.00000000E+00  0.00000000E+00
  0.00000000E+00  0.00000000E+00  0.00000000E+00  0.00000000E+00  0.00000000E+00
  0.00000000E+00  0.00000000E+00  0.00000000E+00  0.00000000E+00  0.00000000E+00
  0.00000000E+00  0.00000000E+00  0.00000000E+00  0.00000000E+00  0.00000000E+00
  0.00000000E+00  0.00000000E+00  0.00000000E+00  0.00000000E+00  0.00000000E+00
  0.00000000E+00  0.00000000E+00  0.00000000E+00  0.00000000E+00  0.00000000E+00
  0.00000000E+00  0.00000000E+00  0.00000000E+00  0.00000000E+00  0.00000000E+00
  0.00000000E+00  0.00000000E+00  0.00000000E+00  0.00000000E+00  0.00000000E+00
  0.00000000E+00  0.00000000E+00  0.00000000E+00  0.00000000E+00  0.00000000E+00
  0.00000000E+00  0.00000000E+00  0.00000000E+00  0.00000000E+00  0.00000000E+00
  0.00000000E+00  0.00000000E+00  0.00000000E+00  0.00000000E+00  0.00000000E+00
  0.00000000E+00  0.00000000E+00  0.00000000E+00  0.00000000E+00  0.00000000E+00
  0.00000000E+00  0.00000000E+00  0.00000000E+00  0.00000000E+00  0.00000000E+00
  0.00000000E+00  0.00000000E+00  0.00000000E+00  0.00000000E+00  0.00000000E+00
  0.00000000E+00  0.00000000E+00  0.00000000E+00  0.00000000E+00  0.00000000E+00
  0.00000000E+00  0.00000000E+00  0.00000000E+00  0.00000000E+00  0.00000000E+00
  0.00000000E+00  0.00000000E+00  0.00000000E+00  0.00000000E+00  0.00000000E+00
  0.00000000E+00  0.00000000E+00  0.00000000E+00  0.00000000E+00  0.00000000E+00
  0.00000000E+00  0.00000000E+00  0.00000000E+00  0.00000000E+00  0.00000000E+00
  0.00000000E+00  0.00000000E+00  0.00000000E+00  0.00000000E+00  0.00000000E+00
  0.00000000E+00  0.00000000E+00  0.00000000E+00  0.00000000E+00  0.00000000E+00
  0.00000000E+00  0.00000000E+00  0.00000000E+00  0.00000000E+00  0.00000000E+00
  0.00000000E+00  0.00000000E+00  0.00000000E+00  0.00000000E+00  0.00000000E+00
  0.00000000E+00  0.00000000E+00  0.00000000E+00  0.00000000E+00  0.00000000E+00
  0.00000000E+00  0.00000000E+00  0.00000000E+00  0.00000000E+00  0.00000000E+00
  0.00000000E+00  0.00000000E+00  0.00000000E+00  0.00000000E+00  0.00000000E+00
  0.00000000E+00  0.00000000E+00  0.00000000E+00  0.00000000E+00  0.00000000E+00
  0.00000000E+00  0.00000000E+00  0.00000000E+00  0.00000000E+00  0.00000000E+00
  0.00000000E+00  0.00000000E+00  0.00000000E+00  0.00000000E+00  0.00000000E+00
  0.00000000E+00  0.00000000E+00  0.00000000E+00  0.00000000E+00  0.00000000E+00
  0.00000000E+00  0.00000000E+00  0.00000000E+00  0.00000000E+00  0.00000000E+00
  0.00000000E+00  0.00000000E+00  0.00000000E+00  0.00000000E+00  0.00000000E+00
  0.00000000E+00  0.00000000E+00  0.00000000E+00  0.00000000E+00  0.00000000E+00
  0.00000000E+00  0.00000000E+00  0.00000000E+00  0.00000000E+00  0.00000000E+00
  0.00000000E+00  0.00000000E+00  0.00000000E+00  0.00000000E+00  0.00000000E+00
  0.00000000E+00  0.00000000E+00  0.00000000E+00  0.00000000E+00  0.00000000E+00
  0.00000000E+00  0.00000000E+00  0.00000000E+00  0.00000000E+00  0.00000000E+00
  0.00000000E+00  0.00000000E+00  0.00000000E+00  0.00000000E+00  0.00000000E+00
  0.00000000E+00  0.00000000E+00  0.00000000E+00  0.00000000E+00  0.00000000E+00
  0.00000000E+00  0.00000000E+00  0.00000000E+00  0.00000000E+00  0.00000000E+00
  0.00000000E+00  0.00000000E+00  0.00000000E+00  0.00000000E+00  0.00000000E+00
  0.00000000E+00  0.00000000E+00  0.00000000E+00  0.00000000E+00  0.00000000E+00
  0.00000000E+00  0.00000000E+00  0.00000000E+00  0.00000000E+00  0.00000000E+00
  0.00000000E+00  0.00000000E+00  0.00000000E+00  0.00000000E+00  0.00000000E+00
  0.00000000E+00  0.00000000E+00  0.00000000E+00  0.00000000E+00  0.00000000E+00
  0.00000000E+00  0.00000000E+00  0.00000000E+00  0.00000000E+00  0.00000000E+00
  0.00000000E+00  0.00000000E+00  0.00000000E+00  0.00000000E+00  0.00000000E+00
  0.00000000E+00  0.00000000E+00  0.00000000E+00  0.00000000E+00  0.00000000E+00
  0.00000000E+00  0.00000000E+00  0.00000000E+00  0.00000000E+00  0.00000000E+00
  0.00000000E+00  0.00000000E+00  0.00000000E+00  0.00000000E+00  0.00000000E+00
  0.00000000E+00  0.00000000E+00  0.00000000E+00  0.00000000E+00  0.00000000E+00
  0.00000000E+00  0.00000000E+00  0.00000000E+00  0.00000000E+00  0.00000000E+00
  0.00000000E+00  0.00000000E+00  0.00000000E+00  0.00000000E+00  0.00000000E+00
  0.00000000E+00  0.00000000E+00  0.00000000E+00  0.00000000E+00  0.00000000E+00
  0.00000000E+00  0.00000000E+00  0.00000000E+00  0.00000000E+00  0.00000000E+00
  0.00000000E+00  0.00000000E+00  0.00000000E+00  0.00000000E+00  0.00000000E+00
  0.00000000E+00  0.00000000E+00  0.00000000E+00  0.00000000E+00  0.00000000E+00
  0.00000000E+00  0.00000000E+00  0.00000000E+00  0.00000000E+00  0.00000000E+00
  0.00000000E+00  0.00000000E+00  0.00000000E+00  0.00000000E+00  0.00000000E+00
  0.00000000E+00  0.00000000E+00  0.00000000E+00  0.00000000E+00  0.00000000E+00
  0.00000000E+00  0.00000000E+00  0.00000000E+00  0.00000000E+00  0.00000000E+00
  0.00000000E+00  0.00000000E+00  0.00000000E+00  0.00000000E+00  0.00000000E+00
  0.00000000E+00  0.00000000E+00  0.00000000E+00  0.00000000E+00  0.00000000E+00
  0.00000000E+00  0.00000000E+00  0.00000000E+00  0.00000000E+00  0.00000000E+00
  0.00000000E+00  0.00000000E+00  0.00000000E+00  0.00000000E+00  0.00000000E+00
  0.00000000E+00  0.00000000E+00  0.00000000E+00  0.00000000E+00  0.00000000E+00
  0.00000000E+00  0.00000000E+00  0.00000000E+00  0.00000000E+00  0.00000000E+00
  0.00000000E+00  0.00000000E+00  0.00000000E+00  0.00000000E+00  0.00000000E+00
  0.00000000E+00  0.00000000E+00  0.00000000E+00  0.00000000E+00  0.00000000E+00
  0.00000000E+00  0.00000000E+00  0.00000000E+00  0.00000000E+00  0.00000000E+00
  0.00000000E+00  0.00000000E+00  0.00000000E+00  0.00000000E+00  0.00000000E+00
  0.00000000E+00  0.00000000E+00  0.00000000E+00  0.00000000E+00  0.00000000E+00
  0.00000000E+00  0.00000000E+00  0.00000000E+00  0.00000000E+00  0.00000000E+00
  0.00000000E+00  0.00000000E+00  0.00000000E+00  0.00000000E+00  0.00000000E+00
  0.00000000E+00  0.00000000E+00  0.00000000E+00  0.00000000E+00  0.00000000E+00
  0.00000000E+00  0.00000000E+00  0.00000000E+00  0.00000000E+00  0.00000000E+00
  0.00000000E+00  0.00000000E+00  0.00000000E+00  0.00000000E+00  0.00000000E+00
  0.00000000E+00  0.00000000E+00  0.00000000E+00  0.00000000E+00  0.00000000E+00
  0.00000000E+00  0.00000000E+00  0.00000000E+00  0.00000000E+00  0.00000000E+00
  0.00000000E+00  0.00000000E+00  0.00000000E+00  0.00000000E+00  0.00000000E+00
  0.00000000E+00  0.00000000E+00  0.00000000E+00  0.00000000E+00  0.00000000E+00
  0.00000000E+00  0.00000000E+00  0.00000000E+00  0.00000000E+00  0.00000000E+00
  0.00000000E+00  0.00000000E+00  0.00000000E+00  0.00000000E+00  0.00000000E+00
  0.00000000E+00  0.00000000E+00  0.00000000E+00  0.00000000E+00  0.00000000E+00
  0.00000000E+00  0.00000000E+00  0.00000000E+00  0.00000000E+00  0.00000000E+00
  0.00000000E+00  0.00000000E+00  0.00000000E+00  0.00000000E+00  0.00000000E+00
  0.00000000E+00  0.00000000E+00  0.00000000E+00  0.00000000E+00  0.00000000E+00
  0.00000000E+00  0.00000000E+00  0.00000000E+00  0.00000000E+00  0.00000000E+00
  0.00000000E+00  0.00000000E+00  0.00000000E+00  0.00000000E+00  0.00000000E+00
  0.00000000E+00  0.00000000E+00  0.00000000E+00  0.00000000E+00  0.00000000E+00
  0.00000000E+00  0.00000000E+00  0.00000000E+00  0.00000000E+00  0.00000000E+00
  0.00000000E+00  0.00000000E+00  0.00000000E+00  0.00000000E+00  0.00000000E+00
  0.00000000E+00  0.00000000E+00  0.00000000E+00  0.00000000E+00  0.00000000E+00
  0.00000000E+00  0.00000000E+00  0.00000000E+00  0.00000000E+00  0.00000000E+00
  0.00000000E+00  0.00000000E+00  0.00000000E+00  0.00000000E+00  0.00000000E+00
  0.00000000E+00  0.00000000E+00  0.00000000E+00  0.00000000E+00  0.00000000E+00
  0.00000000E+00  0.00000000E+00  0.00000000E+00  0.00000000E+00  0.00000000E+00
  0.00000000E+00  0.00000000E+00  0.00000000E+00  0.00000000E+00  0.00000000E+00
  0.00000000E+00  0.00000000E+00  0.00000000E+00  0.00000000E+00  0.00000000E+00
  0.00000000E+00  0.00000000E+00  0.00000000E+00  0.00000000E+00  0.00000000E+00
  0.00000000E+00  0.00000000E+00  0.00000000E+00  0.00000000E+00  0.00000000E+00
  0.00000000E+00  0.00000000E+00  0.00000000E+00  0.00000000E+00  0.00000000E+00
  0.00000000E+00  0.00000000E+00  0.00000000E+00  0.00000000E+00  0.00000000E+00
  0.00000000E+00  0.00000000E+00  0.00000000E+00  0.00000000E+00  0.00000000E+00
  0.00000000E+00  0.00000000E+00  0.00000000E+00  0.00000000E+00  0.00000000E+00
  0.00000000E+00  0.00000000E+00  0.00000000E+00  0.00000000E+00  0.00000000E+00
  0.00000000E+00  0.00000000E+00  0.00000000E+00  0.00000000E+00  0.00000000E+00
  0.00000000E+00  0.00000000E+00  0.00000000E+00  0.00000000E+00  0.00000000E+00
  0.00000000E+00  0.00000000E+00  0.00000000E+00  0.00000000E+00  0.00000000E+00
  0.00000000E+00  0.00000000E+00  0.00000000E+00  0.00000000E+00  0.00000000E+00
  0.00000000E+00  0.00000000E+00  0.00000000E+00  0.00000000E+00  0.00000000E+00
  0.00000000E+00  0.00000000E+00  0.00000000E+00  0.00000000E+00  0.00000000E+00
  0.00000000E+00  0.00000000E+00  0.00000000E+00  0.00000000E+00  0.00000000E+00
  0.00000000E+00  0.00000000E+00  0.00000000E+00  0.00000000E+00  0.00000000E+00
  0.00000000E+00  0.00000000E+00  0.00000000E+00  0.00000000E+00  0.00000000E+00
  0.00000000E+00  0.00000000E+00  0.00000000E+00  0.00000000E+00  0.00000000E+00
  0.00000000E+00  0.00000000E+00  0.00000000E+00  0.00000000E+00  0.00000000E+00
  0.00000000E+00  0.00000000E+00  0.00000000E+00  0.00000000E+00  0.00000000E+00
  0.00000000E+00  0.00000000E+00  0.00000000E+00  0.00000000E+00  0.00000000E+00
  0.00000000E+00  0.00000000E+00  0.00000000E+00  0.00000000E+00  0.00000000E+00
  0.00000000E+00  0.00000000E+00  0.00000000E+00  0.00000000E+00  0.00000000E+00
  0.00000000E+00  0.00000000E+00  0.00000000E+00  0.00000000E+00  0.00000000E+00
  0.00000000E+00  0.00000000E+00  0.00000000E+00  0.00000000E+00  0.00000000E+00
  0.00000000E+00  0.00000000E+00  0.00000000E+00  0.00000000E+00  0.00000000E+00
  0.00000000E+00  0.00000000E+00  0.00000000E+00  0.00000000E+00  0.00000000E+00
  0.00000000E+00  0.00000000E+00  0.00000000E+00  0.00000000E+00  0.00000000E+00
  0.00000000E+00  0.00000000E+00  0.00000000E+00  0.00000000E+00  0.00000000E+00
  0.00000000E+00  0.00000000E+00  0.00000000E+00  0.00000000E+00  0.00000000E+00
  0.00000000E+00  0.00000000E+00  0.00000000E+00  0.00000000E+00  0.00000000E+00
  0.00000000E+00  0.00000000E+00  0.00000000E+00  0.00000000E+00  0.00000000E+00
  0.00000000E+00  0.00000000E+00  0.00000000E+00  0.00000000E+00  0.00000000E+00
  0.00000000E+00  0.00000000E+00  0.00000000E+00  0.00000000E+00  0.00000000E+00
  0.00000000E+00  0.00000000E+00  0.00000000E+00  0.00000000E+00  0.00000000E+00
  0.00000000E+00  0.00000000E+00  0.00000000E+00  0.00000000E+00  0.00000000E+00
  0.00000000E+00  0.00000000E+00  0.00000000E+00  0.00000000E+00  0.00000000E+00
  0.00000000E+00  0.00000000E+00  0.00000000E+00  0.00000000E+00  0.00000000E+00
  0.00000000E+00  0.00000000E+00  0.00000000E+00  0.00000000E+00  0.00000000E+00
  0.00000000E+00  0.00000000E+00  0.00000000E+00  0.00000000E+00  0.00000000E+00
  0.00000000E+00  0.00000000E+00  0.00000000E+00  0.00000000E+00  0.00000000E+00
  0.00000000E+00  0.00000000E+00  0.00000000E+00  0.00000000E+00  0.00000000E+00
  0.00000000E+00  0.00000000E+00  0.00000000E+00  0.00000000E+00  0.00000000E+00
  0.00000000E+00  0.00000000E+00  0.00000000E+00  0.00000000E+00  0.00000000E+00
  0.00000000E+00  0.00000000E+00  0.00000000E+00  0.00000000E+00  0.00000000E+00
  0.00000000E+00  0.00000000E+00  0.00000000E+00  0.00000000E+00  0.00000000E+00
  0.00000000E+00  0.00000000E+00  0.00000000E+00  0.00000000E+00  0.00000000E+00
  0.00000000E+00  0.00000000E+00  0.00000000E+00  0.00000000E+00  0.00000000E+00
  0.00000000E+00  0.00000000E+00  0.00000000E+00  0.00000000E+00  0.00000000E+00
  0.00000000E+00  0.00000000E+00  0.00000000E+00  0.00000000E+00  0.00000000E+00
  0.00000000E+00  0.00000000E+00  0.00000000E+00  0.00000000E+00  0.00000000E+00
  0.00000000E+00  0.00000000E+00  0.00000000E+00  0.00000000E+00  0.00000000E+00
  0.00000000E+00  0.00000000E+00  0.00000000E+00  0.00000000E+00  0.00000000E+00
  0.00000000E+00  0.00000000E+00  0.00000000E+00  0.00000000E+00  0.00000000E+00
  0.00000000E+00  0.00000000E+00  0.00000000E+00  0.00000000E+00  0.00000000E+00
  0.00000000E+00  0.00000000E+00  0.00000000E+00  0.00000000E+00  0.00000000E+00
  0.00000000E+00  0.00000000E+00  0.00000000E+00  0.00000000E+00  0.00000000E+00
  0.00000000E+00  0.00000000E+00  0.00000000E+00  0.00000000E+00  0.00000000E+00
  0.00000000E+00  0.00000000E+00  0.00000000E+00  0.00000000E+00  0.00000000E+00
  0.00000000E+00  0.00000000E+00  0.00000000E+00  0.00000000E+00  0.00000000E+00
  0.00000000E+00  0.00000000E+00  0.00000000E+00  0.00000000E+00  0.00000000E+00
  0.00000000E+00  0.00000000E+00  0.00000000E+00  0.00000000E+00  0.00000000E+00
  0.00000000E+00  0.00000000E+00  0.00000000E+00  0.00000000E+00  0.00000000E+00
  0.00000000E+00  0.00000000E+00  0.00000000E+00  0.00000000E+00  0.00000000E+00
  0.00000000E+00  0.00000000E+00  0.00000000E+00  0.00000000E+00  0.00000000E+00
  0.00000000E+00  0.00000000E+00  0.00000000E+00  0.00000000E+00  0.00000000E+00
  0.00000000E+00  0.00000000E+00  0.00000000E+00  0.00000000E+00  0.00000000E+00
  0.00000000E+00  0.00000000E+00  0.00000000E+00  0.00000000E+00  0.00000000E+00
  0.00000000E+00  0.00000000E+00  0.00000000E+00  0.00000000E+00  0.00000000E+00
  0.00000000E+00  0.00000000E+00  0.00000000E+00  0.00000000E+00  0.00000000E+00
  0.00000000E+00  0.00000000E+00  0.00000000E+00  0.00000000E+00  0.00000000E+00
  0.00000000E+00  0.00000000E+00  0.00000000E+00  0.00000000E+00  0.00000000E+00
  0.00000000E+00  0.00000000E+00  0.00000000E+00  0.00000000E+00  0.00000000E+00
  0.00000000E+00  0.00000000E+00  0.00000000E+00  0.00000000E+00  0.00000000E+00
  0.00000000E+00  0.00000000E+00  0.00000000E+00  0.00000000E+00  0.00000000E+00
  0.00000000E+00  0.00000000E+00  0.00000000E+00  0.00000000E+00  0.00000000E+00
  0.00000000E+00  0.00000000E+00  0.00000000E+00  0.00000000E+00  0.00000000E+00
  0.00000000E+00  0.00000000E+00  0.00000000E+00  0.00000000E+00  0.00000000E+00
  0.00000000E+00  0.00000000E+00  0.00000000E+00  0.00000000E+00  0.00000000E+00
  0.00000000E+00  0.00000000E+00  0.00000000E+00  0.00000000E+00  0.00000000E+00
  0.00000000E+00  0.00000000E+00  0.00000000E+00  0.00000000E+00  0.00000000E+00
  0.00000000E+00  0.00000000E+00  0.00000000E+00  0.00000000E+00  0.00000000E+00
  0.00000000E+00  0.00000000E+00  0.00000000E+00  0.00000000E+00  0.00000000E+00
  0.00000000E+00  0.00000000E+00  0.00000000E+00  0.00000000E+00  0.00000000E+00
  0.00000000E+00  0.00000000E+00  0.00000000E+00  0.00000000E+00  0.00000000E+00
  0.00000000E+00  0.00000000E+00  0.00000000E+00  0.00000000E+00  0.00000000E+00
  0.00000000E+00  0.00000000E+00  0.00000000E+00  0.00000000E+00  0.00000000E+00
  0.00000000E+00  0.00000000E+00  0.00000000E+00  0.00000000E+00  0.00000000E+00
Gaussian Version                           C   N=           2
ES64L-G16RevC.01        
