 Entering Gaussian System, Link 0=g16
 Input=GauExternal.gjf
 Output=GauExternal.log
 Initial command:
 /gaussian/g16.c01/intel64-sandybridge/g16/l1.exe "/home/barone/lcrisci_vb/ACTUAL_PROJECTS/MRCC_new_Interface_project/TestingOldVersion/Symmetry/C2H2S2_C2h/Iterations/Iteration_1/task_atom_5_ixyz_1_up/Gau-4155818.inp" -scrdir="/home/barone/lcrisci_vb/ACTUAL_PROJECTS/MRCC_new_Interface_project/TestingOldVersion/Symmetry/C2H2S2_C2h/Iterations/Iteration_1/task_atom_5_ixyz_1_up/"
 Entering Link 1 = /gaussian/g16.c01/intel64-sandybridge/g16/l1.exe PID=   4155821.
  
 Copyright (c) 1988-2019, Gaussian, Inc.  All Rights Reserved.
  
 This is part of the Gaussian(R) 16 program.  It is based on
 the Gaussian(R) 09 system (copyright 2009, Gaussian, Inc.),
 the Gaussian(R) 03 system (copyright 2003, Gaussian, Inc.),
 the Gaussian(R) 98 system (copyright 1998, Gaussian, Inc.),
 the Gaussian(R) 94 system (copyright 1995, Gaussian, Inc.),
 the Gaussian 92(TM) system (copyright 1992, Gaussian, Inc.),
 the Gaussian 90(TM) system (copyright 1990, Gaussian, Inc.),
 the Gaussian 88(TM) system (copyright 1988, Gaussian, Inc.),
 the Gaussian 86(TM) system (copyright 1986, Carnegie Mellon
 University), and the Gaussian 82(TM) system (copyright 1983,
 Carnegie Mellon University). Gaussian is a federally registered
 trademark of Gaussian, Inc.
  
 This software contains proprietary and confidential information,
 including trade secrets, belonging to Gaussian, Inc.
  
 This software is provided under written license and may be
 used, copied, transmitted, or stored only in accord with that
 written license.
  
 The following legend is applicable only to US Government
 contracts under FAR:
  
                    RESTRICTED RIGHTS LEGEND
  
 Use, reproduction and disclosure by the US Government is
 subject to restrictions as set forth in subparagraphs (a)
 and (c) of the Commercial Computer Software - Restricted
 Rights clause in FAR 52.227-19.
  
 Gaussian, Inc.
 340 Quinnipiac St., Bldg. 40, Wallingford CT 06492
  
  
 ---------------------------------------------------------------
 Warning -- This program may not be used in any manner that
 competes with the business of Gaussian, Inc. or will provide
 assistance to any competitor of Gaussian, Inc.  The licensee
 of this program is prohibited from giving any competitor of
 Gaussian, Inc. access to this program.  By using this program,
 the user acknowledges that Gaussian, Inc. is engaged in the
 business of creating and licensing software in the field of
 computational chemistry and represents and warrants to the
 licensee that it is not a competitor of Gaussian, Inc. and that
 it will not use this program in any manner prohibited above.
 ---------------------------------------------------------------
  

 Cite this work as:
 Gaussian 16, Revision C.01,
 M. J. Frisch, G. W. Trucks, H. B. Schlegel, G. E. Scuseria, 
 M. A. Robb, J. R. Cheeseman, G. Scalmani, V. Barone, 
 G. A. Petersson, H. Nakatsuji, X. Li, M. Caricato, A. V. Marenich, 
 J. Bloino, B. G. Janesko, R. Gomperts, B. Mennucci, H. P. Hratchian, 
 J. V. Ortiz, A. F. Izmaylov, J. L. Sonnenberg, D. Williams-Young, 
 F. Ding, F. Lipparini, F. Egidi, J. Goings, B. Peng, A. Petrone, 
 T. Henderson, D. Ranasinghe, V. G. Zakrzewski, J. Gao, N. Rega, 
 G. Zheng, W. Liang, M. Hada, M. Ehara, K. Toyota, R. Fukuda, 
 J. Hasegawa, M. Ishida, T. Nakajima, Y. Honda, O. Kitao, H. Nakai, 
 T. Vreven, K. Throssell, J. A. Montgomery, Jr., J. E. Peralta, 
 F. Ogliaro, M. J. Bearpark, J. J. Heyd, E. N. Brothers, K. N. Kudin, 
 V. N. Staroverov, T. A. Keith, R. Kobayashi, J. Normand, 
 K. Raghavachari, A. P. Rendell, J. C. Burant, S. S. Iyengar, 
 J. Tomasi, M. Cossi, J. M. Millam, M. Klene, C. Adamo, R. Cammi, 
 J. W. Ochterski, R. L. Martin, K. Morokuma, O. Farkas, 
 J. B. Foresman, and D. J. Fox, Gaussian, Inc., Wallingford CT, 2019.
 
 ******************************************
 Gaussian 16:  ES64L-G16RevC.01  3-Jul-2019
                19-Nov-2025 
 ******************************************
 %nproc=2
 Will use up to    2 processors via shared memory.
 %mem=20GB
 %chk=GauExternal.chk
 --------------------
 #P hf/sto-3g scf=xqc
 --------------------
 1/38=1,172=1/1;
 2/12=2,17=6,18=5,40=1/2;
 3/6=3,11=9,25=1,30=1/1,2,3;
 4//1;
 5/5=2,8=3,13=1,38=5/2,8;
 6/7=2,8=2,9=2,10=2,28=1/1;
 99/5=1,9=1/99;
 Leave Link    1 at Wed Nov 19 18:18:18 2025, MaxMem=  2684354560 cpu:               0.0 elap:               0.2
 (Enter /gaussian/g16.c01/intel64-sandybridge/g16/l101.exe)
 --------------------
 External Calculation
 --------------------
 Symbolic Z-matrix:
 Charge =  0 Multiplicity = 1
 C                    -0.38223   0.5595    0. 
 H                    -1.449     0.47643   0. 
 C                     0.38223  -0.5595    0. 
 H                     1.449    -0.47643   0. 
 S                    -0.38123  -2.16699   0. 
 S                     0.38223   2.16699   0. 
 
 ITRead=  0  0  0  0  0  0
 MicOpt= -1 -1 -1 -1 -1 -1
 NAtoms=      6 NQM=        6 NQMF=       0 NMMI=      0 NMMIF=      0
                NMic=       0 NMicF=      0.
                    Isotopes and Nuclear Properties:
 (Nuclear quadrupole moments (NQMom) in fm**2, nuclear magnetic moments (NMagM)
  in nuclear magnetons)

  Atom         1           2           3           4           5           6
 IAtWgt=          12           1          12           1          32          32
 AtmWgt=  12.0000000   1.0078250  12.0000000   1.0078250  31.9720718  31.9720718
 NucSpn=           0           1           0           1           0           0
 AtZEff=  -0.0000000  -0.0000000  -0.0000000  -0.0000000  -0.0000000  -0.0000000
 NQMom=    0.0000000   0.0000000   0.0000000   0.0000000   0.0000000   0.0000000
 NMagM=    0.0000000   2.7928460   0.0000000   2.7928460   0.0000000   0.0000000
 AtZNuc=   6.0000000   1.0000000   6.0000000   1.0000000  16.0000000  16.0000000
 Leave Link  101 at Wed Nov 19 18:18:19 2025, MaxMem=  2684354560 cpu:               0.1 elap:               0.2
 (Enter /gaussian/g16.c01/intel64-sandybridge/g16/l202.exe)
                          Input orientation:                          
 ---------------------------------------------------------------------
 Center     Atomic      Atomic             Coordinates (Angstroms)
 Number     Number       Type             X           Y           Z
 ---------------------------------------------------------------------
      1          6           0       -0.382228    0.559503    0.000000
      2          1           0       -1.448998    0.476434    0.000000
      3          6           0        0.382228   -0.559503    0.000000
      4          1           0        1.448998   -0.476434    0.000000
      5         16           0       -0.381228   -2.166988    0.000000
      6         16           0        0.382228    2.166988    0.000000
 ---------------------------------------------------------------------
                    Distance matrix (angstroms):
                    1          2          3          4          5
     1  C    0.000000
     2  H    1.070000   0.000000
     3  C    1.355200   2.103938   0.000000
     4  H    2.103938   3.050630   1.070000   0.000000
     5  S    2.726491   2.850932   1.779571   2.491526   0.000000
     6  S    1.780000   2.492261   2.726491   2.850557   4.400706
                    6
     6  S    0.000000
 Stoichiometry    C2H2S2
 Framework group  CS[SG(C2H2S2)]
 Deg. of freedom     9
 Full point group                 CS      NOp   2
 Largest Abelian subgroup         CS      NOp   2
 Largest concise Abelian subgroup C1      NOp   1
                         Standard orientation:                         
 ---------------------------------------------------------------------
 Center     Atomic      Atomic             Coordinates (Angstroms)
 Number     Number       Type             X           Y           Z
 ---------------------------------------------------------------------
      1          6           0       -0.000575   -0.677796    0.000000
      2          1           0       -0.928505   -1.210566    0.000000
      3          6           0        0.000000    0.677404    0.000000
      4          1           0        0.927931    1.210174    0.000000
      5         16           0       -1.536782    1.574719    0.000000
      6         16           0        1.537033   -1.574547    0.000000
 ---------------------------------------------------------------------
 Rotational constants (GHZ):          51.3071599           1.6020999           1.5535880
 Leave Link  202 at Wed Nov 19 18:18:19 2025, MaxMem=  2684354560 cpu:               0.0 elap:               0.1
 (Enter /gaussian/g16.c01/intel64-sandybridge/g16/l301.exe)
 Standard basis: STO-3G (5D, 7F)
 Ernie: Thresh=  0.10000D-02 Tol=  0.10000D-05 Strict=F.
 There are    24 symmetry adapted cartesian basis functions of A'  symmetry.
 There are     6 symmetry adapted cartesian basis functions of A"  symmetry.
 There are    24 symmetry adapted basis functions of A'  symmetry.
 There are     6 symmetry adapted basis functions of A"  symmetry.
    30 basis functions,    90 primitive gaussians,    30 cartesian basis functions
    23 alpha electrons       23 beta electrons
       nuclear repulsion energy       161.0541912392 Hartrees.
 IExCor=    0 DFT=F Ex=HF Corr=None ExCW=0 ScaHFX=  1.000000
 ScaDFX=  1.000000  1.000000  1.000000  1.000000 ScalE2=  1.000000  1.000000
 IRadAn=      5 IRanWt=     -1 IRanGd=            0 ICorTp=0 IEmpDi=  4
 NAtoms=    6 NActive=    6 NUniq=    6 SFac= 1.00D+00 NAtFMM=   60 NAOKFM=F Big=F
 Integral buffers will be    131072 words long.
 Raffenetti 1 integral format.
 Two-electron integral symmetry is turned on.
 Leave Link  301 at Wed Nov 19 18:18:19 2025, MaxMem=  2684354560 cpu:               0.1 elap:               0.1
 (Enter /gaussian/g16.c01/intel64-sandybridge/g16/l302.exe)
 NPDir=0 NMtPBC=     1 NCelOv=     1 NCel=       1 NClECP=     1 NCelD=      1
         NCelK=      1 NCelE2=     1 NClLst=     1 CellRange=     0.0.
 One-electron integrals computed using PRISM.
 One-electron integral symmetry used in STVInt
 NBasis=    30 RedAO= T EigKep=  2.02D-01  NBF=    24     6
 NBsUse=    30 1.00D-06 EigRej= -1.00D+00 NBFU=    24     6
 Leave Link  302 at Wed Nov 19 18:18:20 2025, MaxMem=  2684354560 cpu:               0.1 elap:               0.2
 (Enter /gaussian/g16.c01/intel64-sandybridge/g16/l303.exe)
 DipDrv:  MaxL=1.
 Leave Link  303 at Wed Nov 19 18:18:20 2025, MaxMem=  2684354560 cpu:               0.1 elap:               0.1
 (Enter /gaussian/g16.c01/intel64-sandybridge/g16/l401.exe)
 ExpMin= 1.69D-01 ExpMax= 5.33D+02 ExpMxC= 5.33D+02 IAcc=3 IRadAn=         5 AccDes= 0.00D+00
 Harris functional with IExCor=  205 and IRadAn=       5 diagonalized for initial guess.
 HarFok:  IExCor=  205 AccDes= 0.00D+00 IRadAn=         5 IDoV= 1 UseB2=F ITyADJ=14
 ICtDFT=  3500011 ScaDFX=  1.000000  1.000000  1.000000  1.000000
 FoFCou: FMM=F IPFlag=           0 FMFlag=      100000 FMFlg1=           0
         NFxFlg=           0 DoJE=T BraDBF=F KetDBF=T FulRan=T
         wScrn=  0.000000 ICntrl=       500 IOpCl=  0 I1Cent=   200000004 NGrid=           0
         NMat0=    1 NMatS0=      1 NMatT0=    0 NMatD0=    1 NMtDS0=    0 NMtDT0=    0
 Petite list used in FoFCou.
 Harris En= -861.414857399554    
 JPrj=0 DoOrth=F DoCkMO=F.
 Initial guess orbital symmetries:
       Occupied  (A') (A') (A') (A') (A') (A') (A') (A') (A') (A')
                 (A") (A") (A') (A') (A') (A') (A') (A') (A") (A')
                 (A") (A') (A')
       Virtual   (A") (A") (A') (A') (A') (A') (A')
 The electronic state of the initial guess is 1-A'.
 Leave Link  401 at Wed Nov 19 18:18:20 2025, MaxMem=  2684354560 cpu:               0.2 elap:               0.2
 (Enter /gaussian/g16.c01/intel64-sandybridge/g16/l502.exe)
 Keep R1 ints in memory in symmetry-blocked form, NReq=920697.
 FoFCou: FMM=F IPFlag=           0 FMFlag=           0 FMFlg1=           0
         NFxFlg=           0 DoJE=F BraDBF=F KetDBF=F FulRan=T
         wScrn=  0.000000 ICntrl=       600 IOpCl=  0 I1Cent=           0 NGrid=           0
         NMat0=    1 NMatS0=    465 NMatT0=    0 NMatD0=    1 NMtDS0=    0 NMtDT0=    0
 Petite list used in FoFCou.
 Closed shell SCF:
 Using DIIS extrapolation, IDIIS=  1040.
 NGot=  2684354560 LenX=  2684288363 LenY=  2684287022
 Requested convergence on RMS density matrix=1.00D-08 within  32 cycles.
 Requested convergence on MAX density matrix=1.00D-06.
 Requested convergence on             energy=1.00D-06.
 No special actions if energy rises.

 Cycle   1  Pass 1  IDiag  1:
 E= -862.107416628726    
 DIIS: error= 4.30D-02 at cycle   1 NSaved=   1.
 NSaved= 1 IEnMin= 1 EnMin= -862.107416628726     IErMin= 1 ErrMin= 4.30D-02
 ErrMax= 4.30D-02  0.00D+00 EMaxC= 1.00D-01 BMatC= 5.84D-02 BMatP= 5.84D-02
 IDIUse=3 WtCom= 5.70D-01 WtEn= 4.30D-01
 Coeff-Com:  0.100D+01
 Coeff-En:   0.100D+01
 Coeff:      0.100D+01
 Gap=     0.246 Goal=   None    Shift=    0.000
 GapD=    0.246 DampG=1.000 DampE=0.500 DampFc=0.5000 IDamp=-1.
 Damping current iteration by 5.00D-01
 RMSDP=1.33D-02 MaxDP=9.91D-02              OVMax= 0.00D+00

 Cycle   2  Pass 1  IDiag  1:
 E= -862.133654682521     Delta-E=       -0.026238053795 Rises=F Damp=T
 DIIS: error= 2.54D-02 at cycle   2 NSaved=   2.
 NSaved= 2 IEnMin= 2 EnMin= -862.133654682521     IErMin= 2 ErrMin= 2.54D-02
 ErrMax= 2.54D-02  0.00D+00 EMaxC= 1.00D-01 BMatC= 1.03D-02 BMatP= 5.84D-02
 IDIUse=3 WtCom= 7.46D-01 WtEn= 2.54D-01
 Coeff-Com: -0.425D+00 0.143D+01
 Coeff-En:   0.000D+00 0.100D+01
 Coeff:     -0.317D+00 0.132D+01
 Gap=     0.257 Goal=   None    Shift=    0.000
 RMSDP=3.09D-03 MaxDP=2.03D-02 DE=-2.62D-02 OVMax= 0.00D+00

 Cycle   3  Pass 1  IDiag  1:
 E= -862.158566297104     Delta-E=       -0.024911614583 Rises=F Damp=F
 DIIS: error= 4.16D-03 at cycle   3 NSaved=   3.
 NSaved= 3 IEnMin= 3 EnMin= -862.158566297104     IErMin= 3 ErrMin= 4.16D-03
 ErrMax= 4.16D-03  0.00D+00 EMaxC= 1.00D-01 BMatC= 4.53D-04 BMatP= 1.03D-02
 IDIUse=3 WtCom= 9.58D-01 WtEn= 4.16D-02
 Coeff-Com: -0.129D+00 0.182D+00 0.947D+00
 Coeff-En:   0.000D+00 0.000D+00 0.100D+01
 Coeff:     -0.124D+00 0.174D+00 0.949D+00
 Gap=     0.266 Goal=   None    Shift=    0.000
 RMSDP=1.27D-03 MaxDP=1.08D-02 DE=-2.49D-02 OVMax= 0.00D+00

 Cycle   4  Pass 1  IDiag  1:
 E= -862.159516225830     Delta-E=       -0.000949928726 Rises=F Damp=F
 DIIS: error= 9.84D-04 at cycle   4 NSaved=   4.
 NSaved= 4 IEnMin= 4 EnMin= -862.159516225830     IErMin= 4 ErrMin= 9.84D-04
 ErrMax= 9.84D-04  0.00D+00 EMaxC= 1.00D-01 BMatC= 2.92D-05 BMatP= 4.53D-04
 IDIUse=3 WtCom= 9.90D-01 WtEn= 9.84D-03
 Coeff-Com:  0.108D+00-0.183D+00-0.466D+00 0.154D+01
 Coeff-En:   0.000D+00 0.000D+00 0.000D+00 0.100D+01
 Coeff:      0.107D+00-0.182D+00-0.462D+00 0.154D+01
 Gap=     0.269 Goal=   None    Shift=    0.000
 RMSDP=6.45D-04 MaxDP=5.30D-03 DE=-9.50D-04 OVMax= 0.00D+00

 Cycle   5  Pass 1  IDiag  1:
 E= -862.159651305365     Delta-E=       -0.000135079535 Rises=F Damp=F
 DIIS: error= 4.14D-04 at cycle   5 NSaved=   5.
 NSaved= 5 IEnMin= 5 EnMin= -862.159651305365     IErMin= 5 ErrMin= 4.14D-04
 ErrMax= 4.14D-04  0.00D+00 EMaxC= 1.00D-01 BMatC= 3.88D-06 BMatP= 2.92D-05
 IDIUse=3 WtCom= 9.96D-01 WtEn= 4.14D-03
 Coeff-Com: -0.557D-01 0.946D-01 0.307D+00-0.130D+01 0.195D+01
 Coeff-En:   0.000D+00 0.000D+00 0.000D+00 0.000D+00 0.100D+01
 Coeff:     -0.555D-01 0.942D-01 0.306D+00-0.129D+01 0.195D+01
 Gap=     0.270 Goal=   None    Shift=    0.000
 RMSDP=3.26D-04 MaxDP=2.24D-03 DE=-1.35D-04 OVMax= 0.00D+00

 Cycle   6  Pass 1  IDiag  1:
 E= -862.159668530612     Delta-E=       -0.000017225248 Rises=F Damp=F
 DIIS: error= 6.48D-05 at cycle   6 NSaved=   6.
 NSaved= 6 IEnMin= 6 EnMin= -862.159668530612     IErMin= 6 ErrMin= 6.48D-05
 ErrMax= 6.48D-05  0.00D+00 EMaxC= 1.00D-01 BMatC= 5.01D-08 BMatP= 3.88D-06
 IDIUse=1 WtCom= 1.00D+00 WtEn= 0.00D+00
 Coeff-Com: -0.273D-02 0.439D-02 0.157D-01-0.324D-01 0.231D-01 0.992D+00
 Coeff:     -0.273D-02 0.439D-02 0.157D-01-0.324D-01 0.231D-01 0.992D+00
 Gap=     0.269 Goal=   None    Shift=    0.000
 RMSDP=2.55D-05 MaxDP=2.44D-04 DE=-1.72D-05 OVMax= 0.00D+00

 Cycle   7  Pass 1  IDiag  1:
 E= -862.159668753073     Delta-E=       -0.000000222460 Rises=F Damp=F
 DIIS: error= 2.87D-05 at cycle   7 NSaved=   7.
 NSaved= 7 IEnMin= 7 EnMin= -862.159668753073     IErMin= 7 ErrMin= 2.87D-05
 ErrMax= 2.87D-05  0.00D+00 EMaxC= 1.00D-01 BMatC= 1.56D-08 BMatP= 5.01D-08
 IDIUse=1 WtCom= 1.00D+00 WtEn= 0.00D+00
 Coeff-Com:  0.322D-02-0.559D-02-0.168D-01 0.817D-01-0.131D+00 0.179D+00
 Coeff-Com:  0.890D+00
 Coeff:      0.322D-02-0.559D-02-0.168D-01 0.817D-01-0.131D+00 0.179D+00
 Coeff:      0.890D+00
 Gap=     0.269 Goal=   None    Shift=    0.000
 RMSDP=1.28D-05 MaxDP=1.49D-04 DE=-2.22D-07 OVMax= 0.00D+00

 Cycle   8  Pass 1  IDiag  1:
 E= -862.159668808157     Delta-E=       -0.000000055085 Rises=F Damp=F
 DIIS: error= 1.29D-05 at cycle   8 NSaved=   8.
 NSaved= 8 IEnMin= 8 EnMin= -862.159668808157     IErMin= 8 ErrMin= 1.29D-05
 ErrMax= 1.29D-05  0.00D+00 EMaxC= 1.00D-01 BMatC= 3.94D-09 BMatP= 1.56D-08
 IDIUse=1 WtCom= 1.00D+00 WtEn= 0.00D+00
 Coeff-Com: -0.106D-02 0.183D-02 0.585D-02-0.338D-01 0.448D-01-0.369D+00
 Coeff-Com:  0.100D+00 0.125D+01
 Coeff:     -0.106D-02 0.183D-02 0.585D-02-0.338D-01 0.448D-01-0.369D+00
 Coeff:      0.100D+00 0.125D+01
 Gap=     0.269 Goal=   None    Shift=    0.000
 RMSDP=9.78D-06 MaxDP=9.03D-05 DE=-5.51D-08 OVMax= 0.00D+00

 Cycle   9  Pass 1  IDiag  1:
 E= -862.159668825466     Delta-E=       -0.000000017309 Rises=F Damp=F
 DIIS: error= 1.20D-06 at cycle   9 NSaved=   9.
 NSaved= 9 IEnMin= 9 EnMin= -862.159668825466     IErMin= 9 ErrMin= 1.20D-06
 ErrMax= 1.20D-06  0.00D+00 EMaxC= 1.00D-01 BMatC= 2.53D-11 BMatP= 3.94D-09
 IDIUse=1 WtCom= 1.00D+00 WtEn= 0.00D+00
 Coeff-Com:  0.554D-04-0.103D-03-0.281D-03 0.352D-02-0.198D-02 0.804D-01
 Coeff-Com: -0.492D-01-0.309D+00 0.128D+01
 Coeff:      0.554D-04-0.103D-03-0.281D-03 0.352D-02-0.198D-02 0.804D-01
 Coeff:     -0.492D-01-0.309D+00 0.128D+01
 Gap=     0.269 Goal=   None    Shift=    0.000
 RMSDP=9.82D-07 MaxDP=1.11D-05 DE=-1.73D-08 OVMax= 0.00D+00

 Cycle  10  Pass 1  IDiag  1:
 E= -862.159668825633     Delta-E=       -0.000000000167 Rises=F Damp=F
 DIIS: error= 9.61D-08 at cycle  10 NSaved=  10.
 NSaved=10 IEnMin=10 EnMin= -862.159668825633     IErMin=10 ErrMin= 9.61D-08
 ErrMax= 9.61D-08  0.00D+00 EMaxC= 1.00D-01 BMatC= 2.87D-13 BMatP= 2.53D-11
 IDIUse=1 WtCom= 1.00D+00 WtEn= 0.00D+00
 Coeff-Com:  0.925D-05-0.160D-04-0.590D-04 0.367D-03-0.502D-03 0.481D-02
 Coeff-Com:  0.407D-03-0.203D-01 0.359D-01 0.979D+00
 Coeff:      0.925D-05-0.160D-04-0.590D-04 0.367D-03-0.502D-03 0.481D-02
 Coeff:      0.407D-03-0.203D-01 0.359D-01 0.979D+00
 Gap=     0.269 Goal=   None    Shift=    0.000
 RMSDP=4.58D-08 MaxDP=4.40D-07 DE=-1.67D-10 OVMax= 0.00D+00

 Cycle  11  Pass 1  IDiag  1:
 E= -862.159668825633     Delta-E=       -0.000000000001 Rises=F Damp=F
 DIIS: error= 4.23D-08 at cycle  11 NSaved=  11.
 NSaved=11 IEnMin=11 EnMin= -862.159668825633     IErMin=11 ErrMin= 4.23D-08
 ErrMax= 4.23D-08  0.00D+00 EMaxC= 1.00D-01 BMatC= 4.23D-14 BMatP= 2.87D-13
 IDIUse=1 WtCom= 1.00D+00 WtEn= 0.00D+00
 Coeff-Com: -0.387D-05 0.713D-05 0.195D-04-0.229D-03 0.137D-03-0.513D-02
 Coeff-Com:  0.367D-02 0.184D-01-0.760D-01-0.118D+00 0.118D+01
 Coeff:     -0.387D-05 0.713D-05 0.195D-04-0.229D-03 0.137D-03-0.513D-02
 Coeff:      0.367D-02 0.184D-01-0.760D-01-0.118D+00 0.118D+01
 Gap=     0.269 Goal=   None    Shift=    0.000
 RMSDP=2.56D-08 MaxDP=3.36D-07 DE=-7.96D-13 OVMax= 0.00D+00

 Cycle  12  Pass 1  IDiag  1:
 E= -862.159668825632     Delta-E=        0.000000000001 Rises=F Damp=F
 DIIS: error= 3.06D-08 at cycle  12 NSaved=  12.
 NSaved=12 IEnMin=11 EnMin= -862.159668825633     IErMin=12 ErrMin= 3.06D-08
 ErrMax= 3.06D-08  0.00D+00 EMaxC= 1.00D-01 BMatC= 2.12D-14 BMatP= 4.23D-14
 IDIUse=1 WtCom= 1.00D+00 WtEn= 0.00D+00
 Coeff-Com:  0.183D-05-0.373D-05-0.473D-05 0.169D-03 0.630D-05 0.471D-02
 Coeff-Com: -0.317D-02-0.193D-01 0.851D-01-0.233D+00-0.808D+00 0.197D+01
 Coeff:      0.183D-05-0.373D-05-0.473D-05 0.169D-03 0.630D-05 0.471D-02
 Coeff:     -0.317D-02-0.193D-01 0.851D-01-0.233D+00-0.808D+00 0.197D+01
 Gap=     0.269 Goal=   None    Shift=    0.000
 RMSDP=2.50D-08 MaxDP=2.41D-07 DE= 1.14D-12 OVMax= 0.00D+00

 Cycle  13  Pass 1  IDiag  1:
 E= -862.159668825632     Delta-E=        0.000000000000 Rises=F Damp=F
 DIIS: error= 7.36D-09 at cycle  13 NSaved=  13.
 NSaved=13 IEnMin=11 EnMin= -862.159668825633     IErMin=13 ErrMin= 7.36D-09
 ErrMax= 7.36D-09  0.00D+00 EMaxC= 1.00D-01 BMatC= 1.41D-15 BMatP= 2.12D-14
 IDIUse=1 WtCom= 1.00D+00 WtEn= 0.00D+00
 Coeff-Com: -0.191D-06 0.502D-06-0.111D-05-0.328D-04-0.242D-04-0.112D-02
 Coeff-Com:  0.927D-03 0.462D-02-0.213D-01 0.853D-01 0.245D+00-0.883D+00
 Coeff-Com:  0.157D+01
 Coeff:     -0.191D-06 0.502D-06-0.111D-05-0.328D-04-0.242D-04-0.112D-02
 Coeff:      0.927D-03 0.462D-02-0.213D-01 0.853D-01 0.245D+00-0.883D+00
 Coeff:      0.157D+01
 Gap=     0.269 Goal=   None    Shift=    0.000
 RMSDP=7.43D-09 MaxDP=7.60D-08 DE= 2.27D-13 OVMax= 0.00D+00

 SCF Done:  E(RHF) =  -862.159668826     A.U. after   13 cycles
            NFock= 13  Conv=0.74D-08     -V/T= 2.0109
 KE= 8.528433070716D+02 PE=-2.371286704437D+03 EE= 4.952295373006D+02
 Leave Link  502 at Wed Nov 19 18:18:21 2025, MaxMem=  2684354560 cpu:               0.2 elap:               0.7
 (Enter /gaussian/g16.c01/intel64-sandybridge/g16/l508.exe)
 QCSCF skips out because SCF is already converged.
 Leave Link  508 at Wed Nov 19 18:18:21 2025, MaxMem=  2684354560 cpu:               0.0 elap:               0.0
 (Enter /gaussian/g16.c01/intel64-sandybridge/g16/l601.exe)
 Copying SCF densities to generalized density rwf, IOpCl= 0 IROHF=0.

 **********************************************************************

            Population analysis using the SCF Density.

 **********************************************************************

 Orbital symmetries:
       Occupied  (A') (A') (A') (A') (A') (A') (A") (A") (A') (A')
                 (A') (A') (A') (A') (A') (A') (A') (A') (A") (A')
                 (A') (A') (A")
       Virtual   (A") (A") (A') (A') (A') (A') (A')
 The electronic state is 1-A'.
 Alpha  occ. eigenvalues --  -90.70311 -90.70308 -11.04709 -11.04664  -8.61378
 Alpha  occ. eigenvalues --   -8.61373  -6.24459  -6.24456  -6.24437  -6.24432
 Alpha  occ. eigenvalues --   -6.24054  -6.24051  -1.02991  -0.87520  -0.75295
 Alpha  occ. eigenvalues --   -0.70816  -0.54643  -0.46406  -0.37601  -0.36132
 Alpha  occ. eigenvalues --   -0.25271  -0.24570  -0.19340
 Alpha virt. eigenvalues --    0.07598   0.31814   0.44865   0.52245   0.65801
 Alpha virt. eigenvalues --    0.85821   0.92217
          Condensed to atoms (all electrons):
               1          2          3          4          5          6
     1  C    5.007682   0.385721   0.475635  -0.031216  -0.025430   0.338840
     2  H    0.385721   0.590920  -0.031213   0.002069  -0.002417  -0.019638
     3  C    0.475635  -0.031213   5.007672   0.385734   0.338949  -0.025432
     4  H   -0.031216   0.002069   0.385734   0.590969  -0.019679  -0.002422
     5  S   -0.025430  -0.002417   0.338949  -0.019679  15.631542   0.000263
     6  S    0.338840  -0.019638  -0.025432  -0.002422   0.000263  15.631687
 Mulliken charges:
               1
     1  C   -0.151233
     2  H    0.074559
     3  C   -0.151345
     4  H    0.074545
     5  S    0.076773
     6  S    0.076702
 Sum of Mulliken charges =   0.00000
 Mulliken charges with hydrogens summed into heavy atoms:
               1
     1  C   -0.076675
     3  C   -0.076800
     5  S    0.076773
     6  S    0.076702
 Electronic spatial extent (au):  <R**2>=            664.5638
 Charge=              0.0000 electrons
 Dipole moment (field-independent basis, Debye):
    X=             -0.0005    Y=             -0.0004    Z=             -0.0000  Tot=              0.0006
 Quadrupole moment (field-independent basis, Debye-Ang):
   XX=            -34.5663   YY=            -35.1867   ZZ=            -31.1346
   XY=              2.0416   XZ=              0.0000   YZ=             -0.0000
 Traceless Quadrupole moment (field-independent basis, Debye-Ang):
   XX=             -0.9371   YY=             -1.5575   ZZ=              2.4946
   XY=              2.0416   XZ=              0.0000   YZ=             -0.0000
 Octapole moment (field-independent basis, Debye-Ang**2):
  XXX=              0.0049  YYY=              0.0015  ZZZ=             -0.0000  XYY=             -0.0005
  XXY=             -0.0022  XXZ=             -0.0000  XZZ=              0.0003  YZZ=              0.0009
  YYZ=             -0.0000  XYZ=              0.0000
 Hexadecapole moment (field-independent basis, Debye-Ang**3):
 XXXX=           -344.8847 YYYY=           -411.3934 ZZZZ=            -25.5036 XXXY=            150.6239
 XXXZ=              0.0000 YYYX=            159.4538 YYYZ=              0.0000 ZZZX=              0.0000
 ZZZY=             -0.0000 XXYY=           -120.0975 XXZZ=            -56.8503 YYZZ=            -64.8812
 XXYZ=             -0.0000 YYXZ=              0.0000 ZZXY=             45.7341
 N-N= 1.610541912392D+02 E-N=-2.371286704459D+03  KE= 8.528433070716D+02
 Symmetry A'   KE= 7.805516714998D+02
 Symmetry A"   KE= 7.229163557187D+01
 No NMR shielding tensors so no spin-rotation constants.
 Leave Link  601 at Wed Nov 19 18:18:21 2025, MaxMem=  2684354560 cpu:               0.1 elap:               0.1
 (Enter /gaussian/g16.c01/intel64-sandybridge/g16/l9999.exe)
 Unable to Open any file for archive entry.
 1\1\GINC-THIOTIMOLINE-LARGE01\SP\RHF\STO-3G\C2H2S2\LCRISCI_VB\19-Nov-2
 025\0\\#P hf/sto-3g scf=xqc\\External Calculation\\0,1\C,0,-0.38222776
 62,0.5595030819,0.\H,0,-1.4489983474,0.4764336871,0.\C,0,0.3822277662,
 -0.5595030819,0.\H,0,1.4489983474,-0.4764336871,0.\S,0,-0.3812277662,-
 2.166987993,0.\S,0,0.3822277662,2.166987993,0.\\Version=ES64L-G16RevC.
 01\State=1-A'\HF=-862.1596688\RMSD=7.430e-09\Dipole=-0.0002403,0.00001
 68,0.\Quadrupole=0.5702475,-2.4249127,1.8546651,-0.3383656,0.,0.\PG=CS
  [SG(C2H2S2)]\\@
 The archive entry for this job was punched.


 HICKORY, DICKORY, DOCK
 TWO MICE RAN UP THE CLOCK
 THE CLOCK STRUCK ONE...
 THE OTHER ESCAPED WITH MINOR INJURIES.
 Job cpu time:       0 days  0 hours  0 minutes  1.3 seconds.
 Elapsed time:       0 days  0 hours  0 minutes  2.2 seconds.
 File lengths (MBytes):  RWF=      5 Int=      0 D2E=      0 Chk=      1 Scr=      1
 Normal termination of Gaussian 16 at Wed Nov 19 18:18:22 2025.
