%chk=test_parall.chk
%nprocs=1
#p force output=pickett External="CentralExt gau $PGAU/test_pr.dat $EGAU/test_en.dat 7 55 read parall 2" 

title

0 1
 C                 -0.00000000    1.39499068    0.00000000
 C                 -1.20809737    0.69749534    0.00000000
 C                 -1.20809737   -0.69749534    0.00000000
 C                  0.00000000   -1.39499068    0.00000000
 C                  1.20809737   -0.69749534    0.00000000
 C                  1.20809737    0.69749534    0.00000000
 H                  0.00000000    2.49460098   -0.00000000
 H                 -2.16038782    1.24730049   -0.00000000
 H                 -2.16038782   -1.24730049   -0.00000000
 H                  0.00000000   -2.49460098   -0.00000000
 H                  2.16038782   -1.24730049   -0.00000000
 H                  2.16038782    1.24730049   -0.00000000


--link1--
%chk=test_parall.chk
%nprocs=1
#p force hf/sto-3g

title

0 1
 C                 -0.00000000    1.39499068    0.00000000
 C                 -1.20809737    0.69749534    0.00000000
 C                 -1.20809737   -0.69749534    0.00000000
 C                  0.00000000   -1.39499068    0.00000000
 C                  1.20809737   -0.69749534    0.00000000
 C                  1.20809737    0.69749534    0.00000000
 H                  0.00000000    2.49460098   -0.00000000
 H                 -2.16038782    1.24730049   -0.00000000
 H                 -2.16038782   -1.24730049   -0.00000000
 H                  0.00000000   -2.49460098   -0.00000000
 H                  2.16038782   -1.24730049   -0.00000000
 H                  2.16038782    1.24730049   -0.00000000


