 Entering Gaussian System, Link 0=g16
 Input=GauExternal.gjf
 Output=GauExternal.log
 Initial command:
 /gaussian/g16.c01/intel64-sandybridge/g16/l1.exe "/home/barone/lcrisci_vb/ACTUAL_PROJECTS/MRCC_new_Interface_project/TestingOldVersion/Symmetry/C3H4_D2d/Iterations/Iteration_1/task_atom_3_ixyz_3_down/Gau-4154322.inp" -scrdir="/home/barone/lcrisci_vb/ACTUAL_PROJECTS/MRCC_new_Interface_project/TestingOldVersion/Symmetry/C3H4_D2d/Iterations/Iteration_1/task_atom_3_ixyz_3_down/"
 Entering Link 1 = /gaussian/g16.c01/intel64-sandybridge/g16/l1.exe PID=   4154323.
  
 Copyright (c) 1988-2019, Gaussian, Inc.  All Rights Reserved.
  
 This is part of the Gaussian(R) 16 program.  It is based on
 the Gaussian(R) 09 system (copyright 2009, Gaussian, Inc.),
 the Gaussian(R) 03 system (copyright 2003, Gaussian, Inc.),
 the Gaussian(R) 98 system (copyright 1998, Gaussian, Inc.),
 the Gaussian(R) 94 system (copyright 1995, Gaussian, Inc.),
 the Gaussian 92(TM) system (copyright 1992, Gaussian, Inc.),
 the Gaussian 90(TM) system (copyright 1990, Gaussian, Inc.),
 the Gaussian 88(TM) system (copyright 1988, Gaussian, Inc.),
 the Gaussian 86(TM) system (copyright 1986, Carnegie Mellon
 University), and the Gaussian 82(TM) system (copyright 1983,
 Carnegie Mellon University). Gaussian is a federally registered
 trademark of Gaussian, Inc.
  
 This software contains proprietary and confidential information,
 including trade secrets, belonging to Gaussian, Inc.
  
 This software is provided under written license and may be
 used, copied, transmitted, or stored only in accord with that
 written license.
  
 The following legend is applicable only to US Government
 contracts under FAR:
  
                    RESTRICTED RIGHTS LEGEND
  
 Use, reproduction and disclosure by the US Government is
 subject to restrictions as set forth in subparagraphs (a)
 and (c) of the Commercial Computer Software - Restricted
 Rights clause in FAR 52.227-19.
  
 Gaussian, Inc.
 340 Quinnipiac St., Bldg. 40, Wallingford CT 06492
  
  
 ---------------------------------------------------------------
 Warning -- This program may not be used in any manner that
 competes with the business of Gaussian, Inc. or will provide
 assistance to any competitor of Gaussian, Inc.  The licensee
 of this program is prohibited from giving any competitor of
 Gaussian, Inc. access to this program.  By using this program,
 the user acknowledges that Gaussian, Inc. is engaged in the
 business of creating and licensing software in the field of
 computational chemistry and represents and warrants to the
 licensee that it is not a competitor of Gaussian, Inc. and that
 it will not use this program in any manner prohibited above.
 ---------------------------------------------------------------
  

 Cite this work as:
 Gaussian 16, Revision C.01,
 M. J. Frisch, G. W. Trucks, H. B. Schlegel, G. E. Scuseria, 
 M. A. Robb, J. R. Cheeseman, G. Scalmani, V. Barone, 
 G. A. Petersson, H. Nakatsuji, X. Li, M. Caricato, A. V. Marenich, 
 J. Bloino, B. G. Janesko, R. Gomperts, B. Mennucci, H. P. Hratchian, 
 J. V. Ortiz, A. F. Izmaylov, J. L. Sonnenberg, D. Williams-Young, 
 F. Ding, F. Lipparini, F. Egidi, J. Goings, B. Peng, A. Petrone, 
 T. Henderson, D. Ranasinghe, V. G. Zakrzewski, J. Gao, N. Rega, 
 G. Zheng, W. Liang, M. Hada, M. Ehara, K. Toyota, R. Fukuda, 
 J. Hasegawa, M. Ishida, T. Nakajima, Y. Honda, O. Kitao, H. Nakai, 
 T. Vreven, K. Throssell, J. A. Montgomery, Jr., J. E. Peralta, 
 F. Ogliaro, M. J. Bearpark, J. J. Heyd, E. N. Brothers, K. N. Kudin, 
 V. N. Staroverov, T. A. Keith, R. Kobayashi, J. Normand, 
 K. Raghavachari, A. P. Rendell, J. C. Burant, S. S. Iyengar, 
 J. Tomasi, M. Cossi, J. M. Millam, M. Klene, C. Adamo, R. Cammi, 
 J. W. Ochterski, R. L. Martin, K. Morokuma, O. Farkas, 
 J. B. Foresman, and D. J. Fox, Gaussian, Inc., Wallingford CT, 2019.
 
 ******************************************
 Gaussian 16:  ES64L-G16RevC.01  3-Jul-2019
                19-Nov-2025 
 ******************************************
 %nproc=7
 Will use up to    7 processors via shared memory.
 %mem=55GB
 %chk=GauExternal.chk
 --------------------
 #P hf/sto-3g scf=xqc
 --------------------
 1/38=1,172=1/1;
 2/12=2,17=6,18=5,40=1/2;
 3/6=3,11=9,25=1,30=1/1,2,3;
 4//1;
 5/5=2,8=3,13=1,38=5/2,8;
 6/7=2,8=2,9=2,10=2,28=1/1;
 99/5=1,9=1/99;
 Leave Link    1 at Wed Nov 19 18:14:23 2025, MaxMem=  7381975040 cpu:               0.0 elap:               0.2
 (Enter /gaussian/g16.c01/intel64-sandybridge/g16/l101.exe)
 --------------------
 External Calculation
 --------------------
 Symbolic Z-matrix:
 Charge =  0 Multiplicity = 1
 C                     0.        0.        0. 
 C                     0.        0.        1.3552 
 H                     0.        0.92472   1.89284 
 H                     0.       -0.92472   1.89384 
 C                     0.        0.       -1.3552 
 H                    -0.92472   0.       -1.89384 
 H                     0.92472   0.       -1.89384 
 
 ITRead=  0  0  0  0  0  0  0
 MicOpt= -1 -1 -1 -1 -1 -1 -1
 NAtoms=      7 NQM=        7 NQMF=       0 NMMI=      0 NMMIF=      0
                NMic=       0 NMicF=      0.
                    Isotopes and Nuclear Properties:
 (Nuclear quadrupole moments (NQMom) in fm**2, nuclear magnetic moments (NMagM)
  in nuclear magnetons)

  Atom         1           2           3           4           5           6           7
 IAtWgt=          12          12           1           1          12           1           1
 AtmWgt=  12.0000000  12.0000000   1.0078250   1.0078250  12.0000000   1.0078250   1.0078250
 NucSpn=           0           0           1           1           0           1           1
 AtZEff=  -0.0000000  -0.0000000  -0.0000000  -0.0000000  -0.0000000  -0.0000000  -0.0000000
 NQMom=    0.0000000   0.0000000   0.0000000   0.0000000   0.0000000   0.0000000   0.0000000
 NMagM=    0.0000000   0.0000000   2.7928460   2.7928460   0.0000000   2.7928460   2.7928460
 AtZNuc=   6.0000000   6.0000000   1.0000000   1.0000000   6.0000000   1.0000000   1.0000000
 Leave Link  101 at Wed Nov 19 18:14:24 2025, MaxMem=  7381975040 cpu:               0.3 elap:               0.4
 (Enter /gaussian/g16.c01/intel64-sandybridge/g16/l202.exe)
                          Input orientation:                          
 ---------------------------------------------------------------------
 Center     Atomic      Atomic             Coordinates (Angstroms)
 Number     Number       Type             X           Y           Z
 ---------------------------------------------------------------------
      1          6           0        0.000000    0.000000    0.000000
      2          6           0        0.000000    0.000000    1.355200
      3          1           0        0.000000    0.924716    1.892841
      4          1           0        0.000000   -0.924716    1.893841
      5          6           0        0.000000    0.000000   -1.355200
      6          1           0       -0.924716    0.000000   -1.893841
      7          1           0        0.924716    0.000000   -1.893841
 ---------------------------------------------------------------------
                    Distance matrix (angstroms):
                    1          2          3          4          5
     1  C    0.000000
     2  C    1.355200   0.000000
     3  H    2.106644   1.069653   0.000000
     4  H    2.107543   1.070156   1.849433   0.000000
     5  C    1.355200   2.710400   3.377110   3.378072   0.000000
     6  H    2.107543   3.378072   4.006141   4.007087   1.070156
     7  H    2.107543   3.378072   4.006141   4.007087   1.070156
                    6          7
     6  H    0.000000
     7  H    1.849432   0.000000
 This structure is nearly, but not quite of a higher symmetry.
 Consider Symm=Loose if the higher symmetry is desired.
 Stoichiometry    C3H4
 Framework group  CS[SG(C3H2),X(H2)]
 Deg. of freedom    10
 Full point group                 CS      NOp   2
 Largest Abelian subgroup         CS      NOp   2
 Largest concise Abelian subgroup CS      NOp   2
                         Standard orientation:                         
 ---------------------------------------------------------------------
 Center     Atomic      Atomic             Coordinates (Angstroms)
 Number     Number       Type             X           Y           Z
 ---------------------------------------------------------------------
      1          6           0        0.000000    0.000045   -0.000000
      2          6           0        0.000000    1.355245   -0.000000
      3          1           0       -0.924716    1.892887   -0.000000
      4          1           0        0.924716    1.893887   -0.000000
      5          6           0        0.000000   -1.355155    0.000000
      6          1           0       -0.000000   -1.893796    0.924716
      7          1           0       -0.000000   -1.893796   -0.924716
 ---------------------------------------------------------------------
 Rotational constants (GHZ):         146.6071572           8.3871731           8.3871731
 Leave Link  202 at Wed Nov 19 18:14:24 2025, MaxMem=  7381975040 cpu:               0.0 elap:               0.1
 (Enter /gaussian/g16.c01/intel64-sandybridge/g16/l301.exe)
 Standard basis: STO-3G (5D, 7F)
 Ernie: Thresh=  0.10000D-02 Tol=  0.10000D-05 Strict=F.
 There are    15 symmetry adapted cartesian basis functions of A'  symmetry.
 There are     4 symmetry adapted cartesian basis functions of A"  symmetry.
 There are    15 symmetry adapted basis functions of A'  symmetry.
 There are     4 symmetry adapted basis functions of A"  symmetry.
    19 basis functions,    57 primitive gaussians,    19 cartesian basis functions
    11 alpha electrons       11 beta electrons
       nuclear repulsion energy        57.8993554774 Hartrees.
 IExCor=    0 DFT=F Ex=HF Corr=None ExCW=0 ScaHFX=  1.000000
 ScaDFX=  1.000000  1.000000  1.000000  1.000000 ScalE2=  1.000000  1.000000
 IRadAn=      5 IRanWt=     -1 IRanGd=            0 ICorTp=0 IEmpDi=  4
 NAtoms=    7 NActive=    7 NUniq=    6 SFac= 1.36D+00 NAtFMM=   60 NAOKFM=F Big=F
 Integral buffers will be    131072 words long.
 Raffenetti 1 integral format.
 Two-electron integral symmetry is turned on.
 Leave Link  301 at Wed Nov 19 18:14:24 2025, MaxMem=  7381975040 cpu:               0.1 elap:               0.1
 (Enter /gaussian/g16.c01/intel64-sandybridge/g16/l302.exe)
 NPDir=0 NMtPBC=     1 NCelOv=     1 NCel=       1 NClECP=     1 NCelD=      1
         NCelK=      1 NCelE2=     1 NClLst=     1 CellRange=     0.0.
 One-electron integrals computed using PRISM.
 One-electron integral symmetry used in STVInt
 NBasis=    19 RedAO= T EigKep=  1.91D-01  NBF=    15     4
 NBsUse=    19 1.00D-06 EigRej= -1.00D+00 NBFU=    15     4
 Leave Link  302 at Wed Nov 19 18:14:24 2025, MaxMem=  7381975040 cpu:               0.3 elap:               0.1
 (Enter /gaussian/g16.c01/intel64-sandybridge/g16/l303.exe)
 DipDrv:  MaxL=1.
 Leave Link  303 at Wed Nov 19 18:14:24 2025, MaxMem=  7381975040 cpu:               0.1 elap:               0.1
 (Enter /gaussian/g16.c01/intel64-sandybridge/g16/l401.exe)
 ExpMin= 1.69D-01 ExpMax= 7.16D+01 ExpMxC= 7.16D+01 IAcc=3 IRadAn=         5 AccDes= 0.00D+00
 Harris functional with IExCor=  205 and IRadAn=       5 diagonalized for initial guess.
 HarFok:  IExCor=  205 AccDes= 0.00D+00 IRadAn=         5 IDoV= 1 UseB2=F ITyADJ=14
 ICtDFT=  3500011 ScaDFX=  1.000000  1.000000  1.000000  1.000000
 FoFCou: FMM=F IPFlag=           0 FMFlag=      100000 FMFlg1=           0
         NFxFlg=           0 DoJE=T BraDBF=F KetDBF=T FulRan=T
         wScrn=  0.000000 ICntrl=       500 IOpCl=  0 I1Cent=   200000004 NGrid=           0
         NMat0=    1 NMatS0=      1 NMatT0=    0 NMatD0=    1 NMtDS0=    0 NMtDT0=    0
 Petite list used in FoFCou.
 Harris En= -114.604901004636    
 JPrj=0 DoOrth=F DoCkMO=F.
 Initial guess orbital symmetries:
       Occupied  (A') (A') (A') (A') (A') (A') (A') (A') (A") (A")
                 (A')
       Virtual   (A") (A') (A') (A') (A') (A") (A') (A')
 The electronic state of the initial guess is 1-A'.
 Leave Link  401 at Wed Nov 19 18:14:25 2025, MaxMem=  7381975040 cpu:               0.4 elap:               0.1
 (Enter /gaussian/g16.c01/intel64-sandybridge/g16/l502.exe)
 Keep R1 ints in memory in symmetry-blocked form, NReq=827541.
 FoFCou: FMM=F IPFlag=           0 FMFlag=           0 FMFlg1=           0
         NFxFlg=           0 DoJE=F BraDBF=F KetDBF=F FulRan=T
         wScrn=  0.000000 ICntrl=       600 IOpCl=  0 I1Cent=           0 NGrid=           0
         NMat0=    1 NMatS0=    190 NMatT0=    0 NMatD0=    1 NMtDS0=    0 NMtDT0=    0
 Petite list used in FoFCou.
 Closed shell SCF:
 Using DIIS extrapolation, IDIIS=  1040.
 NGot=  7381975040 LenX=  7381962318 LenY=  7381961436
 Requested convergence on RMS density matrix=1.00D-08 within  32 cycles.
 Requested convergence on MAX density matrix=1.00D-06.
 Requested convergence on             energy=1.00D-06.
 No special actions if energy rises.

 Cycle   1  Pass 1  IDiag  1:
 E= -114.350922402525    
 DIIS: error= 4.88D-02 at cycle   1 NSaved=   1.
 NSaved= 1 IEnMin= 1 EnMin= -114.350922402525     IErMin= 1 ErrMin= 4.88D-02
 ErrMax= 4.88D-02  0.00D+00 EMaxC= 1.00D-01 BMatC= 5.74D-02 BMatP= 5.74D-02
 IDIUse=3 WtCom= 5.12D-01 WtEn= 4.88D-01
 Coeff-Com:  0.100D+01
 Coeff-En:   0.100D+01
 Coeff:      0.100D+01
 Gap=     0.599 Goal=   None    Shift=    0.000
 GapD=    0.599 DampG=2.000 DampE=0.500 DampFc=1.0000 IDamp=-1.
 RMSDP=1.60D-02 MaxDP=9.14D-02              OVMax= 0.00D+00

 Cycle   2  Pass 1  IDiag  1:
 E= -114.404166125538     Delta-E=       -0.053243723014 Rises=F Damp=F
 DIIS: error= 1.03D-02 at cycle   2 NSaved=   2.
 NSaved= 2 IEnMin= 2 EnMin= -114.404166125538     IErMin= 2 ErrMin= 1.03D-02
 ErrMax= 1.03D-02  0.00D+00 EMaxC= 1.00D-01 BMatC= 2.93D-03 BMatP= 5.74D-02
 IDIUse=3 WtCom= 8.97D-01 WtEn= 1.03D-01
 Coeff-Com:  0.781D-01 0.922D+00
 Coeff-En:   0.000D+00 0.100D+01
 Coeff:      0.701D-01 0.930D+00
 Gap=     0.608 Goal=   None    Shift=    0.000
 RMSDP=4.44D-03 MaxDP=3.16D-02 DE=-5.32D-02 OVMax= 0.00D+00

 Cycle   3  Pass 1  IDiag  1:
 E= -114.406729277884     Delta-E=       -0.002563152345 Rises=F Damp=F
 DIIS: error= 5.81D-03 at cycle   3 NSaved=   3.
 NSaved= 3 IEnMin= 3 EnMin= -114.406729277884     IErMin= 3 ErrMin= 5.81D-03
 ErrMax= 5.81D-03  0.00D+00 EMaxC= 1.00D-01 BMatC= 7.01D-04 BMatP= 2.93D-03
 IDIUse=3 WtCom= 9.42D-01 WtEn= 5.81D-02
 Coeff-Com: -0.223D-01 0.309D+00 0.713D+00
 Coeff-En:   0.000D+00 0.000D+00 0.100D+01
 Coeff:     -0.210D-01 0.291D+00 0.730D+00
 Gap=     0.608 Goal=   None    Shift=    0.000
 RMSDP=1.64D-03 MaxDP=1.09D-02 DE=-2.56D-03 OVMax= 0.00D+00

 Cycle   4  Pass 1  IDiag  1:
 E= -114.407511622104     Delta-E=       -0.000782344220 Rises=F Damp=F
 DIIS: error= 5.14D-04 at cycle   4 NSaved=   4.
 NSaved= 4 IEnMin= 4 EnMin= -114.407511622104     IErMin= 4 ErrMin= 5.14D-04
 ErrMax= 5.14D-04  0.00D+00 EMaxC= 1.00D-01 BMatC= 3.49D-06 BMatP= 7.01D-04
 IDIUse=3 WtCom= 9.95D-01 WtEn= 5.14D-03
 Coeff-Com:  0.435D-02-0.792D-01-0.119D+00 0.119D+01
 Coeff-En:   0.000D+00 0.000D+00 0.000D+00 0.100D+01
 Coeff:      0.432D-02-0.788D-01-0.118D+00 0.119D+01
 Gap=     0.609 Goal=   None    Shift=    0.000
 RMSDP=1.66D-04 MaxDP=7.85D-04 DE=-7.82D-04 OVMax= 0.00D+00

 Cycle   5  Pass 1  IDiag  1:
 E= -114.407519194522     Delta-E=       -0.000007572418 Rises=F Damp=F
 DIIS: error= 6.40D-05 at cycle   5 NSaved=   5.
 NSaved= 5 IEnMin= 5 EnMin= -114.407519194522     IErMin= 5 ErrMin= 6.40D-05
 ErrMax= 6.40D-05  0.00D+00 EMaxC= 1.00D-01 BMatC= 7.00D-08 BMatP= 3.49D-06
 IDIUse=1 WtCom= 1.00D+00 WtEn= 0.00D+00
 Coeff-Com: -0.157D-03 0.461D-02-0.484D-02-0.162D+00 0.116D+01
 Coeff:     -0.157D-03 0.461D-02-0.484D-02-0.162D+00 0.116D+01
 Gap=     0.609 Goal=   None    Shift=    0.000
 RMSDP=2.67D-05 MaxDP=2.11D-04 DE=-7.57D-06 OVMax= 0.00D+00

 Cycle   6  Pass 1  IDiag  1:
 E= -114.407519326758     Delta-E=       -0.000000132235 Rises=F Damp=F
 DIIS: error= 1.62D-05 at cycle   6 NSaved=   6.
 NSaved= 6 IEnMin= 6 EnMin= -114.407519326758     IErMin= 6 ErrMin= 1.62D-05
 ErrMax= 1.62D-05  0.00D+00 EMaxC= 1.00D-01 BMatC= 3.28D-09 BMatP= 7.00D-08
 IDIUse=1 WtCom= 1.00D+00 WtEn= 0.00D+00
 Coeff-Com:  0.498D-04-0.163D-02 0.237D-02 0.863D-01-0.696D+00 0.161D+01
 Coeff:      0.498D-04-0.163D-02 0.237D-02 0.863D-01-0.696D+00 0.161D+01
 Gap=     0.609 Goal=   None    Shift=    0.000
 RMSDP=7.10D-06 MaxDP=6.19D-05 DE=-1.32D-07 OVMax= 0.00D+00

 Cycle   7  Pass 1  IDiag  1:
 E= -114.407519333474     Delta-E=       -0.000000006716 Rises=F Damp=F
 DIIS: error= 2.38D-06 at cycle   7 NSaved=   7.
 NSaved= 7 IEnMin= 7 EnMin= -114.407519333474     IErMin= 7 ErrMin= 2.38D-06
 ErrMax= 2.38D-06  0.00D+00 EMaxC= 1.00D-01 BMatC= 8.83D-11 BMatP= 3.28D-09
 IDIUse=1 WtCom= 1.00D+00 WtEn= 0.00D+00
 Coeff-Com: -0.208D-04 0.608D-03-0.957D-03-0.302D-01 0.245D+00-0.679D+00
 Coeff-Com:  0.146D+01
 Coeff:     -0.208D-04 0.608D-03-0.957D-03-0.302D-01 0.245D+00-0.679D+00
 Coeff:      0.146D+01
 Gap=     0.609 Goal=   None    Shift=    0.000
 RMSDP=1.33D-06 MaxDP=8.66D-06 DE=-6.72D-09 OVMax= 0.00D+00

 Cycle   8  Pass 1  IDiag  1:
 E= -114.407519333678     Delta-E=       -0.000000000204 Rises=F Damp=F
 DIIS: error= 1.74D-07 at cycle   8 NSaved=   8.
 NSaved= 8 IEnMin= 8 EnMin= -114.407519333678     IErMin= 8 ErrMin= 1.74D-07
 ErrMax= 1.74D-07  0.00D+00 EMaxC= 1.00D-01 BMatC= 6.85D-13 BMatP= 8.83D-11
 IDIUse=1 WtCom= 1.00D+00 WtEn= 0.00D+00
 Coeff-Com: -0.610D-05 0.178D-03-0.275D-03-0.882D-02 0.716D-01-0.194D+00
 Coeff-Com:  0.365D+00 0.766D+00
 Coeff:     -0.610D-05 0.178D-03-0.275D-03-0.882D-02 0.716D-01-0.194D+00
 Coeff:      0.365D+00 0.766D+00
 Gap=     0.609 Goal=   None    Shift=    0.000
 RMSDP=6.79D-08 MaxDP=5.48D-07 DE=-2.04D-10 OVMax= 0.00D+00

 Cycle   9  Pass 1  IDiag  1:
 E= -114.407519333678     Delta-E=       -0.000000000001 Rises=F Damp=F
 DIIS: error= 2.29D-08 at cycle   9 NSaved=   9.
 NSaved= 9 IEnMin= 9 EnMin= -114.407519333678     IErMin= 9 ErrMin= 2.29D-08
 ErrMax= 2.29D-08  0.00D+00 EMaxC= 1.00D-01 BMatC= 9.46D-15 BMatP= 6.85D-13
 IDIUse=1 WtCom= 1.00D+00 WtEn= 0.00D+00
 Coeff-Com:  0.900D-06-0.268D-04 0.428D-04 0.135D-02-0.109D-01 0.304D-01
 Coeff-Com: -0.685D-01-0.768D-02 0.106D+01
 Coeff:      0.900D-06-0.268D-04 0.428D-04 0.135D-02-0.109D-01 0.304D-01
 Coeff:     -0.685D-01-0.768D-02 0.106D+01
 Gap=     0.609 Goal=   None    Shift=    0.000
 RMSDP=9.72D-09 MaxDP=6.53D-08 DE=-9.66D-13 OVMax= 0.00D+00

 SCF Done:  E(RHF) =  -114.407519334     A.U. after    9 cycles
            NFock=  9  Conv=0.97D-08     -V/T= 2.0072
 KE= 1.135934961148D+02 PE=-3.823962425080D+02 EE= 9.649587158207D+01
 Leave Link  502 at Wed Nov 19 18:14:25 2025, MaxMem=  7381975040 cpu:               0.5 elap:               0.3
 (Enter /gaussian/g16.c01/intel64-sandybridge/g16/l508.exe)
 QCSCF skips out because SCF is already converged.
 Leave Link  508 at Wed Nov 19 18:14:25 2025, MaxMem=  7381975040 cpu:               0.0 elap:               0.0
 (Enter /gaussian/g16.c01/intel64-sandybridge/g16/l601.exe)
 Copying SCF densities to generalized density rwf, IOpCl= 0 IROHF=0.

 **********************************************************************

            Population analysis using the SCF Density.

 **********************************************************************

 Orbital symmetries:
       Occupied  (A') (A') (A') (A') (A') (A') (A') (A") (A') (A")
                 (A')
       Virtual   (A") (A') (A') (A') (A') (A") (A') (A')
 The electronic state is 1-A'.
 Alpha  occ. eigenvalues --  -11.03092 -11.02123 -11.02119  -0.99222  -0.88884
 Alpha  occ. eigenvalues --   -0.66076  -0.56517  -0.56501  -0.54636  -0.30690
 Alpha  occ. eigenvalues --   -0.30689
 Alpha virt. eigenvalues --    0.30163   0.30168   0.63321   0.70402   0.75054
 Alpha virt. eigenvalues --    0.83510   0.83550   1.19806
          Condensed to atoms (all electrons):
               1          2          3          4          5          6
     1  C    4.867018   0.601283  -0.026343  -0.026284   0.601314  -0.026288
     2  C    0.601283   4.801012   0.392979   0.392895  -0.014782  -0.000085
     3  H   -0.026343   0.392979   0.577355  -0.021608  -0.000085  -0.000012
     4  H   -0.026284   0.392895  -0.021608   0.577412  -0.000085  -0.000012
     5  C    0.601314  -0.014782  -0.000085  -0.000085   4.800991   0.392874
     6  H   -0.026288  -0.000085  -0.000012  -0.000012   0.392874   0.577496
     7  H   -0.026288  -0.000085  -0.000012  -0.000012   0.392874  -0.021626
               7
     1  C   -0.026288
     2  C   -0.000085
     3  H   -0.000012
     4  H   -0.000012
     5  C    0.392874
     6  H   -0.021626
     7  H    0.577496
 Mulliken charges:
               1
     1  C    0.035590
     2  C   -0.173217
     3  H    0.077726
     4  H    0.077695
     5  C   -0.173101
     6  H    0.077653
     7  H    0.077653
 Sum of Mulliken charges =   0.00000
 Mulliken charges with hydrogens summed into heavy atoms:
               1
     1  C    0.035590
     2  C   -0.017795
     5  C   -0.017795
 Electronic spatial extent (au):  <R**2>=            180.1746
 Charge=              0.0000 electrons
 Dipole moment (field-independent basis, Debye):
    X=              0.0001    Y=             -0.0003    Z=             -0.0000  Tot=              0.0003
 Quadrupole moment (field-independent basis, Debye-Ang):
   XX=            -17.5457   YY=            -16.0722   ZZ=            -17.5461
   XY=              0.0010   XZ=              0.0000   YZ=              0.0000
 Traceless Quadrupole moment (field-independent basis, Debye-Ang):
   XX=             -0.4910   YY=              0.9825   ZZ=             -0.4915
   XY=              0.0010   XZ=              0.0000   YZ=              0.0000
 Octapole moment (field-independent basis, Debye-Ang**2):
  XXX=              0.0001  YYY=             -0.0051  ZZZ=             -0.0000  XYY=              0.0034
  XXY=              2.1363  XXZ=             -0.0000  XZZ=             -0.0001  YZZ=             -2.1360
  YYZ=             -0.0000  XYZ=             -0.0000
 Hexadecapole moment (field-independent basis, Debye-Ang**3):
 XXXX=            -21.3365 YYYY=           -180.1620 ZZZZ=            -21.3378 XXXY=             -0.0008
 XXXZ=              0.0000 YYYX=              0.0073 YYYZ=              0.0000 ZZZX=              0.0000
 ZZZY=              0.0000 XXYY=            -32.8115 XXZZ=             -7.6642 YYZZ=            -32.8102
 XXYZ=             -0.0000 YYXZ=              0.0000 ZZXY=             -0.0008
 N-N= 5.789935547739D+01 E-N=-3.823962423923D+02  KE= 1.135934961148D+02
 Symmetry A'   KE= 1.091215090533D+02
 Symmetry A"   KE= 4.471987061551D+00
 No NMR shielding tensors so no spin-rotation constants.
 Leave Link  601 at Wed Nov 19 18:14:25 2025, MaxMem=  7381975040 cpu:               0.3 elap:               0.1
 (Enter /gaussian/g16.c01/intel64-sandybridge/g16/l9999.exe)
 Unable to Open any file for archive entry.
 1\1\GINC-THIOTIMOLINE-LARGE01\SP\RHF\STO-3G\C3H4\LCRISCI_VB\19-Nov-202
 5\0\\#P hf/sto-3g scf=xqc\\External Calculation\\0,1\C,0,0.,0.,0.\C,0,
 0.,0.,1.3551999999\H,0,0.,0.9247161599,1.8928414899\H,0,0.,-0.92471615
 99,1.8938414899\C,0,0.,0.,-1.3551999999\H,0,-0.9247161599,0.,-1.893841
 4899\H,0,0.9247161599,0.,-1.8938414899\\Version=ES64L-G16RevC.01\State
 =1-A'\HF=-114.4075193\RMSD=9.722e-09\Dipole=0.,-0.0000295,-0.0001185\Q
 uadrupole=-0.3653895,-0.3650696,0.7304591,0.,0.,-0.0007426\PG=CS [SG(C
 3H2),X(H2)]\\@
 The archive entry for this job was punched.


 ... IT CAN BE VERY DIFFICULT, IN THESE COMPLEX TIMES,
 TO UNDERSTAND JUST HOW SCIENTISTS DO WHAT THEY DO.

                     DON MOSER IN THE FEBRUARY 1979 SMITHSONIAN
 Job cpu time:       0 days  0 hours  0 minutes  2.4 seconds.
 Elapsed time:       0 days  0 hours  0 minutes  1.9 seconds.
 File lengths (MBytes):  RWF=      5 Int=      0 D2E=      0 Chk=      1 Scr=      1
 Normal termination of Gaussian 16 at Wed Nov 19 18:14:25 2025.
