%chk=test_parall.chk
%nprocs=1
#p force output=pickett External="CentralExt gau $PGAU/test_pr.dat $EGAU/test_en.dat 7 55 read parall 2" 

title

0 1
C                 -0.00000000   -0.00000000    0.00000000
C                  0.00000000   -0.00000000    1.35520000
H                  0.00000000    0.92471616    1.89384149
H                  0.00000000   -0.92471616    1.89384149
C                 -0.00000000   -0.00000000   -1.35520000
H                 -0.92471616    0.00000000   -1.89384149
H                  0.92471616   -0.00000000   -1.89384149



--link1--
%chk=test_parall.chk
%nprocs=1
#p force hf/sto-3g

title

0 1
C                 -0.00000000   -0.00000000    0.00000000
C                  0.00000000   -0.00000000    1.35520000
H                  0.00000000    0.92471616    1.89384149
H                  0.00000000   -0.92471616    1.89384149
C                 -0.00000000   -0.00000000   -1.35520000
H                 -0.92471616    0.00000000   -1.89384149
H                  0.92471616   -0.00000000   -1.89384149

