 Entering Gaussian System, Link 0=/gaussian/g16.c01/intel64-sandybridge/g16/g16
 Input=C3H4_D2d.gjf
 Output=C3H4_D2d.log
 Initial command:
 /gaussian/g16.c01/intel64-sandybridge/g16/l1.exe "/home/barone/lcrisci_vb/ACTUAL_PROJECTS/MRCC_new_Interface_project/TestingOldVersion/Symmetry/C3H4_D2d/Gau-4153750.inp" -scrdir="/home/barone/lcrisci_vb/ACTUAL_PROJECTS/MRCC_new_Interface_project/TestingOldVersion/Symmetry/C3H4_D2d/"
 Entering Link 1 = /gaussian/g16.c01/intel64-sandybridge/g16/l1.exe PID=   4153751.
  
 Copyright (c) 1988-2019, Gaussian, Inc.  All Rights Reserved.
  
 This is part of the Gaussian(R) 16 program.  It is based on
 the Gaussian(R) 09 system (copyright 2009, Gaussian, Inc.),
 the Gaussian(R) 03 system (copyright 2003, Gaussian, Inc.),
 the Gaussian(R) 98 system (copyright 1998, Gaussian, Inc.),
 the Gaussian(R) 94 system (copyright 1995, Gaussian, Inc.),
 the Gaussian 92(TM) system (copyright 1992, Gaussian, Inc.),
 the Gaussian 90(TM) system (copyright 1990, Gaussian, Inc.),
 the Gaussian 88(TM) system (copyright 1988, Gaussian, Inc.),
 the Gaussian 86(TM) system (copyright 1986, Carnegie Mellon
 University), and the Gaussian 82(TM) system (copyright 1983,
 Carnegie Mellon University). Gaussian is a federally registered
 trademark of Gaussian, Inc.
  
 This software contains proprietary and confidential information,
 including trade secrets, belonging to Gaussian, Inc.
  
 This software is provided under written license and may be
 used, copied, transmitted, or stored only in accord with that
 written license.
  
 The following legend is applicable only to US Government
 contracts under FAR:
  
                    RESTRICTED RIGHTS LEGEND
  
 Use, reproduction and disclosure by the US Government is
 subject to restrictions as set forth in subparagraphs (a)
 and (c) of the Commercial Computer Software - Restricted
 Rights clause in FAR 52.227-19.
  
 Gaussian, Inc.
 340 Quinnipiac St., Bldg. 40, Wallingford CT 06492
  
  
 ---------------------------------------------------------------
 Warning -- This program may not be used in any manner that
 competes with the business of Gaussian, Inc. or will provide
 assistance to any competitor of Gaussian, Inc.  The licensee
 of this program is prohibited from giving any competitor of
 Gaussian, Inc. access to this program.  By using this program,
 the user acknowledges that Gaussian, Inc. is engaged in the
 business of creating and licensing software in the field of
 computational chemistry and represents and warrants to the
 licensee that it is not a competitor of Gaussian, Inc. and that
 it will not use this program in any manner prohibited above.
 ---------------------------------------------------------------
  

 Cite this work as:
 Gaussian 16, Revision C.01,
 M. J. Frisch, G. W. Trucks, H. B. Schlegel, G. E. Scuseria, 
 M. A. Robb, J. R. Cheeseman, G. Scalmani, V. Barone, 
 G. A. Petersson, H. Nakatsuji, X. Li, M. Caricato, A. V. Marenich, 
 J. Bloino, B. G. Janesko, R. Gomperts, B. Mennucci, H. P. Hratchian, 
 J. V. Ortiz, A. F. Izmaylov, J. L. Sonnenberg, D. Williams-Young, 
 F. Ding, F. Lipparini, F. Egidi, J. Goings, B. Peng, A. Petrone, 
 T. Henderson, D. Ranasinghe, V. G. Zakrzewski, J. Gao, N. Rega, 
 G. Zheng, W. Liang, M. Hada, M. Ehara, K. Toyota, R. Fukuda, 
 J. Hasegawa, M. Ishida, T. Nakajima, Y. Honda, O. Kitao, H. Nakai, 
 T. Vreven, K. Throssell, J. A. Montgomery, Jr., J. E. Peralta, 
 F. Ogliaro, M. J. Bearpark, J. J. Heyd, E. N. Brothers, K. N. Kudin, 
 V. N. Staroverov, T. A. Keith, R. Kobayashi, J. Normand, 
 K. Raghavachari, A. P. Rendell, J. C. Burant, S. S. Iyengar, 
 J. Tomasi, M. Cossi, J. M. Millam, M. Klene, C. Adamo, R. Cammi, 
 J. W. Ochterski, R. L. Martin, K. Morokuma, O. Farkas, 
 J. B. Foresman, and D. J. Fox, Gaussian, Inc., Wallingford CT, 2019.
 
 ******************************************
 Gaussian 16:  ES64L-G16RevC.01  3-Jul-2019
                19-Nov-2025 
 ******************************************
 %chk=test_parall.chk
 %nprocs=1
 Will use up to    1 processors via shared memory.
 ----------------------------------------------------------------------
 #p force output=pickett External="CentralExt gau $PGAU/test_pr.dat $EG
 AU/test_en.dat 7 55 read parall 2"
 ----------------------------------------------------------------------
 1/10=10,18=10,30=1,38=1,172=1/1;
 2/12=2,17=6,18=5,29=2,40=1/2;
 3/11=9,25=1,30=1,41=9900000,43=2,71=1/1;
 4/20=17,22=1,24=3,113=1,114=1/2;
 6/7=2,8=2,9=2,10=2/1;
 7/7=1,44=-1/16;
 99/10=1024,12=1/99;
 Leave Link    1 at Wed Nov 19 18:13:37 2025, MaxMem=           0 cpu:               0.0 elap:               0.1
 (Enter /gaussian/g16.c01/intel64-sandybridge/g16/l101.exe)
 -----
 title
 -----
 Symbolic Z-matrix:
 Charge =  0 Multiplicity = 1
 C                     0.        0.        0. 
 C                     0.        0.        1.3552 
 H                     0.        0.92472   1.89384 
 H                     0.       -0.92472   1.89384 
 C                     0.        0.       -1.3552 
 H                    -0.92472   0.       -1.89384 
 H                     0.92472   0.       -1.89384 
 
 ITRead=  0  0  0  0  0  0  0
 MicOpt= -1 -1 -1 -1 -1 -1 -1
 NAtoms=      7 NQM=        7 NQMF=       0 NMMI=      0 NMMIF=      0
                NMic=       0 NMicF=      0.
                    Isotopes and Nuclear Properties:
 (Nuclear quadrupole moments (NQMom) in fm**2, nuclear magnetic moments (NMagM)
  in nuclear magnetons)

  Atom         1           2           3           4           5           6           7
 IAtWgt=          12          12           1           1          12           1           1
 AtmWgt=  12.0000000  12.0000000   1.0078250   1.0078250  12.0000000   1.0078250   1.0078250
 NucSpn=           0           0           1           1           0           1           1
 AtZEff=  -0.0000000  -0.0000000  -0.0000000  -0.0000000  -0.0000000  -0.0000000  -0.0000000
 NQMom=    0.0000000   0.0000000   0.0000000   0.0000000   0.0000000   0.0000000   0.0000000
 NMagM=    0.0000000   0.0000000   2.7928460   2.7928460   0.0000000   2.7928460   2.7928460
 AtZNuc=   6.0000000   6.0000000   1.0000000   1.0000000   6.0000000   1.0000000   1.0000000
 Leave Link  101 at Wed Nov 19 18:13:38 2025, MaxMem=   104857600 cpu:               0.1 elap:               0.2
 (Enter /gaussian/g16.c01/intel64-sandybridge/g16/l202.exe)
 ---------------------------------------------------------------------------------------------------
                            Z-MATRIX (ANGSTROMS AND DEGREES)
   CD    Cent   Atom    N1       Length/X        N2       Alpha/Y        N3        Beta/Z          J
 ---------------------------------------------------------------------------------------------------
      1      1  C        0  -0.000000         -0.000000          0.000000
      2      2  C        0   0.000000         -0.000000          1.355200
      3      3  H        0   0.000000          0.924716          1.893841
      4      4  H        0   0.000000         -0.924716          1.893841
      5      5  C        0  -0.000000         -0.000000         -1.355200
      6      6  H        0  -0.924716          0.000000         -1.893841
      7      7  H        0   0.924716         -0.000000         -1.893841
 ---------------------------------------------------------------------------------------------------
                         Z-Matrix orientation:                         
 ---------------------------------------------------------------------
 Center     Atomic      Atomic             Coordinates (Angstroms)
 Number     Number       Type             X           Y           Z
 ---------------------------------------------------------------------
      1          6           0       -0.000000   -0.000000    0.000000
      2          6           0        0.000000   -0.000000    1.355200
      3          1           0        0.000000    0.924716    1.893841
      4          1           0        0.000000   -0.924716    1.893841
      5          6           0       -0.000000   -0.000000   -1.355200
      6          1           0       -0.924716    0.000000   -1.893841
      7          1           0        0.924716   -0.000000   -1.893841
 ---------------------------------------------------------------------
                    Distance matrix (angstroms):
                    1          2          3          4          5
     1  C    0.000000
     2  C    1.355200   0.000000
     3  H    2.107543   1.070156   0.000000
     4  H    2.107543   1.070156   1.849432   0.000000
     5  C    1.355200   2.710400   3.378072   3.378072   0.000000
     6  H    2.107543   3.378072   4.007087   4.007087   1.070156
     7  H    2.107543   3.378072   4.007087   4.007087   1.070156
                    6          7
     6  H    0.000000
     7  H    1.849432   0.000000
 Stoichiometry    C3H4
 Framework group  D2D[O(C),C2(C.C),2SGD(H2)]
 Deg. of freedom     3
 Full point group                 D2D     NOp   8
 Largest Abelian subgroup         C2V     NOp   4
 Largest concise Abelian subgroup C2V     NOp   4
                         Standard orientation:                         
 ---------------------------------------------------------------------
 Center     Atomic      Atomic             Coordinates (Angstroms)
 Number     Number       Type             X           Y           Z
 ---------------------------------------------------------------------
      1          6           0        0.000000    0.000000    0.000000
      2          6           0        0.000000    0.000000    1.355200
      3          1           0        0.000000    0.924716    1.893841
      4          1           0       -0.000000   -0.924716    1.893841
      5          6           0        0.000000    0.000000   -1.355200
      6          1           0       -0.924716    0.000000   -1.893841
      7          1           0        0.924716   -0.000000   -1.893841
 ---------------------------------------------------------------------
 Rotational constants (GHZ):         146.6071565           8.3866419           8.3866419
 Leave Link  202 at Wed Nov 19 18:13:38 2025, MaxMem=   104857600 cpu:               0.0 elap:               0.0
 (Enter /gaussian/g16.c01/intel64-sandybridge/g16/l301.exe)
 Standard basis: STO-3G (5D, 7F)
 Ernie: Thresh=  0.10000D-02 Tol=  0.10000D-05 Strict=F.
 There are    11 symmetry adapted cartesian basis functions of A1  symmetry.
 There are     0 symmetry adapted cartesian basis functions of A2  symmetry.
 There are     4 symmetry adapted cartesian basis functions of B1  symmetry.
 There are     4 symmetry adapted cartesian basis functions of B2  symmetry.
 There are    11 symmetry adapted basis functions of A1  symmetry.
 There are     0 symmetry adapted basis functions of A2  symmetry.
 There are     4 symmetry adapted basis functions of B1  symmetry.
 There are     4 symmetry adapted basis functions of B2  symmetry.
    19 basis functions,    57 primitive gaussians,    19 cartesian basis functions
    11 alpha electrons       11 beta electrons
       nuclear repulsion energy        57.8969878049 Hartrees.
 IExCor=    0 DFT=F Ex=HF Corr=None ExCW=0 ScaHFX=  1.000000
 ScaDFX=  1.000000  1.000000  1.000000  1.000000 ScalE2=  1.000000  1.000000
 IRadAn=      5 IRanWt=     -1 IRanGd=            0 ICorTp=0 IEmpDi=  4
 NAtoms=    7 NActive=    7 NUniq=    3 SFac= 4.00D+00 NAtFMM=   60 NAOKFM=F Big=F
 Integral buffers will be    131072 words long.
 Raffenetti 1 integral format.
 Two-electron integral symmetry is turned on.
 Leave Link  301 at Wed Nov 19 18:13:38 2025, MaxMem=   104857600 cpu:               0.0 elap:               0.1
 (Enter /gaussian/g16.c01/intel64-sandybridge/g16/l402.exe)
 External calculation of energy and first derivatives.
 Running external command "CentralExt gau $PGAU/test_pr.dat $EGAU/test_en.dat 7 55 read parall 2 R"
         input file       "/home/barone/lcrisci_vb/ACTUAL_PROJECTS/MRCC_new_Interface_project/TestingOldVersion/Symmetry/C3H4_D2d/Gau-4153751.EIn"
         output file      "/home/barone/lcrisci_vb/ACTUAL_PROJECTS/MRCC_new_Interface_project/TestingOldVersion/Symmetry/C3H4_D2d/Gau-4153751.EOu"
         message file     "/home/barone/lcrisci_vb/ACTUAL_PROJECTS/MRCC_new_Interface_project/TestingOldVersion/Symmetry/C3H4_D2d/Gau-4153751.EMs"
         fchk file        "/home/barone/lcrisci_vb/ACTUAL_PROJECTS/MRCC_new_Interface_project/TestingOldVersion/Symmetry/C3H4_D2d/Gau-4153751.EFC"
         mat. el file     "/home/barone/lcrisci_vb/ACTUAL_PROJECTS/MRCC_new_Interface_project/TestingOldVersion/Symmetry/C3H4_D2d/Gau-4153751.EUF"

================================================================================
CHECKING FOR MIXED ANALYTICAL/NUMERICAL GRADIENT MODE
================================================================================
Analyzing sections in /home/barone/lcrisci_vb/MyScript/PreambleGau/test_pr.dat for gradient mode (comment='#')

--- Section Analysis Summary ---
  default: NUMERICAL (dens=0, lines=0)

Total sections: 1
Analytical sections (0): []
Numerical sections (1): ['default']
--------------------------------

Mode Detection Results:
  OptFlag (gradient requested): 1
  Has analytical sections: False
  Has numerical sections: True
  Mixed mode activated: False
  All analytical mode: False
  All numerical mode: True
================================================================================

FAKE_FREQ CONVERSION: C Bohr=['0.0', '0.0', '0.0'] -> Angstrom=[0.0, 0.0, 0.0]
FAKE_FREQ CONVERSION: C Bohr=['0.0', '0.0', '2.560956844011'] -> Angstrom=[0.0, 0.0, 1.3551999999566902]
FAKE_FREQ CONVERSION: H Bohr=['0.0', '1.747460285359', '3.578841739438'] -> Angstrom=[0.0, 0.9247161599700361, 1.8938414899390417]
FAKE_FREQ CONVERSION: H Bohr=['-0.0', '-1.747460285359', '3.578841739438'] -> Angstrom=[-0.0, -0.9247161599700361, 1.8938414899390417]
FAKE_FREQ CONVERSION: C Bohr=['0.0', '0.0', '-2.560956844011'] -> Angstrom=[0.0, 0.0, -1.3551999999566902]
FAKE_FREQ CONVERSION: H Bohr=['-1.747460285359', '0.0', '-3.578841739438'] -> Angstrom=[-0.9247161599700361, 0.0, -1.8938414899390417]
FAKE_FREQ CONVERSION: H Bohr=['1.747460285359', '-0.0', '-3.578841739438'] -> Angstrom=[0.9247161599700361, -0.0, -1.8938414899390417]
Checking original directory for Gaussian input: /home/barone/lcrisci_vb/ACTUAL_PROJECTS/MRCC_new_Interface_project/TestingOldVersion/Symmetry/C3H4_D2d
Found Gaussian input file with External keyword: /home/barone/lcrisci_vb/ACTUAL_PROJECTS/MRCC_new_Interface_project/TestingOldVersion/Symmetry/C3H4_D2d/C3H4_D2d.gjf
GEOMETRY CONVERSION: Task 'central' - Converted from Bohr to Angstrom
  First atom coordinates: Bohr = [0. 0. 0.], Angstrom = [0. 0. 0.]
GEOMETRY CONVERSION: Task 'atom_1_ixyz_1_up' - Converted from Bohr to Angstrom
  First atom coordinates: Bohr = [0.00188973 0.         0.        ], Angstrom = [0.001 0.    0.   ]
GEOMETRY CONVERSION: Task 'atom_1_ixyz_2_up' - Converted from Bohr to Angstrom
  First atom coordinates: Bohr = [0.         0.00188973 0.        ], Angstrom = [0.    0.001 0.   ]
GEOMETRY CONVERSION: Task 'atom_1_ixyz_3_up' - Converted from Bohr to Angstrom
  First atom coordinates: Bohr = [0.         0.         0.00188973], Angstrom = [0.    0.    0.001]
GEOMETRY CONVERSION: Task 'atom_1_ixyz_3_down' - Converted from Bohr to Angstrom
  First atom coordinates: Bohr = [ 0.          0.         -0.00188973], Angstrom = [ 0.     0.    -0.001]
GEOMETRY CONVERSION: Task 'atom_2_ixyz_1_up' - Converted from Bohr to Angstrom
  First atom coordinates: Bohr = [0. 0. 0.], Angstrom = [0. 0. 0.]
GEOMETRY CONVERSION: Task 'atom_2_ixyz_2_up' - Converted from Bohr to Angstrom
  First atom coordinates: Bohr = [0. 0. 0.], Angstrom = [0. 0. 0.]
GEOMETRY CONVERSION: Task 'atom_2_ixyz_3_up' - Converted from Bohr to Angstrom
  First atom coordinates: Bohr = [0. 0. 0.], Angstrom = [0. 0. 0.]
GEOMETRY CONVERSION: Task 'atom_2_ixyz_3_down' - Converted from Bohr to Angstrom
  First atom coordinates: Bohr = [0. 0. 0.], Angstrom = [0. 0. 0.]
GEOMETRY CONVERSION: Task 'atom_3_ixyz_1_up' - Converted from Bohr to Angstrom
  First atom coordinates: Bohr = [0. 0. 0.], Angstrom = [0. 0. 0.]
GEOMETRY CONVERSION: Task 'atom_3_ixyz_2_up' - Converted from Bohr to Angstrom
  First atom coordinates: Bohr = [0. 0. 0.], Angstrom = [0. 0. 0.]
GEOMETRY CONVERSION: Task 'atom_3_ixyz_2_down' - Converted from Bohr to Angstrom
  First atom coordinates: Bohr = [0. 0. 0.], Angstrom = [0. 0. 0.]
GEOMETRY CONVERSION: Task 'atom_3_ixyz_3_up' - Converted from Bohr to Angstrom
  First atom coordinates: Bohr = [0. 0. 0.], Angstrom = [0. 0. 0.]
GEOMETRY CONVERSION: Task 'atom_3_ixyz_3_down' - Converted from Bohr to Angstrom
  First atom coordinates: Bohr = [0. 0. 0.], Angstrom = [0. 0. 0.]
✓ Extracted Input orientation (7 atoms)
✓ Extracted Original coordinates (7 atoms)
DEBUG: Preserved fake frequency log as FAKE_FREQ/fake_freq_1.log
DEBUG: Expected atoms: 7
DEBUG: Task central: 7 atoms
DEBUG: Task atom_1_ixyz_3_up: 7 atoms
DEBUG: Task atom_1_ixyz_3_down: 7 atoms
DEBUG: Task atom_2_ixyz_3_up: 7 atoms
DEBUG: Task atom_2_ixyz_3_down: 7 atoms
DEBUG: Task atom_3_ixyz_2_up: 7 atoms
DEBUG: Task atom_3_ixyz_2_down: 7 atoms
DEBUG: Task atom_3_ixyz_3_up: 7 atoms
DEBUG: Task atom_3_ixyz_3_down: 7 atoms
DEBUG: All geometries have correct atom count (7)

================================================================================
STANDARD NUMERICAL GRADIENT MODE (no dens=2 detected)
================================================================================
Created iteration directory: /home/barone/lcrisci_vb/ACTUAL_PROJECTS/MRCC_new_Interface_project/TestingOldVersion/Symmetry/C3H4_D2d/Iterations/Iteration_1
INFO: This is iteration number 1
INFO: Running numerical gradient calculation in iteration 1
Running parallel energy calculations with 2 threads
TASK SUBMISSION: Submitting 9 tasks
  - Task: central
  - Task: atom_1_ixyz_3_up
  - Task: atom_1_ixyz_3_down
  - Task: atom_2_ixyz_3_up
  - Task: atom_2_ixyz_3_down
  - Task: atom_3_ixyz_2_up
  - Task: atom_3_ixyz_2_down
  - Task: atom_3_ixyz_3_up
  - Task: atom_3_ixyz_3_down
PARALLEL EXECUTION: Starting with 2 workers
PARALLEL EXECUTION: Total tasks to execute: 9
PARALLEL EXECUTION: Submitted tasks: ['atom_1_ixyz_3_down', 'atom_1_ixyz_3_up', 'atom_2_ixyz_3_down', 'atom_2_ixyz_3_up', 'atom_3_ixyz_2_down', 'atom_3_ixyz_2_up', 'atom_3_ixyz_3_down', 'atom_3_ixyz_3_up', 'central']
PARALLEL EXECUTION: Submitted 9 futures to executor
UNIT CONVERSION: Task 'central' - Wrote .EIn file in BohrUNIT CONVERSION: Task 'atom_1_ixyz_3_up' - Wrote .EIn file in Bohr

  First atom: Angstrom = [0. 0. 0.], Bohr = [0. 0. 0.]
  First atom: Angstrom = [0.    0.    0.001], Bohr = [0.         0.         0.00188973]
THREAD-22747871246080: Starting execution for task 'central'
THREAD-22747869144832: Starting execution for task 'atom_1_ixyz_3_up'
THREAD-22747871246080: Task directory: /home/barone/lcrisci_vb/ACTUAL_PROJECTS/MRCC_new_Interface_project/TestingOldVersion/Symmetry/C3H4_D2d/Iterations/Iteration_1/task_central
THREAD-22747869144832: Task directory: /home/barone/lcrisci_vb/ACTUAL_PROJECTS/MRCC_new_Interface_project/TestingOldVersion/Symmetry/C3H4_D2d/Iterations/Iteration_1/task_atom_1_ixyz_3_up
THREAD-22747871246080: Input file: /home/barone/lcrisci_vb/ACTUAL_PROJECTS/MRCC_new_Interface_project/TestingOldVersion/Symmetry/C3H4_D2d/Iterations/Iteration_1/task_central/Gau-central.EIn
THREAD-22747869144832: Input file: /home/barone/lcrisci_vb/ACTUAL_PROJECTS/MRCC_new_Interface_project/TestingOldVersion/Symmetry/C3H4_D2d/Iterations/Iteration_1/task_atom_1_ixyz_3_up/Gau-atom_1_ixyz_3_up.EIn
THREAD-22747871246080: Original working directory: /home/barone/lcrisci_vb/ACTUAL_PROJECTS/MRCC_new_Interface_project/TestingOldVersion/Symmetry/C3H4_D2d
THREAD-22747871246080: Test mode: FalseTHREAD-22747869144832: Original working directory: /home/barone/lcrisci_vb/ACTUAL_PROJECTS/MRCC_new_Interface_project/TestingOldVersion/Symmetry/C3H4_D2d

THREAD-22747869144832: Test mode: False
THREAD-22747871246080: Executing command: /home/barone/lcrisci_vb/python3.9/bin/python3.9 /home/barone/lcrisci_vb/ACTUAL_PROJECTS/MRCC_new_Interface_project/TestingOldVersion/OldVersion/Executables/GauExt test_pr.dat test_en.dat 7 55 READ R Gau-central.EIn energy_output.dat
THREAD-22747869144832: Executing command: /home/barone/lcrisci_vb/python3.9/bin/python3.9 /home/barone/lcrisci_vb/ACTUAL_PROJECTS/MRCC_new_Interface_project/TestingOldVersion/OldVersion/Executables/GauExt test_pr.dat test_en.dat 7 55 READ R Gau-atom_1_ixyz_3_up.EIn energy_output.datTHREAD-22747871246080: Working directory for subprocess: /home/barone/lcrisci_vb/ACTUAL_PROJECTS/MRCC_new_Interface_project/TestingOldVersion/Symmetry/C3H4_D2d/Iterations/Iteration_1/task_central

THREAD-22747869144832: Working directory for subprocess: /home/barone/lcrisci_vb/ACTUAL_PROJECTS/MRCC_new_Interface_project/TestingOldVersion/Symmetry/C3H4_D2d/Iterations/Iteration_1/task_atom_1_ixyz_3_up
THREAD-22747869144832: Subprocess completed successfully
THREAD-22747869144832: Subprocess stdout (last 200 chars): d !scheme section at line 1.
    Line 2: Found coefficient: 1.0
  Found !formula marker at line 3
    Found formula at line 4: e=c1*e1
Finished parsing scheme: [('coeff', 1.0)]
Found formula: e=c1*e1

THREAD-22747869144832: Output file path: /home/barone/lcrisci_vb/ACTUAL_PROJECTS/MRCC_new_Interface_project/TestingOldVersion/Symmetry/C3H4_D2d/Iterations/Iteration_1/task_atom_1_ixyz_3_up/energy_output.dat
THREAD-22747869144832: Already in original directory /home/barone/lcrisci_vb/ACTUAL_PROJECTS/MRCC_new_Interface_project/TestingOldVersion/Symmetry/C3H4_D2d
PARALLEL EXECUTION: Task 'atom_1_ixyz_3_up' completed successfully with energy -114.407532611705
THREAD-22747871246080: Subprocess completed successfully
THREAD-22747871246080: Subprocess stdout (last 200 chars): d !scheme section at line 1.
    Line 2: Found coefficient: 1.0
  Found !formula marker at line 3
    Found formula at line 4: e=c1*e1
Finished parsing scheme: [('coeff', 1.0)]
Found formula: e=c1*e1

THREAD-22747871246080: Output file path: /home/barone/lcrisci_vb/ACTUAL_PROJECTS/MRCC_new_Interface_project/TestingOldVersion/Symmetry/C3H4_D2d/Iterations/Iteration_1/task_central/energy_output.dat
THREAD-22747871246080: Already in original directory /home/barone/lcrisci_vb/ACTUAL_PROJECTS/MRCC_new_Interface_project/TestingOldVersion/Symmetry/C3H4_D2d
UNIT CONVERSION: Task 'atom_1_ixyz_3_down' - Wrote .EIn file in Bohr
  First atom: Angstrom = [ 0.     0.    -0.001], Bohr = [ 0.          0.         -0.00188973]
THREAD-22747869144832: Starting execution for task 'atom_1_ixyz_3_down'
THREAD-22747869144832: Task directory: /home/barone/lcrisci_vb/ACTUAL_PROJECTS/MRCC_new_Interface_project/TestingOldVersion/Symmetry/C3H4_D2d/Iterations/Iteration_1/task_atom_1_ixyz_3_down
THREAD-22747869144832: Input file: /home/barone/lcrisci_vb/ACTUAL_PROJECTS/MRCC_new_Interface_project/TestingOldVersion/Symmetry/C3H4_D2d/Iterations/Iteration_1/task_atom_1_ixyz_3_down/Gau-atom_1_ixyz_3_down.EIn
THREAD-22747869144832: Original working directory: /home/barone/lcrisci_vb/ACTUAL_PROJECTS/MRCC_new_Interface_project/TestingOldVersion/Symmetry/C3H4_D2d
PARALLEL EXECUTION: Task 'central' completed successfully with energy -114.407534963541THREAD-22747869144832: Test mode: False

THREAD-22747869144832: Executing command: /home/barone/lcrisci_vb/python3.9/bin/python3.9 /home/barone/lcrisci_vb/ACTUAL_PROJECTS/MRCC_new_Interface_project/TestingOldVersion/OldVersion/Executables/GauExt test_pr.dat test_en.dat 7 55 READ R Gau-atom_1_ixyz_3_down.EIn energy_output.dat
THREAD-22747869144832: Working directory for subprocess: /home/barone/lcrisci_vb/ACTUAL_PROJECTS/MRCC_new_Interface_project/TestingOldVersion/Symmetry/C3H4_D2d/Iterations/Iteration_1/task_atom_1_ixyz_3_down
UNIT CONVERSION: Task 'atom_2_ixyz_3_up' - Wrote .EIn file in Bohr
  First atom: Angstrom = [0. 0. 0.], Bohr = [0. 0. 0.]
THREAD-22747871246080: Starting execution for task 'atom_2_ixyz_3_up'
THREAD-22747871246080: Task directory: /home/barone/lcrisci_vb/ACTUAL_PROJECTS/MRCC_new_Interface_project/TestingOldVersion/Symmetry/C3H4_D2d/Iterations/Iteration_1/task_atom_2_ixyz_3_up
THREAD-22747871246080: Input file: /home/barone/lcrisci_vb/ACTUAL_PROJECTS/MRCC_new_Interface_project/TestingOldVersion/Symmetry/C3H4_D2d/Iterations/Iteration_1/task_atom_2_ixyz_3_up/Gau-atom_2_ixyz_3_up.EIn
THREAD-22747871246080: Original working directory: /home/barone/lcrisci_vb/ACTUAL_PROJECTS/MRCC_new_Interface_project/TestingOldVersion/Symmetry/C3H4_D2d
THREAD-22747871246080: Test mode: False
THREAD-22747871246080: Executing command: /home/barone/lcrisci_vb/python3.9/bin/python3.9 /home/barone/lcrisci_vb/ACTUAL_PROJECTS/MRCC_new_Interface_project/TestingOldVersion/OldVersion/Executables/GauExt test_pr.dat test_en.dat 7 55 READ R Gau-atom_2_ixyz_3_up.EIn energy_output.dat
THREAD-22747871246080: Working directory for subprocess: /home/barone/lcrisci_vb/ACTUAL_PROJECTS/MRCC_new_Interface_project/TestingOldVersion/Symmetry/C3H4_D2d/Iterations/Iteration_1/task_atom_2_ixyz_3_up
THREAD-22747871246080: Subprocess completed successfully
THREAD-22747871246080: Subprocess stdout (last 200 chars): d !scheme section at line 1.
    Line 2: Found coefficient: 1.0
  Found !formula marker at line 3
    Found formula at line 4: e=c1*e1
Finished parsing scheme: [('coeff', 1.0)]
Found formula: e=c1*e1

THREAD-22747871246080: Output file path: /home/barone/lcrisci_vb/ACTUAL_PROJECTS/MRCC_new_Interface_project/TestingOldVersion/Symmetry/C3H4_D2d/Iterations/Iteration_1/task_atom_2_ixyz_3_up/energy_output.dat
THREAD-22747871246080: Already in original directory /home/barone/lcrisci_vb/ACTUAL_PROJECTS/MRCC_new_Interface_project/TestingOldVersion/Symmetry/C3H4_D2d
PARALLEL EXECUTION: Task 'atom_2_ixyz_3_up' completed successfully with energy -114.407316728726
UNIT CONVERSION: Task 'atom_2_ixyz_3_down' - Wrote .EIn file in Bohr
  First atom: Angstrom = [0. 0. 0.], Bohr = [0. 0. 0.]
THREAD-22747871246080: Starting execution for task 'atom_2_ixyz_3_down'
THREAD-22747871246080: Task directory: /home/barone/lcrisci_vb/ACTUAL_PROJECTS/MRCC_new_Interface_project/TestingOldVersion/Symmetry/C3H4_D2d/Iterations/Iteration_1/task_atom_2_ixyz_3_down
THREAD-22747871246080: Input file: /home/barone/lcrisci_vb/ACTUAL_PROJECTS/MRCC_new_Interface_project/TestingOldVersion/Symmetry/C3H4_D2d/Iterations/Iteration_1/task_atom_2_ixyz_3_down/Gau-atom_2_ixyz_3_down.EIn
THREAD-22747869144832: Subprocess completed successfully
THREAD-22747869144832: Subprocess stdout (last 200 chars): d !scheme section at line 1.
    Line 2: Found coefficient: 1.0
  Found !formula marker at line 3
    Found formula at line 4: e=c1*e1
Finished parsing scheme: [('coeff', 1.0)]
Found formula: e=c1*e1

THREAD-22747869144832: Output file path: /home/barone/lcrisci_vb/ACTUAL_PROJECTS/MRCC_new_Interface_project/TestingOldVersion/Symmetry/C3H4_D2d/Iterations/Iteration_1/task_atom_1_ixyz_3_down/energy_output.dat
THREAD-22747869144832: Already in original directory /home/barone/lcrisci_vb/ACTUAL_PROJECTS/MRCC_new_Interface_project/TestingOldVersion/Symmetry/C3H4_D2d
THREAD-22747871246080: Original working directory: /home/barone/lcrisci_vb/ACTUAL_PROJECTS/MRCC_new_Interface_project/TestingOldVersion/Symmetry/C3H4_D2d
THREAD-22747871246080: Test mode: False
THREAD-22747871246080: Executing command: /home/barone/lcrisci_vb/python3.9/bin/python3.9 /home/barone/lcrisci_vb/ACTUAL_PROJECTS/MRCC_new_Interface_project/TestingOldVersion/OldVersion/Executables/GauExt test_pr.dat test_en.dat 7 55 READ R Gau-atom_2_ixyz_3_down.EIn energy_output.dat
THREAD-22747871246080: Working directory for subprocess: /home/barone/lcrisci_vb/ACTUAL_PROJECTS/MRCC_new_Interface_project/TestingOldVersion/Symmetry/C3H4_D2d/Iterations/Iteration_1/task_atom_2_ixyz_3_down
PARALLEL EXECUTION: Task 'atom_1_ixyz_3_down' completed successfully with energy -114.407532611704
UNIT CONVERSION: Task 'atom_3_ixyz_2_up' - Wrote .EIn file in Bohr
  First atom: Angstrom = [0. 0. 0.], Bohr = [0. 0. 0.]
THREAD-22747869144832: Starting execution for task 'atom_3_ixyz_2_up'
THREAD-22747869144832: Task directory: /home/barone/lcrisci_vb/ACTUAL_PROJECTS/MRCC_new_Interface_project/TestingOldVersion/Symmetry/C3H4_D2d/Iterations/Iteration_1/task_atom_3_ixyz_2_up
THREAD-22747869144832: Input file: /home/barone/lcrisci_vb/ACTUAL_PROJECTS/MRCC_new_Interface_project/TestingOldVersion/Symmetry/C3H4_D2d/Iterations/Iteration_1/task_atom_3_ixyz_2_up/Gau-atom_3_ixyz_2_up.EIn
THREAD-22747869144832: Original working directory: /home/barone/lcrisci_vb/ACTUAL_PROJECTS/MRCC_new_Interface_project/TestingOldVersion/Symmetry/C3H4_D2d
THREAD-22747869144832: Test mode: False
THREAD-22747869144832: Executing command: /home/barone/lcrisci_vb/python3.9/bin/python3.9 /home/barone/lcrisci_vb/ACTUAL_PROJECTS/MRCC_new_Interface_project/TestingOldVersion/OldVersion/Executables/GauExt test_pr.dat test_en.dat 7 55 READ R Gau-atom_3_ixyz_2_up.EIn energy_output.dat
THREAD-22747869144832: Working directory for subprocess: /home/barone/lcrisci_vb/ACTUAL_PROJECTS/MRCC_new_Interface_project/TestingOldVersion/Symmetry/C3H4_D2d/Iterations/Iteration_1/task_atom_3_ixyz_2_up
THREAD-22747869144832: Subprocess completed successfully
THREAD-22747869144832: Subprocess stdout (last 200 chars): d !scheme section at line 1.
    Line 2: Found coefficient: 1.0
  Found !formula marker at line 3
    Found formula at line 4: e=c1*e1
Finished parsing scheme: [('coeff', 1.0)]
Found formula: e=c1*e1

THREAD-22747869144832: Output file path: /home/barone/lcrisci_vb/ACTUAL_PROJECTS/MRCC_new_Interface_project/TestingOldVersion/Symmetry/C3H4_D2d/Iterations/Iteration_1/task_atom_3_ixyz_2_up/energy_output.dat
THREAD-22747869144832: Already in original directory /home/barone/lcrisci_vb/ACTUAL_PROJECTS/MRCC_new_Interface_project/TestingOldVersion/Symmetry/C3H4_D2d
PARALLEL EXECUTION: Task 'atom_3_ixyz_2_up' completed successfully with energy -114.407548704198
UNIT CONVERSION: Task 'atom_3_ixyz_2_down' - Wrote .EIn file in Bohr
  First atom: Angstrom = [0. 0. 0.], Bohr = [0. 0. 0.]
THREAD-22747869144832: Starting execution for task 'atom_3_ixyz_2_down'
THREAD-22747869144832: Task directory: /home/barone/lcrisci_vb/ACTUAL_PROJECTS/MRCC_new_Interface_project/TestingOldVersion/Symmetry/C3H4_D2d/Iterations/Iteration_1/task_atom_3_ixyz_2_down
THREAD-22747869144832: Input file: /home/barone/lcrisci_vb/ACTUAL_PROJECTS/MRCC_new_Interface_project/TestingOldVersion/Symmetry/C3H4_D2d/Iterations/Iteration_1/task_atom_3_ixyz_2_down/Gau-atom_3_ixyz_2_down.EIn
THREAD-22747869144832: Original working directory: /home/barone/lcrisci_vb/ACTUAL_PROJECTS/MRCC_new_Interface_project/TestingOldVersion/Symmetry/C3H4_D2d
THREAD-22747869144832: Test mode: False
THREAD-22747869144832: Executing command: /home/barone/lcrisci_vb/python3.9/bin/python3.9 /home/barone/lcrisci_vb/ACTUAL_PROJECTS/MRCC_new_Interface_project/TestingOldVersion/OldVersion/Executables/GauExt test_pr.dat test_en.dat 7 55 READ R Gau-atom_3_ixyz_2_down.EIn energy_output.dat
THREAD-22747869144832: Working directory for subprocess: /home/barone/lcrisci_vb/ACTUAL_PROJECTS/MRCC_new_Interface_project/TestingOldVersion/Symmetry/C3H4_D2d/Iterations/Iteration_1/task_atom_3_ixyz_2_down
THREAD-22747871246080: Subprocess completed successfully
THREAD-22747871246080: Subprocess stdout (last 200 chars): d !scheme section at line 1.
    Line 2: Found coefficient: 1.0
  Found !formula marker at line 3
    Found formula at line 4: e=c1*e1
Finished parsing scheme: [('coeff', 1.0)]
Found formula: e=c1*e1

THREAD-22747871246080: Output file path: /home/barone/lcrisci_vb/ACTUAL_PROJECTS/MRCC_new_Interface_project/TestingOldVersion/Symmetry/C3H4_D2d/Iterations/Iteration_1/task_atom_2_ixyz_3_down/energy_output.dat
THREAD-22747871246080: Already in original directory /home/barone/lcrisci_vb/ACTUAL_PROJECTS/MRCC_new_Interface_project/TestingOldVersion/Symmetry/C3H4_D2d
PARALLEL EXECUTION: Task 'atom_2_ixyz_3_down' completed successfully with energy -114.407749791509
UNIT CONVERSION: Task 'atom_3_ixyz_3_up' - Wrote .EIn file in Bohr
  First atom: Angstrom = [0. 0. 0.], Bohr = [0. 0. 0.]
THREAD-22747871246080: Starting execution for task 'atom_3_ixyz_3_up'
THREAD-22747871246080: Task directory: /home/barone/lcrisci_vb/ACTUAL_PROJECTS/MRCC_new_Interface_project/TestingOldVersion/Symmetry/C3H4_D2d/Iterations/Iteration_1/task_atom_3_ixyz_3_up
THREAD-22747871246080: Input file: /home/barone/lcrisci_vb/ACTUAL_PROJECTS/MRCC_new_Interface_project/TestingOldVersion/Symmetry/C3H4_D2d/Iterations/Iteration_1/task_atom_3_ixyz_3_up/Gau-atom_3_ixyz_3_up.EIn
THREAD-22747871246080: Original working directory: /home/barone/lcrisci_vb/ACTUAL_PROJECTS/MRCC_new_Interface_project/TestingOldVersion/Symmetry/C3H4_D2d
THREAD-22747871246080: Test mode: False
THREAD-22747871246080: Executing command: /home/barone/lcrisci_vb/python3.9/bin/python3.9 /home/barone/lcrisci_vb/ACTUAL_PROJECTS/MRCC_new_Interface_project/TestingOldVersion/OldVersion/Executables/GauExt test_pr.dat test_en.dat 7 55 READ R Gau-atom_3_ixyz_3_up.EIn energy_output.dat
THREAD-22747871246080: Working directory for subprocess: /home/barone/lcrisci_vb/ACTUAL_PROJECTS/MRCC_new_Interface_project/TestingOldVersion/Symmetry/C3H4_D2d/Iterations/Iteration_1/task_atom_3_ixyz_3_up
THREAD-22747871246080: Subprocess completed successfully
THREAD-22747871246080: Subprocess stdout (last 200 chars): d !scheme section at line 1.
    Line 2: Found coefficient: 1.0
  Found !formula marker at line 3
    Found formula at line 4: e=c1*e1
Finished parsing scheme: [('coeff', 1.0)]
Found formula: e=c1*e1

THREAD-22747871246080: Output file path: /home/barone/lcrisci_vb/ACTUAL_PROJECTS/MRCC_new_Interface_project/TestingOldVersion/Symmetry/C3H4_D2d/Iterations/Iteration_1/task_atom_3_ixyz_3_up/energy_output.dat
THREAD-22747871246080: Already in original directory /home/barone/lcrisci_vb/ACTUAL_PROJECTS/MRCC_new_Interface_project/TestingOldVersion/Symmetry/C3H4_D2dTHREAD-22747869144832: Subprocess completed successfully

THREAD-22747869144832: Subprocess stdout (last 200 chars): d !scheme section at line 1.
    Line 2: Found coefficient: 1.0
  Found !formula marker at line 3
    Found formula at line 4: e=c1*e1
Finished parsing scheme: [('coeff', 1.0)]
Found formula: e=c1*e1

THREAD-22747869144832: Output file path: /home/barone/lcrisci_vb/ACTUAL_PROJECTS/MRCC_new_Interface_project/TestingOldVersion/Symmetry/C3H4_D2d/Iterations/Iteration_1/task_atom_3_ixyz_2_down/energy_output.dat
THREAD-22747869144832: Already in original directory /home/barone/lcrisci_vb/ACTUAL_PROJECTS/MRCC_new_Interface_project/TestingOldVersion/Symmetry/C3H4_D2d
PARALLEL EXECUTION: Task 'atom_3_ixyz_3_up' completed successfully with energy -114.407549951886
PARALLEL EXECUTION: Task 'atom_3_ixyz_2_down' completed successfully with energy -114.40751979823
UNIT CONVERSION: Task 'atom_3_ixyz_3_down' - Wrote .EIn file in Bohr
  First atom: Angstrom = [0. 0. 0.], Bohr = [0. 0. 0.]
THREAD-22747871246080: Starting execution for task 'atom_3_ixyz_3_down'
THREAD-22747871246080: Task directory: /home/barone/lcrisci_vb/ACTUAL_PROJECTS/MRCC_new_Interface_project/TestingOldVersion/Symmetry/C3H4_D2d/Iterations/Iteration_1/task_atom_3_ixyz_3_down
THREAD-22747871246080: Input file: /home/barone/lcrisci_vb/ACTUAL_PROJECTS/MRCC_new_Interface_project/TestingOldVersion/Symmetry/C3H4_D2d/Iterations/Iteration_1/task_atom_3_ixyz_3_down/Gau-atom_3_ixyz_3_down.EIn
THREAD-22747871246080: Original working directory: /home/barone/lcrisci_vb/ACTUAL_PROJECTS/MRCC_new_Interface_project/TestingOldVersion/Symmetry/C3H4_D2d
THREAD-22747871246080: Test mode: False
THREAD-22747871246080: Executing command: /home/barone/lcrisci_vb/python3.9/bin/python3.9 /home/barone/lcrisci_vb/ACTUAL_PROJECTS/MRCC_new_Interface_project/TestingOldVersion/OldVersion/Executables/GauExt test_pr.dat test_en.dat 7 55 READ R Gau-atom_3_ixyz_3_down.EIn energy_output.dat
THREAD-22747871246080: Working directory for subprocess: /home/barone/lcrisci_vb/ACTUAL_PROJECTS/MRCC_new_Interface_project/TestingOldVersion/Symmetry/C3H4_D2d/Iterations/Iteration_1/task_atom_3_ixyz_3_down
THREAD-22747871246080: Subprocess completed successfully
THREAD-22747871246080: Subprocess stdout (last 200 chars): d !scheme section at line 1.
    Line 2: Found coefficient: 1.0
  Found !formula marker at line 3
    Found formula at line 4: e=c1*e1
Finished parsing scheme: [('coeff', 1.0)]
Found formula: e=c1*e1

THREAD-22747871246080: Output file path: /home/barone/lcrisci_vb/ACTUAL_PROJECTS/MRCC_new_Interface_project/TestingOldVersion/Symmetry/C3H4_D2d/Iterations/Iteration_1/task_atom_3_ixyz_3_down/energy_output.dat
THREAD-22747871246080: Already in original directory /home/barone/lcrisci_vb/ACTUAL_PROJECTS/MRCC_new_Interface_project/TestingOldVersion/Symmetry/C3H4_D2d
PARALLEL EXECUTION: Task 'atom_3_ixyz_3_down' completed successfully with energy -114.407519333678
PARALLEL EXECUTION: Completed tasks: ['atom_1_ixyz_3_down', 'atom_1_ixyz_3_up', 'atom_2_ixyz_3_down', 'atom_2_ixyz_3_up', 'atom_3_ixyz_2_down', 'atom_3_ixyz_2_up', 'atom_3_ixyz_3_down', 'atom_3_ixyz_3_up', 'central']
PARALLEL EXECUTION: Failed tasks: []
PARALLEL EXECUTION: All 9 tasks completed successfully
TASK COMPLETION: Received 9 results
  - Task atom_1_ixyz_3_up: Energy = -114.407532611705
  - Task central: Energy = -114.407534963541
  - Task atom_2_ixyz_3_up: Energy = -114.407316728726
  - Task atom_1_ixyz_3_down: Energy = -114.407532611704
  - Task atom_3_ixyz_2_up: Energy = -114.407548704198
  - Task atom_2_ixyz_3_down: Energy = -114.407749791509
  - Task atom_3_ixyz_3_up: Energy = -114.407549951886
  - Task atom_3_ixyz_2_down: Energy = -114.40751979823
  - Task atom_3_ixyz_3_down: Energy = -114.407519333678
WARNING: Could not find point group information in log file
Returning minimal PointGroupInfo with empty operations (will use fallback)
ADVANCED SYMMETRY: Using Unknown point group
ADVANCED SYMMETRY: 0 operations found in log
ADVANCED SYMMETRY: Applying symmetry-aware gradient assembly
  (with automatic inference from forces if needed)
AUTO-DETECT: Found R_coords with RMSD = 0.00e+00 Bohr
Gradient transformation matrix R^T (original → central):
  [1. 0. 0.]
  [0. 1. 0.]
  [0. 0. 1.]

⚠ No explicit symmetry operations found in log
Attempting to infer operations from forces...

=== INFERRING SYMMETRY OPERATIONS FROM FORCES ===
Atoms with displacements: [0, 1, 2]
Atoms to infer: [3, 4, 5, 6]
Testing 60 transformation matrices...
Operation 2: Atom 2→3, RMSD=0.00e+00, Abelian
  Transformation matrix:
    [1. 0. 0.]
    [ 0. -1.  0.]
    [0. 0. 1.]
  Nuclear permutation: [0, 1, 3, 2, 4, 5, 6]
WARNING: Permutation 2→2 has RMSD=7.18e-03 > tolerance=1.00e-05
WARNING: Permutation 3→3 has RMSD=7.18e-03 > tolerance=1.00e-05
WARNING: Permutation 5→5 has RMSD=7.18e-03 > tolerance=1.00e-05
WARNING: Permutation 6→6 has RMSD=7.18e-03 > tolerance=1.00e-05
Operation 3: Atom 1→4, RMSD=0.00e+00, Abelian
  Transformation matrix:
    [1. 0. 0.]
    [0. 1. 0.]
    [ 0.  0. -1.]
  Nuclear permutation: [0, 4, 2, 3, 1, 5, 6]
Operation 4: Atom 2→5, RMSD=0.00e+00, Non-Abelian
  Transformation matrix:
    [ 0. -1.  0.]
    [1. 0. 0.]
    [ 0.  0. -1.]
  Nuclear permutation: [0, 4, 5, 6, 1, 3, 2]
Operation 5: Atom 2→6, RMSD=0.00e+00, Non-Abelian
  Transformation matrix:
    [0. 1. 0.]
    [1. 0. 0.]
    [ 0.  0. -1.]
  Nuclear permutation: [0, 4, 6, 5, 1, 3, 2]
✓ Inferred 5 operations (including identity)
✓ Successfully inferred 5 operations from forces

=== MOLECULAR SYMMETRY CONSTRAINTS ===
SYMMETRY CONSTRAINT: Atom 1, Axis 1 = 0.000000000 (missing displacement)
SYMMETRY CONSTRAINT: Atom 1, Axis 2 = 0.000000000 (missing displacement)
SYMMETRY CONSTRAINT: Atom 2, Axis 1 = 0.000000000 (missing displacement)
SYMMETRY CONSTRAINT: Atom 2, Axis 2 = 0.000000000 (missing displacement)
SYMMETRY CONSTRAINT: Atom 3, Axis 1 = 0.000000000 (missing displacement)
SYMMETRY CONSTRAINT: Atom 4, Axis 1 = 0.000000000 (symmetry element)
SYMMETRY CONSTRAINT: Atom 4, Axis 1 = 0.000000000 (symmetry element)
SYMMETRY CONSTRAINT: Atom 4, Axis 1 = 0.000000000 (symmetry element)
SYMMETRY CONSTRAINT: Atom 4, Axis 2 = 0.000000000 (symmetry element)
SYMMETRY CONSTRAINT: Atom 4, Axis 2 = 0.000000000 (symmetry element)
SYMMETRY CONSTRAINT: Atom 5, Axis 1 = 0.000000000 (symmetry element)
SYMMETRY CONSTRAINT: Atom 5, Axis 1 = 0.000000000 (symmetry element)
SYMMETRY CONSTRAINT: Atom 5, Axis 1 = 0.000000000 (symmetry element)
SYMMETRY CONSTRAINT: Atom 5, Axis 2 = 0.000000000 (symmetry element)
SYMMETRY CONSTRAINT: Atom 5, Axis 2 = 0.000000000 (symmetry element)

=== DIRECT CALCULATIONS ===
DIRECT CALCULATION: Atom 1, Axis 3 = -0.00000000
DIRECT CALCULATION: Atom 2, Axis 3 = 0.11458348
DIRECT CALCULATION: Atom 3, Axis 2 = -0.00764819
DIRECT CALCULATION: Atom 3, Axis 3 = -0.00810123
SYMMETRY PROPAGATION: Atom 4 from Atom 3 via operation 2
  Source gradient: [ 0.         -0.00764819 -0.00810123]
  Transformation matrix:
    [1. 0. 0.]
    [ 0. -1.  0.]
    [0. 0. 1.]
  Result gradient: [ 0.          0.00764819 -0.00810123]
SYMMETRY PROPAGATION: Atom 5 from Atom 2 via operation 3
  Source gradient: [0.         0.         0.11458348]
  Transformation matrix:
    [1. 0. 0.]
    [0. 1. 0.]
    [ 0.  0. -1.]
  Result gradient: [ 0.          0.         -0.11458348]
SYMMETRY PROPAGATION: Atom 6 from Atom 3 via operation 4
  Source gradient: [ 0.         -0.00764819 -0.00810123]
  Transformation matrix:
    [ 0. -1.  0.]
    [1. 0. 0.]
    [ 0.  0. -1.]
  Result gradient: [0.00764819 0.         0.00810123]
SYMMETRY PROPAGATION: Atom 7 from Atom 4 via operation 4
  Source gradient: [ 0.          0.00764819 -0.00810123]
  Transformation matrix:
    [ 0. -1.  0.]
    [1. 0. 0.]
    [ 0.  0. -1.]
  Result gradient: [-0.00764819  0.          0.00810123]

=== VALIDATION ===
CONSTRAINT VERIFIED: Atom 1, Axis 1 = 0.000000000
CONSTRAINT VERIFIED: Atom 1, Axis 2 = 0.000000000
CONSTRAINT VERIFIED: Atom 2, Axis 1 = 0.000000000
CONSTRAINT VERIFIED: Atom 2, Axis 2 = 0.000000000
CONSTRAINT VERIFIED: Atom 3, Axis 1 = 0.000000000
SYMMETRY EFFICIENCY: 61.9% computational reduction
SYMMETRY EFFICIENCY: 8/21 components calculated
NUMERICAL WORKFLOW: Gradient shape: (7, 3)
NUMERICAL WORKFLOW: Central energy: -114.407534963541

DEBUG: Writing output to /home/barone/lcrisci_vb/ACTUAL_PROJECTS/MRCC_new_Interface_project/TestingOldVersion/Symmetry/C3H4_D2d/Gau-4153751.EOu
DEBUG: Current directory: /home/barone/lcrisci_vb/ACTUAL_PROJECTS/MRCC_new_Interface_project/TestingOldVersion/Symmetry/C3H4_D2d
DEBUG: Central energy: -114.407534963541
DEBUG: Gradient shape: (7, 3)
DEBUG: Output written successfully
DEBUG: File exists: True
SUCCESS: Parallel gradient calculation completed using iteration 1
Task directories preserved in: /home/barone/lcrisci_vb/ACTUAL_PROJECTS/MRCC_new_Interface_project/TestingOldVersion/Symmetry/C3H4_D2d/Iterations/Iteration_1
 Recovered energy= -114.407534964     dipole=      0.000000000000      0.000000000000      0.000000000000
 Energy=    -114.407535     NIter=   0.
 Dipole moment=       0.000000       0.000000       0.000000
 Leave Link  402 at Wed Nov 19 18:14:26 2025, MaxMem=   104857600 cpu:               0.0 elap:              47.8
 (Enter /gaussian/g16.c01/intel64-sandybridge/g16/l601.exe)
 Leave Link  601 at Wed Nov 19 18:14:26 2025, MaxMem=   104857600 cpu:               0.0 elap:               0.0
 (Enter /gaussian/g16.c01/intel64-sandybridge/g16/l716.exe)
 Dipole        = 0.00000000D+00 0.00000000D+00 0.00000000D+00
 ***** Axes restored to original set *****
 -------------------------------------------------------------------
 Center     Atomic                   Forces (Hartrees/Bohr)
 Number     Number              X              Y              Z
 -------------------------------------------------------------------
      1        6          -0.000000000   -0.000000000    0.000000000
      2        6          -0.000000000   -0.000000000   -0.114583478
      3        1          -0.000000000    0.007648190    0.008101229
      4        1          -0.000000000   -0.007648190    0.008101229
      5        6          -0.000000000   -0.000000000    0.114583478
      6        1          -0.007648190   -0.000000000   -0.008101229
      7        1           0.007648190   -0.000000000   -0.008101229
 -------------------------------------------------------------------
 Cartesian Forces:  Max     0.114583478 RMS     0.035693968
 Leave Link  716 at Wed Nov 19 18:14:26 2025, MaxMem=   104857600 cpu:               0.0 elap:               0.0
 (Enter /gaussian/g16.c01/intel64-sandybridge/g16/l9999.exe)
 Unable to Open any file for archive entry.
 1\1\GINC-THIOTIMOLINE-LARGE01\Force\External='CentralExt gau $PGAU/tes
 t_pr.dat $EGAU/test_en.dat 7 55 read parall 2'\ZDO\C3H4\LCRISCI_VB\19-
 Nov-2025\0\\#p force output=pickett External="CentralExt gau $PGAU/tes
 t_pr.dat $EGAU/test_en.dat 7 55 read parall 2"\\title\\0,1\C,0.,0.,0.\
 C,0.,0.,1.3552\H,0.,0.92471616,1.89384149\H,0.,-0.92471616,1.89384149\
 C,0.,0.,-1.3552\H,-0.92471616,0.,-1.89384149\H,0.92471616,0.,-1.893841
 49\\Version=ES64L-G16RevC.01\HF=-114.407535\RMSD=0.000e+00\RMSF=3.569e
 -02\Dipole=0.,0.,0.\PG=D02D [O(C1),C2(C1.C1),2SGD(H2)]\\@
 The archive entry for this job was punched.
 DoSRE=F DoSRN=F DoDH=F DoFC=F DoNQ=F DoQCD=F DoSCD=F
 Inertia tensor (amu-bohr**2): 
                 1             2             3 
      1   0.215192D+03  0.000000D+00  0.000000D+00
      2   0.000000D+00  0.215192D+03  0.000000D+00
      3   0.000000D+00  0.000000D+00  0.123100D+02
 Principal inertia moments (amu-bohr**2):
 Iaa = 0.123100D+02 Ibb= 0.215192D+03 Icc= 0.215192D+03
 Rotation matrix to Principal Axis frame: 
                 1             2             3 
      1   0.000000D+00  0.000000D+00 -0.100000D+01
      2   0.000000D+00 -0.100000D+01  0.000000D+00
      3  -0.100000D+01  0.000000D+00  0.000000D+00
                Principal axis orientation:                
 ---------------------------------------------------------------------
 Center     Atomic                     Coordinates (Angstroms)
 Number     Number                        X           Y           Z
 ---------------------------------------------------------------------
      1          6                    0.000000    0.000000    0.000000
      2          6                   -1.355200    0.000000    0.000000
      3          1                   -1.893841   -0.924716    0.000000
      4          1                   -1.893841    0.924716    0.000000
      5          6                    1.355200   -0.000000   -0.000000
      6          1                    1.893841   -0.000000    0.924716
      7          1                    1.893841    0.000000   -0.924716
 ---------------------------------------------------------------------
 Rotational constants (MHZ):
 146607.1565353   8386.6419487   8386.6419487
 Dipole moment (Debye):
     -0.0000000      0.0000000     -0.0000000  Tot=      0.0000000

 Atoms with significant hyperfine tensors: 

--------------------------------------------------------------------------------
 title                                                   
   99  1000  50  0.1760E-11  0.1000E+07  0.1000E+01 1.0000000000
a   1  0  0  0  1  1   1  0  1  0
     10000   0.14660716E+06    0.0000E+00   /  A  /
     20000   0.83866419E+04    0.0000E+00   /  B  /
     30000   0.83866419E+04    0.0000E+00   /  C  /
--------------------------------------------------------------------------------

 Punch of MOs requested, but none found.


 WOE UNTO THEM THAT CALL EVIL GOOD, AND GOOD EVIL      
 Job cpu time:       0 days  0 hours  0 minutes  0.3 seconds.
 Elapsed time:       0 days  0 hours  0 minutes 48.5 seconds.
 File lengths (MBytes):  RWF=      5 Int=      0 D2E=      0 Chk=      1 Scr=      1
 Normal termination of Gaussian 16 at Wed Nov 19 18:14:26 2025.
 Initial command:
 /gaussian/g16.c01/intel64-sandybridge/g16/l1.exe "/home/barone/lcrisci_vb/ACTUAL_PROJECTS/MRCC_new_Interface_project/TestingOldVersion/Symmetry/C3H4_D2d/Gau-4153750.inp" -scrdir="/home/barone/lcrisci_vb/ACTUAL_PROJECTS/MRCC_new_Interface_project/TestingOldVersion/Symmetry/C3H4_D2d/"
 Entering Link 1 = /gaussian/g16.c01/intel64-sandybridge/g16/l1.exe PID=   4154391.
  
 Copyright (c) 1988-2019, Gaussian, Inc.  All Rights Reserved.
  
 This is part of the Gaussian(R) 16 program.  It is based on
 the Gaussian(R) 09 system (copyright 2009, Gaussian, Inc.),
 the Gaussian(R) 03 system (copyright 2003, Gaussian, Inc.),
 the Gaussian(R) 98 system (copyright 1998, Gaussian, Inc.),
 the Gaussian(R) 94 system (copyright 1995, Gaussian, Inc.),
 the Gaussian 92(TM) system (copyright 1992, Gaussian, Inc.),
 the Gaussian 90(TM) system (copyright 1990, Gaussian, Inc.),
 the Gaussian 88(TM) system (copyright 1988, Gaussian, Inc.),
 the Gaussian 86(TM) system (copyright 1986, Carnegie Mellon
 University), and the Gaussian 82(TM) system (copyright 1983,
 Carnegie Mellon University). Gaussian is a federally registered
 trademark of Gaussian, Inc.
  
 This software contains proprietary and confidential information,
 including trade secrets, belonging to Gaussian, Inc.
  
 This software is provided under written license and may be
 used, copied, transmitted, or stored only in accord with that
 written license.
  
 The following legend is applicable only to US Government
 contracts under FAR:
  
                    RESTRICTED RIGHTS LEGEND
  
 Use, reproduction and disclosure by the US Government is
 subject to restrictions as set forth in subparagraphs (a)
 and (c) of the Commercial Computer Software - Restricted
 Rights clause in FAR 52.227-19.
  
 Gaussian, Inc.
 340 Quinnipiac St., Bldg. 40, Wallingford CT 06492
  
  
 ---------------------------------------------------------------
 Warning -- This program may not be used in any manner that
 competes with the business of Gaussian, Inc. or will provide
 assistance to any competitor of Gaussian, Inc.  The licensee
 of this program is prohibited from giving any competitor of
 Gaussian, Inc. access to this program.  By using this program,
 the user acknowledges that Gaussian, Inc. is engaged in the
 business of creating and licensing software in the field of
 computational chemistry and represents and warrants to the
 licensee that it is not a competitor of Gaussian, Inc. and that
 it will not use this program in any manner prohibited above.
 ---------------------------------------------------------------
  

 Cite this work as:
 Gaussian 16, Revision C.01,
 M. J. Frisch, G. W. Trucks, H. B. Schlegel, G. E. Scuseria, 
 M. A. Robb, J. R. Cheeseman, G. Scalmani, V. Barone, 
 G. A. Petersson, H. Nakatsuji, X. Li, M. Caricato, A. V. Marenich, 
 J. Bloino, B. G. Janesko, R. Gomperts, B. Mennucci, H. P. Hratchian, 
 J. V. Ortiz, A. F. Izmaylov, J. L. Sonnenberg, D. Williams-Young, 
 F. Ding, F. Lipparini, F. Egidi, J. Goings, B. Peng, A. Petrone, 
 T. Henderson, D. Ranasinghe, V. G. Zakrzewski, J. Gao, N. Rega, 
 G. Zheng, W. Liang, M. Hada, M. Ehara, K. Toyota, R. Fukuda, 
 J. Hasegawa, M. Ishida, T. Nakajima, Y. Honda, O. Kitao, H. Nakai, 
 T. Vreven, K. Throssell, J. A. Montgomery, Jr., J. E. Peralta, 
 F. Ogliaro, M. J. Bearpark, J. J. Heyd, E. N. Brothers, K. N. Kudin, 
 V. N. Staroverov, T. A. Keith, R. Kobayashi, J. Normand, 
 K. Raghavachari, A. P. Rendell, J. C. Burant, S. S. Iyengar, 
 J. Tomasi, M. Cossi, J. M. Millam, M. Klene, C. Adamo, R. Cammi, 
 J. W. Ochterski, R. L. Martin, K. Morokuma, O. Farkas, 
 J. B. Foresman, and D. J. Fox, Gaussian, Inc., Wallingford CT, 2019.
 
 ******************************************
 Gaussian 16:  ES64L-G16RevC.01  3-Jul-2019
                19-Nov-2025 
 ******************************************
 %chk=test_parall.chk
 %nprocs=1
 Will use up to    1 processors via shared memory.
 ------------------
 #p force hf/sto-3g
 ------------------
 1/10=7,30=1,38=1/1,3;
 2/12=2,17=6,18=5,40=1/2;
 3/6=3,11=9,25=1,30=1,71=1/1,2,3;
 4//1;
 5/5=2,38=5/2;
 6/7=2,8=2,9=2,10=2,28=1/1;
 7/29=1/1,2,3,16;
 1/10=7,30=1/3;
 99//99;
 Leave Link    1 at Wed Nov 19 18:14:27 2025, MaxMem=           0 cpu:               0.0 elap:               0.2
 (Enter /gaussian/g16.c01/intel64-sandybridge/g16/l101.exe)
 -----
 title
 -----
 Symbolic Z-matrix:
 Charge =  0 Multiplicity = 1
 C                     0.        0.        0. 
 C                     0.        0.        1.3552 
 H                     0.        0.92472   1.89384 
 H                     0.       -0.92472   1.89384 
 C                     0.        0.       -1.3552 
 H                    -0.92472   0.       -1.89384 
 H                     0.92472   0.       -1.89384 
 
 ITRead=  0  0  0  0  0  0  0
 MicOpt= -1 -1 -1 -1 -1 -1 -1
 NAtoms=      7 NQM=        7 NQMF=       0 NMMI=      0 NMMIF=      0
                NMic=       0 NMicF=      0.
                    Isotopes and Nuclear Properties:
 (Nuclear quadrupole moments (NQMom) in fm**2, nuclear magnetic moments (NMagM)
  in nuclear magnetons)

  Atom         1           2           3           4           5           6           7
 IAtWgt=          12          12           1           1          12           1           1
 AtmWgt=  12.0000000  12.0000000   1.0078250   1.0078250  12.0000000   1.0078250   1.0078250
 NucSpn=           0           0           1           1           0           1           1
 AtZEff=  -0.0000000  -0.0000000  -0.0000000  -0.0000000  -0.0000000  -0.0000000  -0.0000000
 NQMom=    0.0000000   0.0000000   0.0000000   0.0000000   0.0000000   0.0000000   0.0000000
 NMagM=    0.0000000   0.0000000   2.7928460   2.7928460   0.0000000   2.7928460   2.7928460
 AtZNuc=   6.0000000   6.0000000   1.0000000   1.0000000   6.0000000   1.0000000   1.0000000
 Leave Link  101 at Wed Nov 19 18:14:27 2025, MaxMem=   104857600 cpu:               0.3 elap:               0.3
 (Enter /gaussian/g16.c01/intel64-sandybridge/g16/l103.exe)

 GradGradGradGradGradGradGradGradGradGradGradGradGradGradGradGradGradGrad
 Berny optimization.
 Initialization pass.
 Trust Radius=3.00D-01 FncErr=1.00D-07 GrdErr=1.00D-07 EigMax=2.50D+02 EigMin=1.00D-04
 Number of steps in this run=      2 maximum allowed number of steps=      2.
 GradGradGradGradGradGradGradGradGradGradGradGradGradGradGradGradGradGrad

 Leave Link  103 at Wed Nov 19 18:14:27 2025, MaxMem=   104857600 cpu:               0.0 elap:               0.0
 (Enter /gaussian/g16.c01/intel64-sandybridge/g16/l202.exe)
                          Input orientation:                          
 ---------------------------------------------------------------------
 Center     Atomic      Atomic             Coordinates (Angstroms)
 Number     Number       Type             X           Y           Z
 ---------------------------------------------------------------------
      1          6           0        0.000000    0.000000    0.000000
      2          6           0        0.000000    0.000000    1.355200
      3          1           0        0.000000    0.924716    1.893841
      4          1           0        0.000000   -0.924716    1.893841
      5          6           0        0.000000    0.000000   -1.355200
      6          1           0       -0.924716    0.000000   -1.893841
      7          1           0        0.924716    0.000000   -1.893841
 ---------------------------------------------------------------------
                    Distance matrix (angstroms):
                    1          2          3          4          5
     1  C    0.000000
     2  C    1.355200   0.000000
     3  H    2.107543   1.070156   0.000000
     4  H    2.107543   1.070156   1.849432   0.000000
     5  C    1.355200   2.710400   3.378072   3.378072   0.000000
     6  H    2.107543   3.378072   4.007087   4.007087   1.070156
     7  H    2.107543   3.378072   4.007087   4.007087   1.070156
                    6          7
     6  H    0.000000
     7  H    1.849432   0.000000
 Stoichiometry    C3H4
 Framework group  D2D[O(C),C2(C.C),2SGD(H2)]
 Deg. of freedom     3
 Full point group                 D2D     NOp   8
 Largest Abelian subgroup         C2V     NOp   4
 Largest concise Abelian subgroup C2V     NOp   4
                         Standard orientation:                         
 ---------------------------------------------------------------------
 Center     Atomic      Atomic             Coordinates (Angstroms)
 Number     Number       Type             X           Y           Z
 ---------------------------------------------------------------------
      1          6           0        0.000000    0.000000    0.000000
      2          6           0        0.000000    0.000000    1.355200
      3          1           0        0.000000    0.924716    1.893841
      4          1           0       -0.000000   -0.924716    1.893841
      5          6           0        0.000000    0.000000   -1.355200
      6          1           0       -0.924716    0.000000   -1.893841
      7          1           0        0.924716   -0.000000   -1.893841
 ---------------------------------------------------------------------
 Rotational constants (GHZ):         146.6071565           8.3866419           8.3866419
 Leave Link  202 at Wed Nov 19 18:14:27 2025, MaxMem=   104857600 cpu:               0.0 elap:               0.1
 (Enter /gaussian/g16.c01/intel64-sandybridge/g16/l301.exe)
 Standard basis: STO-3G (5D, 7F)
 Ernie: Thresh=  0.10000D-02 Tol=  0.10000D-05 Strict=F.
 There are    11 symmetry adapted cartesian basis functions of A1  symmetry.
 There are     0 symmetry adapted cartesian basis functions of A2  symmetry.
 There are     4 symmetry adapted cartesian basis functions of B1  symmetry.
 There are     4 symmetry adapted cartesian basis functions of B2  symmetry.
 There are    11 symmetry adapted basis functions of A1  symmetry.
 There are     0 symmetry adapted basis functions of A2  symmetry.
 There are     4 symmetry adapted basis functions of B1  symmetry.
 There are     4 symmetry adapted basis functions of B2  symmetry.
    19 basis functions,    57 primitive gaussians,    19 cartesian basis functions
    11 alpha electrons       11 beta electrons
       nuclear repulsion energy        57.8969878049 Hartrees.
 IExCor=    0 DFT=F Ex=HF Corr=None ExCW=0 ScaHFX=  1.000000
 ScaDFX=  1.000000  1.000000  1.000000  1.000000 ScalE2=  1.000000  1.000000
 IRadAn=      5 IRanWt=     -1 IRanGd=            0 ICorTp=0 IEmpDi=  4
 NAtoms=    7 NActive=    7 NUniq=    3 SFac= 4.00D+00 NAtFMM=   60 NAOKFM=F Big=F
 Integral buffers will be    131072 words long.
 Raffenetti 1 integral format.
 Two-electron integral symmetry is turned on.
 Leave Link  301 at Wed Nov 19 18:14:28 2025, MaxMem=   104857600 cpu:               0.0 elap:               0.1
 (Enter /gaussian/g16.c01/intel64-sandybridge/g16/l302.exe)
 NPDir=0 NMtPBC=     1 NCelOv=     1 NCel=       1 NClECP=     1 NCelD=      1
         NCelK=      1 NCelE2=     1 NClLst=     1 CellRange=     0.0.
 One-electron integrals computed using PRISM.
 One-electron integral symmetry used in STVInt
 NBasis=    19 RedAO= T EigKep=  1.91D-01  NBF=    11     0     4     4
 NBsUse=    19 1.00D-06 EigRej= -1.00D+00 NBFU=    11     0     4     4
 Leave Link  302 at Wed Nov 19 18:14:28 2025, MaxMem=   104857600 cpu:               0.1 elap:               0.2
 (Enter /gaussian/g16.c01/intel64-sandybridge/g16/l303.exe)
 DipDrv:  MaxL=1.
 Leave Link  303 at Wed Nov 19 18:14:28 2025, MaxMem=   104857600 cpu:               0.0 elap:               0.0
 (Enter /gaussian/g16.c01/intel64-sandybridge/g16/l401.exe)
 ExpMin= 1.69D-01 ExpMax= 7.16D+01 ExpMxC= 7.16D+01 IAcc=3 IRadAn=         5 AccDes= 0.00D+00
 Harris functional with IExCor=  205 and IRadAn=       5 diagonalized for initial guess.
 HarFok:  IExCor=  205 AccDes= 0.00D+00 IRadAn=         5 IDoV= 1 UseB2=F ITyADJ=14
 ICtDFT=  3500011 ScaDFX=  1.000000  1.000000  1.000000  1.000000
 FoFCou: FMM=F IPFlag=           0 FMFlag=      100000 FMFlg1=           0
         NFxFlg=           0 DoJE=T BraDBF=F KetDBF=T FulRan=T
         wScrn=  0.000000 ICntrl=       500 IOpCl=  0 I1Cent=   200000004 NGrid=           0
         NMat0=    1 NMatS0=      1 NMatT0=    0 NMatD0=    1 NMtDS0=    0 NMtDT0=    0
 Petite list used in FoFCou.
 Harris En= -114.604915095311    
 JPrj=0 DoOrth=F DoCkMO=F.
 Initial guess orbital symmetries:
       Occupied  (A1) (B2) (A1) (A1) (B2) (A1) (B2) (E) (E) (E)
                 (E)
       Virtual   (E) (E) (A1) (B2) (A1) (E) (E) (B2)
 The electronic state of the initial guess is 1-A1.
 Leave Link  401 at Wed Nov 19 18:14:28 2025, MaxMem=   104857600 cpu:               0.1 elap:               0.1
 (Enter /gaussian/g16.c01/intel64-sandybridge/g16/l502.exe)
 Keep R1 ints in memory in symmetry-blocked form, NReq=828043.
 FoFCou: FMM=F IPFlag=           0 FMFlag=           0 FMFlg1=           0
         NFxFlg=           0 DoJE=F BraDBF=F KetDBF=F FulRan=T
         wScrn=  0.000000 ICntrl=       600 IOpCl=  0 I1Cent=           0 NGrid=           0
         NMat0=    1 NMatS0=    190 NMatT0=    0 NMatD0=    1 NMtDS0=    0 NMtDT0=    0
 Petite list used in FoFCou.
 Closed shell SCF:
 Using DIIS extrapolation, IDIIS=  1040.
 NGot=   104857600 LenX=   104848877 LenY=   104847995
 Requested convergence on RMS density matrix=1.00D-08 within 128 cycles.
 Requested convergence on MAX density matrix=1.00D-06.
 Requested convergence on             energy=1.00D-06.
 No special actions if energy rises.

 Cycle   1  Pass 1  IDiag  1:
 E= -114.350935682652    
 DIIS: error= 4.88D-02 at cycle   1 NSaved=   1.
 NSaved= 1 IEnMin= 1 EnMin= -114.350935682652     IErMin= 1 ErrMin= 4.88D-02
 ErrMax= 4.88D-02  0.00D+00 EMaxC= 1.00D-01 BMatC= 5.74D-02 BMatP= 5.74D-02
 IDIUse=3 WtCom= 5.12D-01 WtEn= 4.88D-01
 Coeff-Com:  0.100D+01
 Coeff-En:   0.100D+01
 Coeff:      0.100D+01
 Gap=     0.599 Goal=   None    Shift=    0.000
 GapD=    0.599 DampG=2.000 DampE=0.500 DampFc=1.0000 IDamp=-1.
 RMSDP=1.60D-02 MaxDP=9.14D-02              OVMax= 0.00D+00

 Cycle   2  Pass 1  IDiag  1:
 E= -114.404185962163     Delta-E=       -0.053250279511 Rises=F Damp=F
 DIIS: error= 1.03D-02 at cycle   2 NSaved=   2.
 NSaved= 2 IEnMin= 2 EnMin= -114.404185962163     IErMin= 2 ErrMin= 1.03D-02
 ErrMax= 1.03D-02  0.00D+00 EMaxC= 1.00D-01 BMatC= 2.93D-03 BMatP= 5.74D-02
 IDIUse=3 WtCom= 8.97D-01 WtEn= 1.03D-01
 Coeff-Com:  0.780D-01 0.922D+00
 Coeff-En:   0.000D+00 0.100D+01
 Coeff:      0.700D-01 0.930D+00
 Gap=     0.608 Goal=   None    Shift=    0.000
 RMSDP=4.43D-03 MaxDP=3.16D-02 DE=-5.33D-02 OVMax= 0.00D+00

 Cycle   3  Pass 1  IDiag  1:
 E= -114.406745589069     Delta-E=       -0.002559626907 Rises=F Damp=F
 DIIS: error= 5.81D-03 at cycle   3 NSaved=   3.
 NSaved= 3 IEnMin= 3 EnMin= -114.406745589069     IErMin= 3 ErrMin= 5.81D-03
 ErrMax= 5.81D-03  0.00D+00 EMaxC= 1.00D-01 BMatC= 7.01D-04 BMatP= 2.93D-03
 IDIUse=3 WtCom= 9.42D-01 WtEn= 5.81D-02
 Coeff-Com: -0.223D-01 0.309D+00 0.713D+00
 Coeff-En:   0.000D+00 0.000D+00 0.100D+01
 Coeff:     -0.210D-01 0.291D+00 0.730D+00
 Gap=     0.608 Goal=   None    Shift=    0.000
 RMSDP=1.64D-03 MaxDP=1.09D-02 DE=-2.56D-03 OVMax= 0.00D+00

 Cycle   4  Pass 1  IDiag  1:
 E= -114.407527247898     Delta-E=       -0.000781658829 Rises=F Damp=F
 DIIS: error= 5.14D-04 at cycle   4 NSaved=   4.
 NSaved= 4 IEnMin= 4 EnMin= -114.407527247898     IErMin= 4 ErrMin= 5.14D-04
 ErrMax= 5.14D-04  0.00D+00 EMaxC= 1.00D-01 BMatC= 3.49D-06 BMatP= 7.01D-04
 IDIUse=3 WtCom= 9.95D-01 WtEn= 5.14D-03
 Coeff-Com:  0.434D-02-0.791D-01-0.119D+00 0.119D+01
 Coeff-En:   0.000D+00 0.000D+00 0.000D+00 0.100D+01
 Coeff:      0.432D-02-0.787D-01-0.118D+00 0.119D+01
 Gap=     0.609 Goal=   None    Shift=    0.000
 RMSDP=1.66D-04 MaxDP=7.85D-04 DE=-7.82D-04 OVMax= 0.00D+00

 Cycle   5  Pass 1  IDiag  1:
 E= -114.407534824282     Delta-E=       -0.000007576384 Rises=F Damp=F
 DIIS: error= 6.40D-05 at cycle   5 NSaved=   5.
 NSaved= 5 IEnMin= 5 EnMin= -114.407534824282     IErMin= 5 ErrMin= 6.40D-05
 ErrMax= 6.40D-05  0.00D+00 EMaxC= 1.00D-01 BMatC= 7.01D-08 BMatP= 3.49D-06
 IDIUse=1 WtCom= 1.00D+00 WtEn= 0.00D+00
 Coeff-Com: -0.156D-03 0.460D-02-0.488D-02-0.162D+00 0.116D+01
 Coeff:     -0.156D-03 0.460D-02-0.488D-02-0.162D+00 0.116D+01
 Gap=     0.609 Goal=   None    Shift=    0.000
 RMSDP=2.67D-05 MaxDP=2.11D-04 DE=-7.58D-06 OVMax= 0.00D+00

 Cycle   6  Pass 1  IDiag  1:
 E= -114.407534956616     Delta-E=       -0.000000132333 Rises=F Damp=F
 DIIS: error= 1.61D-05 at cycle   6 NSaved=   6.
 NSaved= 6 IEnMin= 6 EnMin= -114.407534956616     IErMin= 6 ErrMin= 1.61D-05
 ErrMax= 1.61D-05  0.00D+00 EMaxC= 1.00D-01 BMatC= 3.27D-09 BMatP= 7.01D-08
 IDIUse=1 WtCom= 1.00D+00 WtEn= 0.00D+00
 Coeff-Com:  0.495D-04-0.163D-02 0.239D-02 0.864D-01-0.697D+00 0.161D+01
 Coeff:      0.495D-04-0.163D-02 0.239D-02 0.864D-01-0.697D+00 0.161D+01
 Gap=     0.609 Goal=   None    Shift=    0.000
 RMSDP=7.08D-06 MaxDP=6.18D-05 DE=-1.32D-07 OVMax= 0.00D+00

 Cycle   7  Pass 1  IDiag  1:
 E= -114.407534963312     Delta-E=       -0.000000006696 Rises=F Damp=F
 DIIS: error= 2.38D-06 at cycle   7 NSaved=   7.
 NSaved= 7 IEnMin= 7 EnMin= -114.407534963312     IErMin= 7 ErrMin= 2.38D-06
 ErrMax= 2.38D-06  0.00D+00 EMaxC= 1.00D-01 BMatC= 8.74D-11 BMatP= 3.27D-09
 IDIUse=1 WtCom= 1.00D+00 WtEn= 0.00D+00
 Coeff-Com: -0.221D-04 0.651D-03-0.102D-02-0.324D-01 0.263D+00-0.720D+00
 Coeff-Com:  0.149D+01
 Coeff:     -0.221D-04 0.651D-03-0.102D-02-0.324D-01 0.263D+00-0.720D+00
 Coeff:      0.149D+01
 Gap=     0.609 Goal=   None    Shift=    0.000
 RMSDP=1.34D-06 MaxDP=8.76D-06 DE=-6.70D-09 OVMax= 0.00D+00

 Cycle   8  Pass 1  IDiag  1:
 E= -114.407534963515     Delta-E=       -0.000000000203 Rises=F Damp=F
 DIIS: error= 6.58D-08 at cycle   8 NSaved=   8.
 NSaved= 8 IEnMin= 8 EnMin= -114.407534963515     IErMin= 8 ErrMin= 6.58D-08
 ErrMax= 6.58D-08  0.00D+00 EMaxC= 1.00D-01 BMatC= 5.14D-14 BMatP= 8.74D-11
 IDIUse=1 WtCom= 1.00D+00 WtEn= 0.00D+00
 Coeff-Com:  0.245D-05-0.737D-04 0.120D-03 0.373D-02-0.302D-01 0.846D-01
 Coeff-Com: -0.201D+00 0.114D+01
 Coeff:      0.245D-05-0.737D-04 0.120D-03 0.373D-02-0.302D-01 0.846D-01
 Coeff:     -0.201D+00 0.114D+01
 Gap=     0.609 Goal=   None    Shift=    0.000
 RMSDP=3.03D-08 MaxDP=1.52D-07 DE=-2.03D-10 OVMax= 0.00D+00

 Cycle   9  Pass 1  IDiag  1:
 E= -114.407534963515     Delta-E=       -0.000000000000 Rises=F Damp=F
 DIIS: error= 3.91D-09 at cycle   9 NSaved=   9.
 NSaved= 9 IEnMin= 9 EnMin= -114.407534963515     IErMin= 9 ErrMin= 3.91D-09
 ErrMax= 3.91D-09  0.00D+00 EMaxC= 1.00D-01 BMatC= 2.30D-16 BMatP= 5.14D-14
 IDIUse=1 WtCom= 1.00D+00 WtEn= 0.00D+00
 Coeff-Com: -0.241D-06 0.748D-05-0.129D-04-0.387D-03 0.311D-02-0.893D-02
 Coeff-Com:  0.235D-01-0.159D+00 0.114D+01
 Coeff:     -0.241D-06 0.748D-05-0.129D-04-0.387D-03 0.311D-02-0.893D-02
 Coeff:      0.235D-01-0.159D+00 0.114D+01
 Gap=     0.609 Goal=   None    Shift=    0.000
 RMSDP=1.71D-09 MaxDP=6.84D-09 DE=-1.42D-13 OVMax= 0.00D+00

 SCF Done:  E(RHF) =  -114.407534964     A.U. after    9 cycles
            NFock=  9  Conv=0.17D-08     -V/T= 2.0072
 KE= 1.135930117111D+02 PE=-3.823914699998D+02 EE= 9.649393552029D+01
 Leave Link  502 at Wed Nov 19 18:14:29 2025, MaxMem=   104857600 cpu:               0.1 elap:               0.3
 (Enter /gaussian/g16.c01/intel64-sandybridge/g16/l601.exe)
 Copying SCF densities to generalized density rwf, IOpCl= 0 IROHF=0.

 **********************************************************************

            Population analysis using the SCF Density.

 **********************************************************************

 Orbital symmetries:
       Occupied  (A1) (A1) (B2) (A1) (B2) (A1) (E) (E) (B2) (E)
                 (E)
       Virtual   (E) (E) (A1) (B2) (A1) (E) (E) (B2)
 The electronic state is 1-A1.
 Alpha  occ. eigenvalues --  -11.03092 -11.02125 -11.02120  -0.99220  -0.88881
 Alpha  occ. eigenvalues --   -0.66076  -0.56501  -0.56501  -0.54638  -0.30689
 Alpha  occ. eigenvalues --   -0.30689
 Alpha virt. eigenvalues --    0.30164   0.30164   0.63311   0.70395   0.75059
 Alpha virt. eigenvalues --    0.83510   0.83510   1.19807
          Condensed to atoms (all electrons):
               1          2          3          4          5          6
     1  C    4.866999   0.601312  -0.026289  -0.026289   0.601312  -0.026289
     2  C    0.601312   4.800967   0.392874   0.392874  -0.014781  -0.000085
     3  H   -0.026289   0.392874   0.577496  -0.021626  -0.000085  -0.000012
     4  H   -0.026289   0.392874  -0.021626   0.577496  -0.000085  -0.000012
     5  C    0.601312  -0.014781  -0.000085  -0.000085   4.800967   0.392874
     6  H   -0.026289  -0.000085  -0.000012  -0.000012   0.392874   0.577496
     7  H   -0.026289  -0.000085  -0.000012  -0.000012   0.392874  -0.021626
               7
     1  C   -0.026289
     2  C   -0.000085
     3  H   -0.000012
     4  H   -0.000012
     5  C    0.392874
     6  H   -0.021626
     7  H    0.577496
 Mulliken charges:
               1
     1  C    0.035535
     2  C   -0.173076
     3  H    0.077655
     4  H    0.077655
     5  C   -0.173076
     6  H    0.077655
     7  H    0.077655
 Sum of Mulliken charges =   0.00000
 Mulliken charges with hydrogens summed into heavy atoms:
               1
     1  C    0.035535
     2  C   -0.017767
     5  C   -0.017767
 Electronic spatial extent (au):  <R**2>=            180.1871
 Charge=              0.0000 electrons
 Dipole moment (field-independent basis, Debye):
    X=             -0.0000    Y=              0.0000    Z=             -0.0000  Tot=              0.0000
 Quadrupole moment (field-independent basis, Debye-Ang):
   XX=            -17.5463   YY=            -17.5463   ZZ=            -16.0701
   XY=             -0.0000   XZ=             -0.0000   YZ=              0.0000
 Traceless Quadrupole moment (field-independent basis, Debye-Ang):
   XX=             -0.4920   YY=             -0.4920   ZZ=              0.9841
   XY=             -0.0000   XZ=             -0.0000   YZ=              0.0000
 Octapole moment (field-independent basis, Debye-Ang**2):
  XXX=             -0.0000  YYY=             -0.0000  ZZZ=             -0.0000  XYY=             -0.0000
  XXY=             -0.0000  XXZ=             -2.1360  XZZ=              0.0000  YZZ=             -0.0000
  YYZ=              2.1360  XYZ=              0.0000
 Hexadecapole moment (field-independent basis, Debye-Ang**3):
 XXXX=            -21.3380 YYYY=            -21.3380 ZZZZ=           -180.1632 XXXY=              0.0000
 XXXZ=              0.0000 YYYX=              0.0000 YYYZ=              0.0000 ZZZX=             -0.0000
 ZZZY=              0.0000 XXYY=             -7.6644 XXZZ=            -32.8130 YYZZ=            -32.8130
 XXYZ=              0.0000 YYXZ=              0.0000 ZZXY=             -0.0000
 N-N= 5.789698780491D+01 E-N=-3.823914700171D+02  KE= 1.135930117111D+02
 Symmetry A1   KE= 1.046490376691D+02
 Symmetry A2   KE= 0.000000000000D+00
 Symmetry B1   KE= 4.471987020989D+00
 Symmetry B2   KE= 4.471987020989D+00
 No NMR shielding tensors so no spin-rotation constants.
 Leave Link  601 at Wed Nov 19 18:14:29 2025, MaxMem=   104857600 cpu:               0.0 elap:               0.1
 (Enter /gaussian/g16.c01/intel64-sandybridge/g16/l701.exe)
 ... and contract with generalized density number  0.
 Compute integral first derivatives.
 Leave Link  701 at Wed Nov 19 18:14:29 2025, MaxMem=   104857600 cpu:               0.1 elap:               0.1
 (Enter /gaussian/g16.c01/intel64-sandybridge/g16/l702.exe)
 L702 exits ... SP integral derivatives will be done elsewhere.
 Leave Link  702 at Wed Nov 19 18:14:29 2025, MaxMem=   104857600 cpu:               0.0 elap:               0.1
 (Enter /gaussian/g16.c01/intel64-sandybridge/g16/l703.exe)
 Integral derivatives from FoFJK, PRISM(SPDF).
 Compute integral first derivatives, UseDBF=F ICtDFT=           0.
 Calling FoFJK, ICntrl=      2127 FMM=F ISym2X=1 I1Cent= 0 IOpClX= 0 NMat=1 NMatS=1 NMatT=0.
 FoFJK:  IHMeth= 1 ICntrl=    2127 DoSepK=F KAlg= 0 I1Cent=           0 FoldK=F
 IRaf=         0 NMat=       1 IRICut=       1 DoRegI=T DoRafI=F ISym2E= 1 IDoP0=0 IntGTp=1.
 FoFCou: FMM=F IPFlag=           0 FMFlag=      100000 FMFlg1=         800
         NFxFlg=           0 DoJE=F BraDBF=F KetDBF=F FulRan=T
         wScrn=  0.000000 ICntrl=      2127 IOpCl=  0 I1Cent=           0 NGrid=           0
         NMat0=    1 NMatS0=      1 NMatT0=    0 NMatD0=    1 NMtDS0=    0 NMtDT0=    0
 Petite list used in FoFCou.
 Leave Link  703 at Wed Nov 19 18:14:29 2025, MaxMem=   104857600 cpu:               0.1 elap:               0.1
 (Enter /gaussian/g16.c01/intel64-sandybridge/g16/l716.exe)
 Dipole        =-2.22044605D-16 2.02110290D-16 0.00000000D+00
 ***** Axes restored to original set *****
 -------------------------------------------------------------------
 Center     Atomic                   Forces (Hartrees/Bohr)
 Number     Number              X              Y              Z
 -------------------------------------------------------------------
      1        6           0.000000000    0.000000000    0.000000000
      2        6          -0.000000000   -0.000000000   -0.114584674
      3        1           0.000000000    0.007647747    0.008101249
      4        1          -0.000000000   -0.007647747    0.008101249
      5        6          -0.000000000   -0.000000000    0.114584674
      6        1          -0.007647747   -0.000000000   -0.008101249
      7        1           0.007647747    0.000000000   -0.008101249
 -------------------------------------------------------------------
 Cartesian Forces:  Max     0.114584674 RMS     0.035694316
 Z-matrix is all fixed cartesians, so copy forces.
 Force constants in Cartesian coordinates: 
                1             2             3             4             5 
      1  0.208127D+00
      2  0.000000D+00  0.208127D+00
      3  0.000000D+00  0.000000D+00  0.107859D+01
      4 -0.100476D+00  0.000000D+00  0.000000D+00  0.123748D+00
      5  0.000000D+00 -0.156128D+00  0.000000D+00  0.000000D+00  0.724601D+00
      6  0.000000D+00  0.000000D+00 -0.539297D+00  0.000000D+00  0.000000D+00
      7  0.868889D-02  0.000000D+00  0.000000D+00 -0.306954D-01  0.000000D+00
      8  0.000000D+00  0.155498D-01  0.000000D+00  0.000000D+00 -0.303296D+00
      9  0.000000D+00 -0.266952D-01  0.000000D+00  0.000000D+00 -0.118126D+00
     10  0.868889D-02  0.000000D+00  0.000000D+00 -0.306954D-01  0.000000D+00
     11  0.000000D+00  0.155498D-01  0.000000D+00  0.000000D+00 -0.303296D+00
     12  0.000000D+00  0.266952D-01  0.000000D+00  0.000000D+00  0.118126D+00
     13 -0.156128D+00  0.000000D+00  0.000000D+00  0.381185D-01  0.000000D+00
     14  0.000000D+00 -0.100476D+00  0.000000D+00  0.000000D+00  0.381185D-01
     15  0.000000D+00  0.000000D+00 -0.539297D+00  0.000000D+00  0.000000D+00
     16  0.155498D-01  0.000000D+00  0.000000D+00  0.000000D+00  0.000000D+00
     17  0.000000D+00  0.868889D-02  0.000000D+00  0.000000D+00  0.000000D+00
     18 -0.266952D-01  0.000000D+00  0.000000D+00  0.000000D+00  0.000000D+00
     19  0.155498D-01  0.000000D+00  0.000000D+00  0.000000D+00  0.000000D+00
     20  0.000000D+00  0.868889D-02  0.000000D+00  0.000000D+00  0.000000D+00
     21  0.266952D-01  0.000000D+00  0.000000D+00  0.000000D+00  0.000000D+00
                6             7             8             9            10 
      6  0.903103D+00
      7  0.000000D+00  0.110032D-01
      8 -0.110791D+00  0.000000D+00  0.297657D+00
      9 -0.181903D+00  0.000000D+00  0.127806D+00  0.152692D+00
     10  0.000000D+00  0.110032D-01  0.000000D+00  0.000000D+00  0.110032D-01
     11  0.110791D+00  0.000000D+00 -0.991135D-02  0.170154D-01  0.000000D+00
     12 -0.181903D+00  0.000000D+00 -0.170154D-01  0.292113D-01  0.000000D+00
     13  0.000000D+00  0.000000D+00  0.000000D+00  0.000000D+00  0.000000D+00
     14  0.000000D+00  0.000000D+00  0.000000D+00  0.000000D+00  0.000000D+00
     15  0.000000D+00  0.000000D+00  0.000000D+00  0.000000D+00  0.000000D+00
     16  0.000000D+00  0.000000D+00  0.000000D+00  0.000000D+00  0.000000D+00
     17  0.000000D+00  0.000000D+00  0.000000D+00  0.000000D+00  0.000000D+00
     18  0.000000D+00  0.000000D+00  0.000000D+00  0.000000D+00  0.000000D+00
     19  0.000000D+00  0.000000D+00  0.000000D+00  0.000000D+00  0.000000D+00
     20  0.000000D+00  0.000000D+00  0.000000D+00  0.000000D+00  0.000000D+00
     21  0.000000D+00  0.000000D+00  0.000000D+00  0.000000D+00  0.000000D+00
               11            12            13            14            15 
     11  0.297657D+00
     12 -0.127806D+00  0.152692D+00
     13  0.000000D+00  0.000000D+00  0.724601D+00
     14  0.000000D+00  0.000000D+00  0.000000D+00  0.123748D+00
     15  0.000000D+00  0.000000D+00  0.000000D+00  0.000000D+00  0.903103D+00
     16  0.000000D+00  0.000000D+00 -0.303296D+00  0.000000D+00 -0.110791D+00
     17  0.000000D+00  0.000000D+00  0.000000D+00 -0.306954D-01  0.000000D+00
     18  0.000000D+00  0.000000D+00 -0.118126D+00  0.000000D+00 -0.181903D+00
     19  0.000000D+00  0.000000D+00 -0.303296D+00  0.000000D+00  0.110791D+00
     20  0.000000D+00  0.000000D+00  0.000000D+00 -0.306954D-01  0.000000D+00
     21  0.000000D+00  0.000000D+00  0.118126D+00  0.000000D+00 -0.181903D+00
               16            17            18            19            20 
     16  0.297657D+00
     17  0.000000D+00  0.110032D-01
     18  0.127806D+00  0.000000D+00  0.152692D+00
     19 -0.991135D-02  0.000000D+00  0.170154D-01  0.297657D+00
     20  0.000000D+00  0.110032D-01  0.000000D+00  0.000000D+00  0.110032D-01
     21 -0.170154D-01  0.000000D+00  0.292113D-01 -0.127806D+00  0.000000D+00
               21 
     21  0.152692D+00
 Leave Link  716 at Wed Nov 19 18:14:29 2025, MaxMem=   104857600 cpu:               0.0 elap:               0.1
 (Enter /gaussian/g16.c01/intel64-sandybridge/g16/l103.exe)

 GradGradGradGradGradGradGradGradGradGradGradGradGradGradGradGradGradGrad
 Berny optimization.
 Search for a local minimum.
 Step number   1 out of a maximum of    2
 All quantities printed in internal units (Hartrees-Bohrs-Radians)
 Second derivative matrix not updated -- first step.
 ITU=  0
     Eigenvalues ---   -0.00000   0.02613   0.02613   0.08187   0.08967
     Eigenvalues ---    0.08967   0.17158   0.27878   0.28844   0.28844
     Eigenvalues ---    0.45191   0.94813   0.94813   1.03192   1.77819
 Eigenvalue     1 is  -6.66D-16 should be greater than     0.000000 Eigenvector:
                          Y6        X3        X4        Y7        Z4
   1                   -0.50000   0.50000  -0.50000   0.50000  -0.00000
                          Z3        Y1        Z7        Y4        Y5
   1                    0.00000   0.00000   0.00000  -0.00000   0.00000
 Quadratic step=3.885D-01 exceeds max=3.000D-01 adjusted using Lamda=-3.393D-02.
 Angle between NR and scaled steps=   7.61 degrees.
 Angle between quadratic step and forces=  46.90 degrees.
 ClnCor:  largest displacement from symmetrization is 2.41D-14 for atom     6.
 Linear search not attempted -- first point.
 ClnCor:  largest displacement from symmetrization is 2.96D-31 for atom     1.
 B after Tr=     0.000000    0.000000    0.000000
         Rot=    1.000000    0.000000   -0.000000   -0.000000 Ang=   0.00 deg.
 Variable       Old X    -DE/DX   Delta X   Delta X   Delta X     New X
                                 (Linear)    (Quad)   (Total)
    X1        0.00000   0.00000   0.00000  -0.00000   0.00000   0.00000
    Y1        0.00000   0.00000   0.00000  -0.00000   0.00000   0.00000
    Z1        0.00000   0.00000   0.00000  -0.00000   0.00000   0.00000
    X2        0.00000  -0.00000   0.00000   0.00000   0.00000   0.00000
    Y2        0.00000  -0.00000   0.00000   0.00000   0.00000   0.00000
    Z2        2.56096  -0.11458   0.00000  -0.15996  -0.15996   2.40099
    X3        0.00000   0.00000   0.00000   0.00000   0.00000   0.00000
    Y3        1.74746   0.00765   0.00000   0.00247   0.00247   1.74993
    Z3        3.57884   0.00810   0.00000  -0.09855  -0.09855   3.48029
    X4       -0.00000  -0.00000   0.00000  -0.00000   0.00000  -0.00000
    Y4       -1.74746  -0.00765   0.00000  -0.00247  -0.00247  -1.74993
    Z4        3.57884   0.00810   0.00000  -0.09855  -0.09855   3.48029
    X5        0.00000  -0.00000   0.00000  -0.00000  -0.00000   0.00000
    Y5        0.00000  -0.00000   0.00000  -0.00000  -0.00000   0.00000
    Z5       -2.56096   0.11458   0.00000   0.15996   0.15996  -2.40099
    X6       -1.74746  -0.00765   0.00000  -0.00247  -0.00247  -1.74993
    Y6        0.00000  -0.00000   0.00000  -0.00000  -0.00000   0.00000
    Z6       -3.57884  -0.00810   0.00000   0.09855   0.09855  -3.48029
    X7        1.74746   0.00765   0.00000   0.00247   0.00247   1.74993
    Y7       -0.00000   0.00000   0.00000  -0.00000  -0.00000  -0.00000
    Z7       -3.57884  -0.00810   0.00000   0.09855   0.09855  -3.48029
         Item               Value     Threshold  Converged?
 Maximum Force            0.114585     0.000450     NO 
 RMS     Force            0.035694     0.000300     NO 
 Maximum Displacement     0.159962     0.001800     NO 
 RMS     Displacement     0.065483     0.001200     NO 
 Predicted change in Energy=-1.829792D-02
 GradGradGradGradGradGradGradGradGradGradGradGradGradGradGradGradGradGrad

 Leave Link  103 at Wed Nov 19 18:14:30 2025, MaxMem=   104857600 cpu:               0.0 elap:               0.1
 (Enter /gaussian/g16.c01/intel64-sandybridge/g16/l9999.exe)
 Unable to Open any file for archive entry.
 1\1\GINC-THIOTIMOLINE-LARGE01\Force\RHF\STO-3G\C3H4\LCRISCI_VB\19-Nov-
 2025\0\\#p force hf/sto-3g\\title\\0,1\C,0.,0.,0.\C,0.,0.,1.3552\H,0.,
 0.92471616,1.89384149\H,0.,-0.92471616,1.89384149\C,0.,0.,-1.3552\H,-0
 .92471616,0.,-1.89384149\H,0.92471616,0.,-1.89384149\\Version=ES64L-G1
 6RevC.01\State=1-A1\HF=-114.407535\RMSD=1.713e-09\RMSF=3.569e-02\Dipol
 e=0.,0.,0.\Quadrupole=-0.3658206,-0.3658206,0.7316411,0.,0.,0.\PG=D02D
  [O(C1),C2(C1.C1),2SGD(H2)]\\@
 The archive entry for this job was punched.


 JUST WHEN YOU THINK YOU'VE GOT THE WORLD ON A STRING,
 YOU FIND OUT IT'S YOUR LEASH.
 Job cpu time:       0 days  0 hours  0 minutes  1.0 seconds.
 Elapsed time:       0 days  0 hours  0 minutes  2.2 seconds.
 File lengths (MBytes):  RWF=      5 Int=      0 D2E=      0 Chk=      1 Scr=      1
 Normal termination of Gaussian 16 at Wed Nov 19 18:14:30 2025.
