 Entering Gaussian System, Link 0=/gaussian/g16.c01/intel64-sandybridge/g16/g16
 Input=C2H6_D3d.gjf
 Output=C2H6_D3d.log
 Initial command:
 /gaussian/g16.c01/intel64-sandybridge/g16/l1.exe "/home/barone/lcrisci_vb/ACTUAL_PROJECTS/MRCC_new_Interface_project/TestingOldVersion/Symmetry/C2H6_D3d/Gau-4155049.inp" -scrdir="/home/barone/lcrisci_vb/ACTUAL_PROJECTS/MRCC_new_Interface_project/TestingOldVersion/Symmetry/C2H6_D3d/"
 Entering Link 1 = /gaussian/g16.c01/intel64-sandybridge/g16/l1.exe PID=   4155050.
  
 Copyright (c) 1988-2019, Gaussian, Inc.  All Rights Reserved.
  
 This is part of the Gaussian(R) 16 program.  It is based on
 the Gaussian(R) 09 system (copyright 2009, Gaussian, Inc.),
 the Gaussian(R) 03 system (copyright 2003, Gaussian, Inc.),
 the Gaussian(R) 98 system (copyright 1998, Gaussian, Inc.),
 the Gaussian(R) 94 system (copyright 1995, Gaussian, Inc.),
 the Gaussian 92(TM) system (copyright 1992, Gaussian, Inc.),
 the Gaussian 90(TM) system (copyright 1990, Gaussian, Inc.),
 the Gaussian 88(TM) system (copyright 1988, Gaussian, Inc.),
 the Gaussian 86(TM) system (copyright 1986, Carnegie Mellon
 University), and the Gaussian 82(TM) system (copyright 1983,
 Carnegie Mellon University). Gaussian is a federally registered
 trademark of Gaussian, Inc.
  
 This software contains proprietary and confidential information,
 including trade secrets, belonging to Gaussian, Inc.
  
 This software is provided under written license and may be
 used, copied, transmitted, or stored only in accord with that
 written license.
  
 The following legend is applicable only to US Government
 contracts under FAR:
  
                    RESTRICTED RIGHTS LEGEND
  
 Use, reproduction and disclosure by the US Government is
 subject to restrictions as set forth in subparagraphs (a)
 and (c) of the Commercial Computer Software - Restricted
 Rights clause in FAR 52.227-19.
  
 Gaussian, Inc.
 340 Quinnipiac St., Bldg. 40, Wallingford CT 06492
  
  
 ---------------------------------------------------------------
 Warning -- This program may not be used in any manner that
 competes with the business of Gaussian, Inc. or will provide
 assistance to any competitor of Gaussian, Inc.  The licensee
 of this program is prohibited from giving any competitor of
 Gaussian, Inc. access to this program.  By using this program,
 the user acknowledges that Gaussian, Inc. is engaged in the
 business of creating and licensing software in the field of
 computational chemistry and represents and warrants to the
 licensee that it is not a competitor of Gaussian, Inc. and that
 it will not use this program in any manner prohibited above.
 ---------------------------------------------------------------
  

 Cite this work as:
 Gaussian 16, Revision C.01,
 M. J. Frisch, G. W. Trucks, H. B. Schlegel, G. E. Scuseria, 
 M. A. Robb, J. R. Cheeseman, G. Scalmani, V. Barone, 
 G. A. Petersson, H. Nakatsuji, X. Li, M. Caricato, A. V. Marenich, 
 J. Bloino, B. G. Janesko, R. Gomperts, B. Mennucci, H. P. Hratchian, 
 J. V. Ortiz, A. F. Izmaylov, J. L. Sonnenberg, D. Williams-Young, 
 F. Ding, F. Lipparini, F. Egidi, J. Goings, B. Peng, A. Petrone, 
 T. Henderson, D. Ranasinghe, V. G. Zakrzewski, J. Gao, N. Rega, 
 G. Zheng, W. Liang, M. Hada, M. Ehara, K. Toyota, R. Fukuda, 
 J. Hasegawa, M. Ishida, T. Nakajima, Y. Honda, O. Kitao, H. Nakai, 
 T. Vreven, K. Throssell, J. A. Montgomery, Jr., J. E. Peralta, 
 F. Ogliaro, M. J. Bearpark, J. J. Heyd, E. N. Brothers, K. N. Kudin, 
 V. N. Staroverov, T. A. Keith, R. Kobayashi, J. Normand, 
 K. Raghavachari, A. P. Rendell, J. C. Burant, S. S. Iyengar, 
 J. Tomasi, M. Cossi, J. M. Millam, M. Klene, C. Adamo, R. Cammi, 
 J. W. Ochterski, R. L. Martin, K. Morokuma, O. Farkas, 
 J. B. Foresman, and D. J. Fox, Gaussian, Inc., Wallingford CT, 2019.
 
 ******************************************
 Gaussian 16:  ES64L-G16RevC.01  3-Jul-2019
                19-Nov-2025 
 ******************************************
 %chk=test_parall.chk
 %nprocs=1
 Will use up to    1 processors via shared memory.
 ----------------------------------------------------------------------
 #p force output=pickett External="CentralExt gau $PGAU/test_pr.dat $EG
 AU/test_en.dat 7 10 read parall 2"
 ----------------------------------------------------------------------
 1/10=10,18=10,30=1,38=1,172=1/1;
 2/12=2,17=6,18=5,29=2,40=1/2;
 3/11=9,25=1,30=1,41=9900000,43=2,71=1/1;
 4/20=17,22=1,24=3,113=1,114=1/2;
 6/7=2,8=2,9=2,10=2/1;
 7/7=1,44=-1/16;
 99/10=1024,12=1/99;
 Leave Link    1 at Wed Nov 19 18:16:25 2025, MaxMem=           0 cpu:               0.0 elap:               0.2
 (Enter /gaussian/g16.c01/intel64-sandybridge/g16/l101.exe)
 -----
 title
 -----
 Symbolic Z-matrix:
 Charge =  0 Multiplicity = 1
 C                     0.        0.       -0.77 
 H                     0.       -1.00881  -1.12667 
 H                     0.87365   0.5044   -1.12667 
 H                    -0.87365   0.5044   -1.12667 
 C                     0.        0.        0.77 
 H                    -0.87365  -0.5044    1.12667 
 H                     0.87365  -0.5044    1.12667 
 H                     0.        1.00881   1.12667 
 
 ITRead=  0  0  0  0  0  0  0  0
 MicOpt= -1 -1 -1 -1 -1 -1 -1 -1
 NAtoms=      8 NQM=        8 NQMF=       0 NMMI=      0 NMMIF=      0
                NMic=       0 NMicF=      0.
                    Isotopes and Nuclear Properties:
 (Nuclear quadrupole moments (NQMom) in fm**2, nuclear magnetic moments (NMagM)
  in nuclear magnetons)

  Atom         1           2           3           4           5           6           7           8
 IAtWgt=          12           1           1           1          12           1           1           1
 AtmWgt=  12.0000000   1.0078250   1.0078250   1.0078250  12.0000000   1.0078250   1.0078250   1.0078250
 NucSpn=           0           1           1           1           0           1           1           1
 AtZEff=  -0.0000000  -0.0000000  -0.0000000  -0.0000000  -0.0000000  -0.0000000  -0.0000000  -0.0000000
 NQMom=    0.0000000   0.0000000   0.0000000   0.0000000   0.0000000   0.0000000   0.0000000   0.0000000
 NMagM=    0.0000000   2.7928460   2.7928460   2.7928460   0.0000000   2.7928460   2.7928460   2.7928460
 AtZNuc=   6.0000000   1.0000000   1.0000000   1.0000000   6.0000000   1.0000000   1.0000000   1.0000000
 Leave Link  101 at Wed Nov 19 18:16:25 2025, MaxMem=   104857600 cpu:               0.3 elap:               0.4
 (Enter /gaussian/g16.c01/intel64-sandybridge/g16/l202.exe)
 ---------------------------------------------------------------------------------------------------
                            Z-MATRIX (ANGSTROMS AND DEGREES)
   CD    Cent   Atom    N1       Length/X        N2       Alpha/Y        N3        Beta/Z          J
 ---------------------------------------------------------------------------------------------------
      1      1  C        0   0.000000         -0.000000         -0.770000
      2      2  H        0   0.000000         -1.008806         -1.126666
      3      3  H        0   0.873651          0.504403         -1.126666
      4      4  H        0  -0.873651          0.504403         -1.126666
      5      5  C        0   0.000000          0.000000          0.770000
      6      6  H        0  -0.873651         -0.504403          1.126666
      7      7  H        0   0.873651         -0.504403          1.126666
      8      8  H        0   0.000000          1.008806          1.126666
 ---------------------------------------------------------------------------------------------------
                         Z-Matrix orientation:                         
 ---------------------------------------------------------------------
 Center     Atomic      Atomic             Coordinates (Angstroms)
 Number     Number       Type             X           Y           Z
 ---------------------------------------------------------------------
      1          6           0        0.000000   -0.000000   -0.770000
      2          1           0        0.000000   -1.008806   -1.126666
      3          1           0        0.873651    0.504403   -1.126666
      4          1           0       -0.873651    0.504403   -1.126666
      5          6           0        0.000000    0.000000    0.770000
      6          1           0       -0.873651   -0.504403    1.126666
      7          1           0        0.873651   -0.504403    1.126666
      8          1           0        0.000000    1.008806    1.126666
 ---------------------------------------------------------------------
                    Distance matrix (angstroms):
                    1          2          3          4          5
     1  C    0.000000
     2  H    1.070000   0.000000
     3  H    1.070000   1.747303   0.000000
     4  H    1.070000   1.747303   1.747303   0.000000
     5  C    1.540000   2.148263   2.148263   2.148263   0.000000
     6  H    2.148263   2.468845   3.024610   2.468845   1.070000
     7  H    2.148263   2.468845   2.468845   3.024610   1.070000
     8  H    2.148263   3.024610   2.468845   2.468845   1.070000
                    6          7          8
     6  H    0.000000
     7  H    1.747303   0.000000
     8  H    1.747303   1.747303   0.000000
 Stoichiometry    C2H6
 Framework group  D3D[C3(C.C),3SGD(H2)]
 Deg. of freedom     3
 Full point group                 D3D     NOp  12
 Largest Abelian subgroup         C2H     NOp   4
 Largest concise Abelian subgroup C2H     NOp   4
                         Standard orientation:                         
 ---------------------------------------------------------------------
 Center     Atomic      Atomic             Coordinates (Angstroms)
 Number     Number       Type             X           Y           Z
 ---------------------------------------------------------------------
      1          6           0        0.000000    0.000000    0.770000
      2          1           0        0.000000    1.008806    1.126666
      3          1           0        0.873651   -0.504403    1.126666
      4          1           0       -0.873651   -0.504403    1.126666
      5          6           0       -0.000000   -0.000000   -0.770000
      6          1           0       -0.873651    0.504403   -1.126666
      7          1           0        0.873651    0.504403   -1.126666
      8          1           0       -0.000000   -1.008806   -1.126666
 ---------------------------------------------------------------------
 Rotational constants (GHZ):          82.1231576          20.2293893          20.2293893
 Leave Link  202 at Wed Nov 19 18:16:26 2025, MaxMem=   104857600 cpu:               0.0 elap:               0.1
 (Enter /gaussian/g16.c01/intel64-sandybridge/g16/l301.exe)
 Standard basis: STO-3G (5D, 7F)
 Ernie: Thresh=  0.10000D-02 Tol=  0.10000D-05 Strict=F.
 There are     6 symmetry adapted cartesian basis functions of AG  symmetry.
 There are     2 symmetry adapted cartesian basis functions of BG  symmetry.
 There are     2 symmetry adapted cartesian basis functions of AU  symmetry.
 There are     6 symmetry adapted cartesian basis functions of BU  symmetry.
 There are     6 symmetry adapted basis functions of AG  symmetry.
 There are     2 symmetry adapted basis functions of BG  symmetry.
 There are     2 symmetry adapted basis functions of AU  symmetry.
 There are     6 symmetry adapted basis functions of BU  symmetry.
    16 basis functions,    48 primitive gaussians,    16 cartesian basis functions
     9 alpha electrons        9 beta electrons
       nuclear repulsion energy        42.6703233486 Hartrees.
 IExCor=    0 DFT=F Ex=HF Corr=None ExCW=0 ScaHFX=  1.000000
 ScaDFX=  1.000000  1.000000  1.000000  1.000000 ScalE2=  1.000000  1.000000
 IRadAn=      5 IRanWt=     -1 IRanGd=            0 ICorTp=0 IEmpDi=  4
 NAtoms=    8 NActive=    8 NUniq=    2 SFac= 4.00D+00 NAtFMM=   60 NAOKFM=F Big=F
 Integral buffers will be    131072 words long.
 Raffenetti 1 integral format.
 Two-electron integral symmetry is turned on.
 Leave Link  301 at Wed Nov 19 18:16:26 2025, MaxMem=   104857600 cpu:               0.1 elap:               0.1
 (Enter /gaussian/g16.c01/intel64-sandybridge/g16/l402.exe)
 External calculation of energy and first derivatives.
 Running external command "CentralExt gau $PGAU/test_pr.dat $EGAU/test_en.dat 7 10 read parall 2 R"
         input file       "/home/barone/lcrisci_vb/ACTUAL_PROJECTS/MRCC_new_Interface_project/TestingOldVersion/Symmetry/C2H6_D3d/Gau-4155050.EIn"
         output file      "/home/barone/lcrisci_vb/ACTUAL_PROJECTS/MRCC_new_Interface_project/TestingOldVersion/Symmetry/C2H6_D3d/Gau-4155050.EOu"
         message file     "/home/barone/lcrisci_vb/ACTUAL_PROJECTS/MRCC_new_Interface_project/TestingOldVersion/Symmetry/C2H6_D3d/Gau-4155050.EMs"
         fchk file        "/home/barone/lcrisci_vb/ACTUAL_PROJECTS/MRCC_new_Interface_project/TestingOldVersion/Symmetry/C2H6_D3d/Gau-4155050.EFC"
         mat. el file     "/home/barone/lcrisci_vb/ACTUAL_PROJECTS/MRCC_new_Interface_project/TestingOldVersion/Symmetry/C2H6_D3d/Gau-4155050.EUF"

================================================================================
CHECKING FOR MIXED ANALYTICAL/NUMERICAL GRADIENT MODE
================================================================================
Analyzing sections in /home/barone/lcrisci_vb/MyScript/PreambleGau/test_pr.dat for gradient mode (comment='#')

--- Section Analysis Summary ---
  default: NUMERICAL (dens=0, lines=0)

Total sections: 1
Analytical sections (0): []
Numerical sections (1): ['default']
--------------------------------

Mode Detection Results:
  OptFlag (gradient requested): 1
  Has analytical sections: False
  Has numerical sections: True
  Mixed mode activated: False
  All analytical mode: False
  All numerical mode: True
================================================================================

FAKE_FREQ CONVERSION: C Bohr=['0.0', '0.0', '1.455089059223'] -> Angstrom=[0.0, 0.0, 0.7699999699750972]
FAKE_FREQ CONVERSION: H Bohr=['0.0', '1.906366731565', '2.129090665188'] -> Angstrom=[0.0, 1.0088058299678346, 1.1266662599637987]
FAKE_FREQ CONVERSION: H Bohr=['1.650962018464', '-0.953183365782', '2.129090665188'] -> Angstrom=[0.8736514762375666, -0.5044029149836528, 1.1266662599637987]
FAKE_FREQ CONVERSION: H Bohr=['-1.650962018464', '-0.953183365782', '2.129090665188'] -> Angstrom=[-0.8736514762375666, -0.5044029149836528, 1.1266662599637987]
FAKE_FREQ CONVERSION: C Bohr=['-0.0', '-0.0', '-1.455089059223'] -> Angstrom=[-0.0, -0.0, -0.7699999699750972]
FAKE_FREQ CONVERSION: H Bohr=['-1.650962018464', '0.953183365782', '-2.129090665188'] -> Angstrom=[-0.8736514762375666, 0.5044029149836528, -1.1266662599637987]
FAKE_FREQ CONVERSION: H Bohr=['1.650962018464', '0.953183365782', '-2.129090665188'] -> Angstrom=[0.8736514762375666, 0.5044029149836528, -1.1266662599637987]
FAKE_FREQ CONVERSION: H Bohr=['-0.0', '-1.906366731565', '-2.129090665188'] -> Angstrom=[-0.0, -1.0088058299678346, -1.1266662599637987]
Checking original directory for Gaussian input: /home/barone/lcrisci_vb/ACTUAL_PROJECTS/MRCC_new_Interface_project/TestingOldVersion/Symmetry/C2H6_D3d
Found Gaussian input file with External keyword: /home/barone/lcrisci_vb/ACTUAL_PROJECTS/MRCC_new_Interface_project/TestingOldVersion/Symmetry/C2H6_D3d/C2H6_D3d.gjf
GEOMETRY CONVERSION: Task 'central' - Converted from Bohr to Angstrom
  First atom coordinates: Bohr = [0.         0.         1.45508906], Angstrom = [0.         0.         0.76999997]
GEOMETRY CONVERSION: Task 'atom_1_ixyz_1_up' - Converted from Bohr to Angstrom
  First atom coordinates: Bohr = [0.00188973 0.         1.45508906], Angstrom = [0.001      0.         0.76999997]
GEOMETRY CONVERSION: Task 'atom_1_ixyz_2_up' - Converted from Bohr to Angstrom
  First atom coordinates: Bohr = [0.         0.00188973 1.45508906], Angstrom = [0.         0.001      0.76999997]
GEOMETRY CONVERSION: Task 'atom_1_ixyz_2_down' - Converted from Bohr to Angstrom
  First atom coordinates: Bohr = [ 0.         -0.00188973  1.45508906], Angstrom = [ 0.         -0.001       0.76999997]
GEOMETRY CONVERSION: Task 'atom_1_ixyz_3_up' - Converted from Bohr to Angstrom
  First atom coordinates: Bohr = [0.         0.         1.45697879], Angstrom = [0.         0.         0.77099997]
GEOMETRY CONVERSION: Task 'atom_1_ixyz_3_down' - Converted from Bohr to Angstrom
  First atom coordinates: Bohr = [0.         0.         1.45319933], Angstrom = [0.         0.         0.76899997]
GEOMETRY CONVERSION: Task 'atom_2_ixyz_1_up' - Converted from Bohr to Angstrom
  First atom coordinates: Bohr = [0.         0.         1.45508906], Angstrom = [0.         0.         0.76999997]
GEOMETRY CONVERSION: Task 'atom_2_ixyz_2_up' - Converted from Bohr to Angstrom
  First atom coordinates: Bohr = [0.         0.         1.45508906], Angstrom = [0.         0.         0.76999997]
GEOMETRY CONVERSION: Task 'atom_2_ixyz_2_down' - Converted from Bohr to Angstrom
  First atom coordinates: Bohr = [0.         0.         1.45508906], Angstrom = [0.         0.         0.76999997]
GEOMETRY CONVERSION: Task 'atom_2_ixyz_3_up' - Converted from Bohr to Angstrom
  First atom coordinates: Bohr = [0.         0.         1.45508906], Angstrom = [0.         0.         0.76999997]
GEOMETRY CONVERSION: Task 'atom_2_ixyz_3_down' - Converted from Bohr to Angstrom
  First atom coordinates: Bohr = [0.         0.         1.45508906], Angstrom = [0.         0.         0.76999997]
✓ Extracted Input orientation (8 atoms)
✓ Extracted Original coordinates (8 atoms)
DEBUG: Preserved fake frequency log as FAKE_FREQ/fake_freq_1.log
DEBUG: Expected atoms: 8
DEBUG: Task central: 8 atoms
DEBUG: Task atom_1_ixyz_2_up: 8 atoms
DEBUG: Task atom_1_ixyz_2_down: 8 atoms
DEBUG: Task atom_1_ixyz_3_up: 8 atoms
DEBUG: Task atom_1_ixyz_3_down: 8 atoms
DEBUG: Task atom_2_ixyz_2_up: 8 atoms
DEBUG: Task atom_2_ixyz_2_down: 8 atoms
DEBUG: Task atom_2_ixyz_3_up: 8 atoms
DEBUG: Task atom_2_ixyz_3_down: 8 atoms
DEBUG: All geometries have correct atom count (8)

================================================================================
STANDARD NUMERICAL GRADIENT MODE (no dens=2 detected)
================================================================================
Created iteration directory: /home/barone/lcrisci_vb/ACTUAL_PROJECTS/MRCC_new_Interface_project/TestingOldVersion/Symmetry/C2H6_D3d/Iterations/Iteration_1
INFO: This is iteration number 1
INFO: Running numerical gradient calculation in iteration 1
Running parallel energy calculations with 2 threads
TASK SUBMISSION: Submitting 9 tasks
  - Task: central
  - Task: atom_1_ixyz_2_up
  - Task: atom_1_ixyz_2_down
  - Task: atom_1_ixyz_3_up
  - Task: atom_1_ixyz_3_down
  - Task: atom_2_ixyz_2_up
  - Task: atom_2_ixyz_2_down
  - Task: atom_2_ixyz_3_up
  - Task: atom_2_ixyz_3_down
PARALLEL EXECUTION: Starting with 2 workers
PARALLEL EXECUTION: Total tasks to execute: 9
PARALLEL EXECUTION: Submitted tasks: ['atom_1_ixyz_2_down', 'atom_1_ixyz_2_up', 'atom_1_ixyz_3_down', 'atom_1_ixyz_3_up', 'atom_2_ixyz_2_down', 'atom_2_ixyz_2_up', 'atom_2_ixyz_3_down', 'atom_2_ixyz_3_up', 'central']
PARALLEL EXECUTION: Submitted 9 futures to executor
UNIT CONVERSION: Task 'central' - Wrote .EIn file in BohrUNIT CONVERSION: Task 'atom_1_ixyz_2_up' - Wrote .EIn file in Bohr

  First atom: Angstrom = [0.         0.001      0.76999997], Bohr = [0.         0.00188973 1.45508906]  First atom: Angstrom = [0.         0.         0.76999997], Bohr = [0.         0.         1.45508906]

THREAD-22885888419584: Starting execution for task 'atom_1_ixyz_2_up'THREAD-22885890520832: Starting execution for task 'central'

THREAD-22885890520832: Task directory: /home/barone/lcrisci_vb/ACTUAL_PROJECTS/MRCC_new_Interface_project/TestingOldVersion/Symmetry/C2H6_D3d/Iterations/Iteration_1/task_central
THREAD-22885888419584: Task directory: /home/barone/lcrisci_vb/ACTUAL_PROJECTS/MRCC_new_Interface_project/TestingOldVersion/Symmetry/C2H6_D3d/Iterations/Iteration_1/task_atom_1_ixyz_2_upTHREAD-22885890520832: Input file: /home/barone/lcrisci_vb/ACTUAL_PROJECTS/MRCC_new_Interface_project/TestingOldVersion/Symmetry/C2H6_D3d/Iterations/Iteration_1/task_central/Gau-central.EIn

THREAD-22885888419584: Input file: /home/barone/lcrisci_vb/ACTUAL_PROJECTS/MRCC_new_Interface_project/TestingOldVersion/Symmetry/C2H6_D3d/Iterations/Iteration_1/task_atom_1_ixyz_2_up/Gau-atom_1_ixyz_2_up.EIn
THREAD-22885890520832: Original working directory: /home/barone/lcrisci_vb/ACTUAL_PROJECTS/MRCC_new_Interface_project/TestingOldVersion/Symmetry/C2H6_D3d
THREAD-22885890520832: Test mode: FalseTHREAD-22885888419584: Original working directory: /home/barone/lcrisci_vb/ACTUAL_PROJECTS/MRCC_new_Interface_project/TestingOldVersion/Symmetry/C2H6_D3d

THREAD-22885888419584: Test mode: FalseTHREAD-22885890520832: Executing command: /home/barone/lcrisci_vb/python3.9/bin/python3.9 /home/barone/lcrisci_vb/ACTUAL_PROJECTS/MRCC_new_Interface_project/TestingOldVersion/OldVersion/Executables/GauExt test_pr.dat test_en.dat 7 10 READ R Gau-central.EIn energy_output.dat

THREAD-22885888419584: Executing command: /home/barone/lcrisci_vb/python3.9/bin/python3.9 /home/barone/lcrisci_vb/ACTUAL_PROJECTS/MRCC_new_Interface_project/TestingOldVersion/OldVersion/Executables/GauExt test_pr.dat test_en.dat 7 10 READ R Gau-atom_1_ixyz_2_up.EIn energy_output.datTHREAD-22885890520832: Working directory for subprocess: /home/barone/lcrisci_vb/ACTUAL_PROJECTS/MRCC_new_Interface_project/TestingOldVersion/Symmetry/C2H6_D3d/Iterations/Iteration_1/task_central

THREAD-22885888419584: Working directory for subprocess: /home/barone/lcrisci_vb/ACTUAL_PROJECTS/MRCC_new_Interface_project/TestingOldVersion/Symmetry/C2H6_D3d/Iterations/Iteration_1/task_atom_1_ixyz_2_up
THREAD-22885890520832: Subprocess completed successfully
THREAD-22885890520832: Subprocess stdout (last 200 chars): d !scheme section at line 1.
    Line 2: Found coefficient: 1.0
  Found !formula marker at line 3
    Found formula at line 4: e=c1*e1
Finished parsing scheme: [('coeff', 1.0)]
Found formula: e=c1*e1
THREAD-22885888419584: Subprocess completed successfully

THREAD-22885890520832: Output file path: /home/barone/lcrisci_vb/ACTUAL_PROJECTS/MRCC_new_Interface_project/TestingOldVersion/Symmetry/C2H6_D3d/Iterations/Iteration_1/task_central/energy_output.datTHREAD-22885888419584: Subprocess stdout (last 200 chars): d !scheme section at line 1.
    Line 2: Found coefficient: 1.0
  Found !formula marker at line 3
    Found formula at line 4: e=c1*e1
Finished parsing scheme: [('coeff', 1.0)]
Found formula: e=c1*e1


THREAD-22885888419584: Output file path: /home/barone/lcrisci_vb/ACTUAL_PROJECTS/MRCC_new_Interface_project/TestingOldVersion/Symmetry/C2H6_D3d/Iterations/Iteration_1/task_atom_1_ixyz_2_up/energy_output.datTHREAD-22885890520832: Already in original directory /home/barone/lcrisci_vb/ACTUAL_PROJECTS/MRCC_new_Interface_project/TestingOldVersion/Symmetry/C2H6_D3d

THREAD-22885888419584: Already in original directory /home/barone/lcrisci_vb/ACTUAL_PROJECTS/MRCC_new_Interface_project/TestingOldVersion/Symmetry/C2H6_D3d
PARALLEL EXECUTION: Task 'central' completed successfully with energy -78.304346675557
PARALLEL EXECUTION: Task 'atom_1_ixyz_2_up' completed successfully with energy -78.3043450354
UNIT CONVERSION: Task 'atom_1_ixyz_2_down' - Wrote .EIn file in Bohr
  First atom: Angstrom = [ 0.         -0.001       0.76999997], Bohr = [ 0.         -0.00188973  1.45508906]UNIT CONVERSION: Task 'atom_1_ixyz_3_up' - Wrote .EIn file in Bohr

THREAD-22885890520832: Starting execution for task 'atom_1_ixyz_2_down'  First atom: Angstrom = [0.         0.         0.77099997], Bohr = [0.         0.         1.45697879]

THREAD-22885890520832: Task directory: /home/barone/lcrisci_vb/ACTUAL_PROJECTS/MRCC_new_Interface_project/TestingOldVersion/Symmetry/C2H6_D3d/Iterations/Iteration_1/task_atom_1_ixyz_2_downTHREAD-22885888419584: Starting execution for task 'atom_1_ixyz_3_up'

THREAD-22885888419584: Task directory: /home/barone/lcrisci_vb/ACTUAL_PROJECTS/MRCC_new_Interface_project/TestingOldVersion/Symmetry/C2H6_D3d/Iterations/Iteration_1/task_atom_1_ixyz_3_up
THREAD-22885890520832: Input file: /home/barone/lcrisci_vb/ACTUAL_PROJECTS/MRCC_new_Interface_project/TestingOldVersion/Symmetry/C2H6_D3d/Iterations/Iteration_1/task_atom_1_ixyz_2_down/Gau-atom_1_ixyz_2_down.EInTHREAD-22885888419584: Input file: /home/barone/lcrisci_vb/ACTUAL_PROJECTS/MRCC_new_Interface_project/TestingOldVersion/Symmetry/C2H6_D3d/Iterations/Iteration_1/task_atom_1_ixyz_3_up/Gau-atom_1_ixyz_3_up.EIn

THREAD-22885888419584: Original working directory: /home/barone/lcrisci_vb/ACTUAL_PROJECTS/MRCC_new_Interface_project/TestingOldVersion/Symmetry/C2H6_D3d
THREAD-22885890520832: Original working directory: /home/barone/lcrisci_vb/ACTUAL_PROJECTS/MRCC_new_Interface_project/TestingOldVersion/Symmetry/C2H6_D3dTHREAD-22885888419584: Test mode: False

THREAD-22885890520832: Test mode: FalseTHREAD-22885888419584: Executing command: /home/barone/lcrisci_vb/python3.9/bin/python3.9 /home/barone/lcrisci_vb/ACTUAL_PROJECTS/MRCC_new_Interface_project/TestingOldVersion/OldVersion/Executables/GauExt test_pr.dat test_en.dat 7 10 READ R Gau-atom_1_ixyz_3_up.EIn energy_output.dat

THREAD-22885890520832: Executing command: /home/barone/lcrisci_vb/python3.9/bin/python3.9 /home/barone/lcrisci_vb/ACTUAL_PROJECTS/MRCC_new_Interface_project/TestingOldVersion/OldVersion/Executables/GauExt test_pr.dat test_en.dat 7 10 READ R Gau-atom_1_ixyz_2_down.EIn energy_output.datTHREAD-22885888419584: Working directory for subprocess: /home/barone/lcrisci_vb/ACTUAL_PROJECTS/MRCC_new_Interface_project/TestingOldVersion/Symmetry/C2H6_D3d/Iterations/Iteration_1/task_atom_1_ixyz_3_up

THREAD-22885890520832: Working directory for subprocess: /home/barone/lcrisci_vb/ACTUAL_PROJECTS/MRCC_new_Interface_project/TestingOldVersion/Symmetry/C2H6_D3d/Iterations/Iteration_1/task_atom_1_ixyz_2_down
THREAD-22885890520832: Subprocess completed successfully
THREAD-22885888419584: Subprocess completed successfullyTHREAD-22885890520832: Subprocess stdout (last 200 chars): d !scheme section at line 1.
    Line 2: Found coefficient: 1.0
  Found !formula marker at line 3
    Found formula at line 4: e=c1*e1
Finished parsing scheme: [('coeff', 1.0)]
Found formula: e=c1*e1


THREAD-22885890520832: Output file path: /home/barone/lcrisci_vb/ACTUAL_PROJECTS/MRCC_new_Interface_project/TestingOldVersion/Symmetry/C2H6_D3d/Iterations/Iteration_1/task_atom_1_ixyz_2_down/energy_output.datTHREAD-22885888419584: Subprocess stdout (last 200 chars): d !scheme section at line 1.
    Line 2: Found coefficient: 1.0
  Found !formula marker at line 3
    Found formula at line 4: e=c1*e1
Finished parsing scheme: [('coeff', 1.0)]
Found formula: e=c1*e1


THREAD-22885888419584: Output file path: /home/barone/lcrisci_vb/ACTUAL_PROJECTS/MRCC_new_Interface_project/TestingOldVersion/Symmetry/C2H6_D3d/Iterations/Iteration_1/task_atom_1_ixyz_3_up/energy_output.datTHREAD-22885890520832: Already in original directory /home/barone/lcrisci_vb/ACTUAL_PROJECTS/MRCC_new_Interface_project/TestingOldVersion/Symmetry/C2H6_D3d

THREAD-22885888419584: Already in original directory /home/barone/lcrisci_vb/ACTUAL_PROJECTS/MRCC_new_Interface_project/TestingOldVersion/Symmetry/C2H6_D3d
PARALLEL EXECUTION: Task 'atom_1_ixyz_2_down' completed successfully with energy -78.304345038372
PARALLEL EXECUTION: Task 'atom_1_ixyz_3_up' completed successfully with energy -78.30430171673
UNIT CONVERSION: Task 'atom_1_ixyz_3_down' - Wrote .EIn file in BohrUNIT CONVERSION: Task 'atom_2_ixyz_2_up' - Wrote .EIn file in Bohr

  First atom: Angstrom = [0.         0.         0.76999997], Bohr = [0.         0.         1.45508906]  First atom: Angstrom = [0.         0.         0.76899997], Bohr = [0.         0.         1.45319933]

THREAD-22885888419584: Starting execution for task 'atom_2_ixyz_2_up'
THREAD-22885890520832: Starting execution for task 'atom_1_ixyz_3_down'
THREAD-22885888419584: Task directory: /home/barone/lcrisci_vb/ACTUAL_PROJECTS/MRCC_new_Interface_project/TestingOldVersion/Symmetry/C2H6_D3d/Iterations/Iteration_1/task_atom_2_ixyz_2_up
THREAD-22885890520832: Task directory: /home/barone/lcrisci_vb/ACTUAL_PROJECTS/MRCC_new_Interface_project/TestingOldVersion/Symmetry/C2H6_D3d/Iterations/Iteration_1/task_atom_1_ixyz_3_downTHREAD-22885888419584: Input file: /home/barone/lcrisci_vb/ACTUAL_PROJECTS/MRCC_new_Interface_project/TestingOldVersion/Symmetry/C2H6_D3d/Iterations/Iteration_1/task_atom_2_ixyz_2_up/Gau-atom_2_ixyz_2_up.EIn

THREAD-22885890520832: Input file: /home/barone/lcrisci_vb/ACTUAL_PROJECTS/MRCC_new_Interface_project/TestingOldVersion/Symmetry/C2H6_D3d/Iterations/Iteration_1/task_atom_1_ixyz_3_down/Gau-atom_1_ixyz_3_down.EIn
THREAD-22885888419584: Original working directory: /home/barone/lcrisci_vb/ACTUAL_PROJECTS/MRCC_new_Interface_project/TestingOldVersion/Symmetry/C2H6_D3d
THREAD-22885888419584: Test mode: False
THREAD-22885888419584: Executing command: /home/barone/lcrisci_vb/python3.9/bin/python3.9 /home/barone/lcrisci_vb/ACTUAL_PROJECTS/MRCC_new_Interface_project/TestingOldVersion/OldVersion/Executables/GauExt test_pr.dat test_en.dat 7 10 READ R Gau-atom_2_ixyz_2_up.EIn energy_output.datTHREAD-22885890520832: Original working directory: /home/barone/lcrisci_vb/ACTUAL_PROJECTS/MRCC_new_Interface_project/TestingOldVersion/Symmetry/C2H6_D3d

THREAD-22885890520832: Test mode: False
THREAD-22885888419584: Working directory for subprocess: /home/barone/lcrisci_vb/ACTUAL_PROJECTS/MRCC_new_Interface_project/TestingOldVersion/Symmetry/C2H6_D3d/Iterations/Iteration_1/task_atom_2_ixyz_2_up
THREAD-22885890520832: Executing command: /home/barone/lcrisci_vb/python3.9/bin/python3.9 /home/barone/lcrisci_vb/ACTUAL_PROJECTS/MRCC_new_Interface_project/TestingOldVersion/OldVersion/Executables/GauExt test_pr.dat test_en.dat 7 10 READ R Gau-atom_1_ixyz_3_down.EIn energy_output.dat
THREAD-22885890520832: Working directory for subprocess: /home/barone/lcrisci_vb/ACTUAL_PROJECTS/MRCC_new_Interface_project/TestingOldVersion/Symmetry/C2H6_D3d/Iterations/Iteration_1/task_atom_1_ixyz_3_down
THREAD-22885888419584: Subprocess completed successfully
THREAD-22885888419584: Subprocess stdout (last 200 chars): d !scheme section at line 1.
    Line 2: Found coefficient: 1.0
  Found !formula marker at line 3
    Found formula at line 4: e=c1*e1
Finished parsing scheme: [('coeff', 1.0)]
Found formula: e=c1*e1

THREAD-22885888419584: Output file path: /home/barone/lcrisci_vb/ACTUAL_PROJECTS/MRCC_new_Interface_project/TestingOldVersion/Symmetry/C2H6_D3d/Iterations/Iteration_1/task_atom_2_ixyz_2_up/energy_output.dat
THREAD-22885890520832: Subprocess completed successfullyTHREAD-22885888419584: Already in original directory /home/barone/lcrisci_vb/ACTUAL_PROJECTS/MRCC_new_Interface_project/TestingOldVersion/Symmetry/C2H6_D3d

THREAD-22885890520832: Subprocess stdout (last 200 chars): d !scheme section at line 1.
    Line 2: Found coefficient: 1.0
  Found !formula marker at line 3
    Found formula at line 4: e=c1*e1
Finished parsing scheme: [('coeff', 1.0)]
Found formula: e=c1*e1

THREAD-22885890520832: Output file path: /home/barone/lcrisci_vb/ACTUAL_PROJECTS/MRCC_new_Interface_project/TestingOldVersion/Symmetry/C2H6_D3d/Iterations/Iteration_1/task_atom_1_ixyz_3_down/energy_output.dat
THREAD-22885890520832: Already in original directory /home/barone/lcrisci_vb/ACTUAL_PROJECTS/MRCC_new_Interface_project/TestingOldVersion/Symmetry/C2H6_D3d
PARALLEL EXECUTION: Task 'atom_2_ixyz_2_up' completed successfully with energy -78.304368774961
PARALLEL EXECUTION: Task 'atom_1_ixyz_3_down' completed successfully with energy -78.304389106556
UNIT CONVERSION: Task 'atom_2_ixyz_2_down' - Wrote .EIn file in Bohr
  First atom: Angstrom = [0.         0.         0.76999997], Bohr = [0.         0.         1.45508906]
UNIT CONVERSION: Task 'atom_2_ixyz_3_up' - Wrote .EIn file in Bohr
THREAD-22885888419584: Starting execution for task 'atom_2_ixyz_2_down'  First atom: Angstrom = [0.         0.         0.76999997], Bohr = [0.         0.         1.45508906]

THREAD-22885888419584: Task directory: /home/barone/lcrisci_vb/ACTUAL_PROJECTS/MRCC_new_Interface_project/TestingOldVersion/Symmetry/C2H6_D3d/Iterations/Iteration_1/task_atom_2_ixyz_2_down
THREAD-22885890520832: Starting execution for task 'atom_2_ixyz_3_up'
THREAD-22885888419584: Input file: /home/barone/lcrisci_vb/ACTUAL_PROJECTS/MRCC_new_Interface_project/TestingOldVersion/Symmetry/C2H6_D3d/Iterations/Iteration_1/task_atom_2_ixyz_2_down/Gau-atom_2_ixyz_2_down.EIn
THREAD-22885890520832: Task directory: /home/barone/lcrisci_vb/ACTUAL_PROJECTS/MRCC_new_Interface_project/TestingOldVersion/Symmetry/C2H6_D3d/Iterations/Iteration_1/task_atom_2_ixyz_3_up
THREAD-22885890520832: Input file: /home/barone/lcrisci_vb/ACTUAL_PROJECTS/MRCC_new_Interface_project/TestingOldVersion/Symmetry/C2H6_D3d/Iterations/Iteration_1/task_atom_2_ixyz_3_up/Gau-atom_2_ixyz_3_up.EIn
THREAD-22885888419584: Original working directory: /home/barone/lcrisci_vb/ACTUAL_PROJECTS/MRCC_new_Interface_project/TestingOldVersion/Symmetry/C2H6_D3d
THREAD-22885888419584: Test mode: False
THREAD-22885890520832: Original working directory: /home/barone/lcrisci_vb/ACTUAL_PROJECTS/MRCC_new_Interface_project/TestingOldVersion/Symmetry/C2H6_D3d
THREAD-22885888419584: Executing command: /home/barone/lcrisci_vb/python3.9/bin/python3.9 /home/barone/lcrisci_vb/ACTUAL_PROJECTS/MRCC_new_Interface_project/TestingOldVersion/OldVersion/Executables/GauExt test_pr.dat test_en.dat 7 10 READ R Gau-atom_2_ixyz_2_down.EIn energy_output.dat
THREAD-22885890520832: Test mode: False
THREAD-22885888419584: Working directory for subprocess: /home/barone/lcrisci_vb/ACTUAL_PROJECTS/MRCC_new_Interface_project/TestingOldVersion/Symmetry/C2H6_D3d/Iterations/Iteration_1/task_atom_2_ixyz_2_down
THREAD-22885890520832: Executing command: /home/barone/lcrisci_vb/python3.9/bin/python3.9 /home/barone/lcrisci_vb/ACTUAL_PROJECTS/MRCC_new_Interface_project/TestingOldVersion/OldVersion/Executables/GauExt test_pr.dat test_en.dat 7 10 READ R Gau-atom_2_ixyz_3_up.EIn energy_output.dat
THREAD-22885890520832: Working directory for subprocess: /home/barone/lcrisci_vb/ACTUAL_PROJECTS/MRCC_new_Interface_project/TestingOldVersion/Symmetry/C2H6_D3d/Iterations/Iteration_1/task_atom_2_ixyz_3_up
THREAD-22885890520832: Subprocess completed successfully
THREAD-22885890520832: Subprocess stdout (last 200 chars): d !scheme section at line 1.
    Line 2: Found coefficient: 1.0
  Found !formula marker at line 3
    Found formula at line 4: e=c1*e1
Finished parsing scheme: [('coeff', 1.0)]
Found formula: e=c1*e1

THREAD-22885890520832: Output file path: /home/barone/lcrisci_vb/ACTUAL_PROJECTS/MRCC_new_Interface_project/TestingOldVersion/Symmetry/C2H6_D3d/Iterations/Iteration_1/task_atom_2_ixyz_3_up/energy_output.dat
THREAD-22885890520832: Already in original directory /home/barone/lcrisci_vb/ACTUAL_PROJECTS/MRCC_new_Interface_project/TestingOldVersion/Symmetry/C2H6_D3d
THREAD-22885888419584: Subprocess completed successfully
THREAD-22885888419584: Subprocess stdout (last 200 chars): d !scheme section at line 1.
    Line 2: Found coefficient: 1.0
  Found !formula marker at line 3
    Found formula at line 4: e=c1*e1
Finished parsing scheme: [('coeff', 1.0)]
Found formula: e=c1*e1

THREAD-22885888419584: Output file path: /home/barone/lcrisci_vb/ACTUAL_PROJECTS/MRCC_new_Interface_project/TestingOldVersion/Symmetry/C2H6_D3d/Iterations/Iteration_1/task_atom_2_ixyz_2_down/energy_output.dat
THREAD-22885888419584: Already in original directory /home/barone/lcrisci_vb/ACTUAL_PROJECTS/MRCC_new_Interface_project/TestingOldVersion/Symmetry/C2H6_D3d
PARALLEL EXECUTION: Task 'atom_2_ixyz_3_up' completed successfully with energy -78.304362841041
PARALLEL EXECUTION: Task 'atom_2_ixyz_2_down' completed successfully with energy -78.304322899543
UNIT CONVERSION: Task 'atom_2_ixyz_3_down' - Wrote .EIn file in Bohr
  First atom: Angstrom = [0.         0.         0.76999997], Bohr = [0.         0.         1.45508906]
THREAD-22885890520832: Starting execution for task 'atom_2_ixyz_3_down'
THREAD-22885890520832: Task directory: /home/barone/lcrisci_vb/ACTUAL_PROJECTS/MRCC_new_Interface_project/TestingOldVersion/Symmetry/C2H6_D3d/Iterations/Iteration_1/task_atom_2_ixyz_3_down
THREAD-22885890520832: Input file: /home/barone/lcrisci_vb/ACTUAL_PROJECTS/MRCC_new_Interface_project/TestingOldVersion/Symmetry/C2H6_D3d/Iterations/Iteration_1/task_atom_2_ixyz_3_down/Gau-atom_2_ixyz_3_down.EIn
THREAD-22885890520832: Original working directory: /home/barone/lcrisci_vb/ACTUAL_PROJECTS/MRCC_new_Interface_project/TestingOldVersion/Symmetry/C2H6_D3d
THREAD-22885890520832: Test mode: False
THREAD-22885890520832: Executing command: /home/barone/lcrisci_vb/python3.9/bin/python3.9 /home/barone/lcrisci_vb/ACTUAL_PROJECTS/MRCC_new_Interface_project/TestingOldVersion/OldVersion/Executables/GauExt test_pr.dat test_en.dat 7 10 READ R Gau-atom_2_ixyz_3_down.EIn energy_output.dat
THREAD-22885890520832: Working directory for subprocess: /home/barone/lcrisci_vb/ACTUAL_PROJECTS/MRCC_new_Interface_project/TestingOldVersion/Symmetry/C2H6_D3d/Iterations/Iteration_1/task_atom_2_ixyz_3_down
THREAD-22885890520832: Subprocess completed successfully
THREAD-22885890520832: Subprocess stdout (last 200 chars): d !scheme section at line 1.
    Line 2: Found coefficient: 1.0
  Found !formula marker at line 3
    Found formula at line 4: e=c1*e1
Finished parsing scheme: [('coeff', 1.0)]
Found formula: e=c1*e1

THREAD-22885890520832: Output file path: /home/barone/lcrisci_vb/ACTUAL_PROJECTS/MRCC_new_Interface_project/TestingOldVersion/Symmetry/C2H6_D3d/Iterations/Iteration_1/task_atom_2_ixyz_3_down/energy_output.dat
THREAD-22885890520832: Already in original directory /home/barone/lcrisci_vb/ACTUAL_PROJECTS/MRCC_new_Interface_project/TestingOldVersion/Symmetry/C2H6_D3d
PARALLEL EXECUTION: Task 'atom_2_ixyz_3_down' completed successfully with energy -78.304330087103
PARALLEL EXECUTION: Completed tasks: ['atom_1_ixyz_2_down', 'atom_1_ixyz_2_up', 'atom_1_ixyz_3_down', 'atom_1_ixyz_3_up', 'atom_2_ixyz_2_down', 'atom_2_ixyz_2_up', 'atom_2_ixyz_3_down', 'atom_2_ixyz_3_up', 'central']
PARALLEL EXECUTION: Failed tasks: []
PARALLEL EXECUTION: All 9 tasks completed successfully
TASK COMPLETION: Received 9 results
  - Task central: Energy = -78.304346675557
  - Task atom_1_ixyz_2_up: Energy = -78.3043450354
  - Task atom_1_ixyz_2_down: Energy = -78.304345038372
  - Task atom_1_ixyz_3_up: Energy = -78.30430171673
  - Task atom_2_ixyz_2_up: Energy = -78.304368774961
  - Task atom_1_ixyz_3_down: Energy = -78.304389106556
  - Task atom_2_ixyz_3_up: Energy = -78.304362841041
  - Task atom_2_ixyz_2_down: Energy = -78.304322899543
  - Task atom_2_ixyz_3_down: Energy = -78.304330087103
WARNING: Could not find point group information in log file
Returning minimal PointGroupInfo with empty operations (will use fallback)
ADVANCED SYMMETRY: Using Unknown point group
ADVANCED SYMMETRY: 0 operations found in log
ADVANCED SYMMETRY: Applying symmetry-aware gradient assembly
  (with automatic inference from forces if needed)
AUTO-DETECT: Found R_coords with RMSD = 0.00e+00 Bohr
Gradient transformation matrix R^T (original → central):
  [1. 0. 0.]
  [0. 1. 0.]
  [0. 0. 1.]

⚠ No explicit symmetry operations found in log
Attempting to infer operations from forces...

=== INFERRING SYMMETRY OPERATIONS FROM FORCES ===
Atoms with displacements: [0, 1]
Atoms to infer: [2, 3, 4, 5, 6, 7]
Testing 60 transformation matrices...
Operation 2: Atom 1→2, RMSD=5.56e-10, Non-Abelian
  Transformation matrix:
    [-0.5        0.8660254  0.       ]
    [-0.8660254 -0.5        0.       ]
    [0. 0. 1.]
  Nuclear permutation: [0, 2, 3, 1, 4, 6, 7, 5]
Operation 3: Atom 1→3, RMSD=5.56e-10, Non-Abelian
  Transformation matrix:
    [-0.5       -0.8660254  0.       ]
    [ 0.8660254 -0.5        0.       ]
    [0. 0. 1.]
  Nuclear permutation: [0, 3, 1, 2, 4, 7, 5, 6]
WARNING: Permutation 1→1 has RMSD=1.72e-02 > tolerance=1.00e-05
WARNING: Permutation 2→2 has RMSD=1.72e-02 > tolerance=1.00e-05
WARNING: Permutation 3→3 has RMSD=1.72e-02 > tolerance=1.00e-05
WARNING: Permutation 5→5 has RMSD=1.72e-02 > tolerance=1.00e-05
WARNING: Permutation 6→6 has RMSD=1.72e-02 > tolerance=1.00e-05
WARNING: Permutation 7→7 has RMSD=1.72e-02 > tolerance=1.00e-05
Operation 4: Atom 0→4, RMSD=0.00e+00, Abelian
  Transformation matrix:
    [1. 0. 0.]
    [0. 1. 0.]
    [ 0.  0. -1.]
  Nuclear permutation: [4, 1, 2, 3, 0, 5, 6, 7]
WARNING: No transformation found for atom 5 (RMSD > 1e-05)
WARNING: No transformation found for atom 6 (RMSD > 1e-05)
Operation 5: Atom 1→7, RMSD=0.00e+00, Abelian
  Transformation matrix:
    [1. 0. 0.]
    [ 0. -1.  0.]
    [ 0.  0. -1.]
  Nuclear permutation: [4, 7, 6, 5, 0, 3, 2, 1]
✓ Inferred 5 operations (including identity)
✓ Successfully inferred 5 operations from forces

=== MOLECULAR SYMMETRY CONSTRAINTS ===
SYMMETRY CONSTRAINT: Atom 1, Axis 1 = 0.000000000 (missing displacement)
SYMMETRY CONSTRAINT: Atom 2, Axis 1 = 0.000000000 (missing displacement)
SYMMETRY CONSTRAINT: Atom 5, Axis 1 = 0.000000000 (symmetry element)
SYMMETRY CONSTRAINT: Atom 5, Axis 1 = 0.000000000 (symmetry element)
SYMMETRY CONSTRAINT: Atom 8, Axis 1 = 0.000000000 (symmetry element)
SYMMETRY CONSTRAINT: Atom 8, Axis 1 = 0.000000000 (symmetry element)

=== DIRECT CALCULATIONS ===
DIRECT CALCULATION: Atom 1, Axis 2 = 0.00000079
DIRECT CALCULATION: Atom 1, Axis 3 = 0.02312235
DIRECT CALCULATION: Atom 2, Axis 2 = -0.01213811
DIRECT CALCULATION: Atom 2, Axis 3 = -0.00866632
SYMMETRY PROPAGATION: Atom 3 from Atom 2 via operation 2
  Source gradient: [ 0.         -0.01213811 -0.00866632]
  Transformation matrix:
    [-0.5        0.8660254  0.       ]
    [-0.8660254 -0.5        0.       ]
    [0. 0. 1.]
  Result gradient: [-0.01051191  0.00606906 -0.00866632]
SYMMETRY PROPAGATION: Atom 4 from Atom 3 via operation 2
  Source gradient: [-0.01051191  0.00606906 -0.00866632]
  Transformation matrix:
    [-0.5        0.8660254  0.       ]
    [-0.8660254 -0.5        0.       ]
    [0. 0. 1.]
  Result gradient: [ 0.01051191  0.00606906 -0.00866632]
SYMMETRY PROPAGATION: Atom 5 from Atom 1 via operation 4
  Source gradient: [0.00000000e+00 7.86357682e-07 2.31223522e-02]
  Transformation matrix:
    [1. 0. 0.]
    [0. 1. 0.]
    [ 0.  0. -1.]
  Result gradient: [ 0.00000000e+00  7.86357682e-07 -2.31223522e-02]
SYMMETRY PROPAGATION: Atom 6 from Atom 4 via operation 5
  Source gradient: [ 0.01051191  0.00606906 -0.00866632]
  Transformation matrix:
    [1. 0. 0.]
    [ 0. -1.  0.]
    [ 0.  0. -1.]
  Result gradient: [ 0.01051191 -0.00606906  0.00866632]
SYMMETRY PROPAGATION: Atom 7 from Atom 6 via operation 2
  Source gradient: [ 0.01051191 -0.00606906  0.00866632]
  Transformation matrix:
    [-0.5        0.8660254  0.       ]
    [-0.8660254 -0.5        0.       ]
    [0. 0. 1.]
  Result gradient: [-0.01051191 -0.00606906  0.00866632]
SYMMETRY PROPAGATION: Atom 8 from Atom 7 via operation 2
  Source gradient: [-0.01051191 -0.00606906  0.00866632]
  Transformation matrix:
    [-0.5        0.8660254  0.       ]
    [-0.8660254 -0.5        0.       ]
    [0. 0. 1.]
  Result gradient: [-5.35942799e-19  1.21381129e-02  8.66631878e-03]

=== VALIDATION ===
CONSTRAINT VERIFIED: Atom 1, Axis 1 = 0.000000000
CONSTRAINT VERIFIED: Atom 2, Axis 1 = 0.000000000
SYMMETRY EFFICIENCY: 62.5% computational reduction
SYMMETRY EFFICIENCY: 9/24 components calculated
NUMERICAL WORKFLOW: Gradient shape: (8, 3)
NUMERICAL WORKFLOW: Central energy: -78.304346675557

DEBUG: Writing output to /home/barone/lcrisci_vb/ACTUAL_PROJECTS/MRCC_new_Interface_project/TestingOldVersion/Symmetry/C2H6_D3d/Gau-4155050.EOu
DEBUG: Current directory: /home/barone/lcrisci_vb/ACTUAL_PROJECTS/MRCC_new_Interface_project/TestingOldVersion/Symmetry/C2H6_D3d
DEBUG: Central energy: -78.304346675557
DEBUG: Gradient shape: (8, 3)
DEBUG: Output written successfully
DEBUG: File exists: True
SUCCESS: Parallel gradient calculation completed using iteration 1
Task directories preserved in: /home/barone/lcrisci_vb/ACTUAL_PROJECTS/MRCC_new_Interface_project/TestingOldVersion/Symmetry/C2H6_D3d/Iterations/Iteration_1
 Recovered energy= -78.3043466756     dipole=      0.000000000000      0.000000000000      0.000000000000
 Energy=    -78.3043467     NIter=   0.
 Dipole moment=       0.000000       0.000000       0.000000
 Leave Link  402 at Wed Nov 19 18:17:10 2025, MaxMem=   104857600 cpu:               0.1 elap:              44.5
 (Enter /gaussian/g16.c01/intel64-sandybridge/g16/l601.exe)
 Leave Link  601 at Wed Nov 19 18:17:10 2025, MaxMem=   104857600 cpu:               0.1 elap:               0.1
 (Enter /gaussian/g16.c01/intel64-sandybridge/g16/l716.exe)
 Dipole        = 0.00000000D+00 0.00000000D+00 0.00000000D+00
 ***** Axes restored to original set *****
 -------------------------------------------------------------------
 Center     Atomic                   Forces (Hartrees/Bohr)
 Number     Number              X              Y              Z
 -------------------------------------------------------------------
      1        6           0.000000000    0.000000786    0.023122352
      2        1          -0.000000000   -0.012138113   -0.008666319
      3        1           0.010511914    0.006069056   -0.008666319
      4        1          -0.010511914    0.006069057   -0.008666319
      5        6           0.000000000    0.000000786   -0.023122352
      6        1          -0.010511914   -0.006069056    0.008666319
      7        1           0.010511914   -0.006069057    0.008666319
      8        1           0.000000000    0.012138113    0.008666319
 -------------------------------------------------------------------
 Cartesian Forces:  Max     0.023122352 RMS     0.010008162
 Leave Link  716 at Wed Nov 19 18:17:11 2025, MaxMem=   104857600 cpu:               0.1 elap:               0.1
 (Enter /gaussian/g16.c01/intel64-sandybridge/g16/l9999.exe)
 Unable to Open any file for archive entry.
 1\1\GINC-THIOTIMOLINE-LARGE01\Force\External='CentralExt gau $PGAU/tes
 t_pr.dat $EGAU/test_en.dat 7 10 read parall 2'\ZDO\C2H6\LCRISCI_VB\19-
 Nov-2025\0\\#p force output=pickett External="CentralExt gau $PGAU/tes
 t_pr.dat $EGAU/test_en.dat 7 10 read parall 2"\\title\\0,1\C,0.,0.,-0.
 76999997\H,-0.0000000075,-1.00880583,-1.12666626\H,0.87365148,0.504402
 9085,-1.12666626\H,-0.8736514725,0.5044029215,-1.12666626\C,0.,0.,0.76
 999997\H,-0.87365148,-0.5044029085,1.12666626\H,0.8736514725,-0.504402
 9215,1.12666626\H,0.0000000075,1.00880583,1.12666626\\Version=ES64L-G1
 6RevC.01\HF=-78.3043467\RMSD=0.000e+00\RMSF=1.001e-02\Dipole=0.,0.,0.\
 PG=D03D [C3(C1.C1),3SGD(H2)]\\@
 The archive entry for this job was punched.
 DoSRE=F DoSRN=F DoDH=F DoFC=F DoNQ=F DoQCD=F DoSCD=F
 Inertia tensor (amu-bohr**2): 
                 1             2             3 
      1   0.892138D+02  0.000000D+00  0.000000D+00
      2   0.000000D+00  0.892138D+02  0.000000D+00
      3   0.000000D+00  0.000000D+00  0.219760D+02
 Principal inertia moments (amu-bohr**2):
 Iaa = 0.219760D+02 Ibb= 0.892138D+02 Icc= 0.892138D+02
 Rotation matrix to Principal Axis frame: 
                 1             2             3 
      1   0.000000D+00  0.100000D+01  0.000000D+00
      2   0.000000D+00  0.000000D+00  0.100000D+01
      3   0.100000D+01  0.000000D+00  0.000000D+00
                Principal axis orientation:                
 ---------------------------------------------------------------------
 Center     Atomic                     Coordinates (Angstroms)
 Number     Number                        X           Y           Z
 ---------------------------------------------------------------------
      1          6                   -0.770000    0.000000   -0.000000
      2          1                   -1.126666   -0.000000   -1.008806
      3          1                   -1.126666    0.873651    0.504403
      4          1                   -1.126666   -0.873651    0.504403
      5          6                    0.770000    0.000000    0.000000
      6          1                    1.126666   -0.873651   -0.504403
      7          1                    1.126666    0.873651   -0.504403
      8          1                    1.126666    0.000000    1.008806
 ---------------------------------------------------------------------
 Rotational constants (MHZ):
  82123.1575693  20229.3892679  20229.3892679
 Dipole moment (Debye):
      0.0000000      0.0000000      0.0000000  Tot=      0.0000000

 Atoms with significant hyperfine tensors: 

--------------------------------------------------------------------------------
 title                                                   
   99  1000  50  0.1760E-11  0.1000E+07  0.1000E+01 1.0000000000
a   1  0  0  0  1  1   1  0  1  0
     10000   0.82123158E+05    0.0000E+00   /  A  /
     20000   0.20229389E+05    0.0000E+00   /  B  /
     30000   0.20229389E+05    0.0000E+00   /  C  /
--------------------------------------------------------------------------------

 Punch of MOs requested, but none found.


 REFRAIN FROM ILLUSIONS, INSIST ON WORK AND NOT WORDS,
 PATIENTLY SEEK DIVINE AND SCIENTIFIC TRUTH.
 LAST WORDS OF MARIA MENDELEEVA TO HER SON DMITRI, C. 1850
 Job cpu time:       0 days  0 hours  0 minutes  0.7 seconds.
 Elapsed time:       0 days  0 hours  0 minutes 45.6 seconds.
 File lengths (MBytes):  RWF=      5 Int=      0 D2E=      0 Chk=      1 Scr=      1
 Normal termination of Gaussian 16 at Wed Nov 19 18:17:11 2025.
 Initial command:
 /gaussian/g16.c01/intel64-sandybridge/g16/l1.exe "/home/barone/lcrisci_vb/ACTUAL_PROJECTS/MRCC_new_Interface_project/TestingOldVersion/Symmetry/C2H6_D3d/Gau-4155049.inp" -scrdir="/home/barone/lcrisci_vb/ACTUAL_PROJECTS/MRCC_new_Interface_project/TestingOldVersion/Symmetry/C2H6_D3d/"
 Entering Link 1 = /gaussian/g16.c01/intel64-sandybridge/g16/l1.exe PID=   4155688.
  
 Copyright (c) 1988-2019, Gaussian, Inc.  All Rights Reserved.
  
 This is part of the Gaussian(R) 16 program.  It is based on
 the Gaussian(R) 09 system (copyright 2009, Gaussian, Inc.),
 the Gaussian(R) 03 system (copyright 2003, Gaussian, Inc.),
 the Gaussian(R) 98 system (copyright 1998, Gaussian, Inc.),
 the Gaussian(R) 94 system (copyright 1995, Gaussian, Inc.),
 the Gaussian 92(TM) system (copyright 1992, Gaussian, Inc.),
 the Gaussian 90(TM) system (copyright 1990, Gaussian, Inc.),
 the Gaussian 88(TM) system (copyright 1988, Gaussian, Inc.),
 the Gaussian 86(TM) system (copyright 1986, Carnegie Mellon
 University), and the Gaussian 82(TM) system (copyright 1983,
 Carnegie Mellon University). Gaussian is a federally registered
 trademark of Gaussian, Inc.
  
 This software contains proprietary and confidential information,
 including trade secrets, belonging to Gaussian, Inc.
  
 This software is provided under written license and may be
 used, copied, transmitted, or stored only in accord with that
 written license.
  
 The following legend is applicable only to US Government
 contracts under FAR:
  
                    RESTRICTED RIGHTS LEGEND
  
 Use, reproduction and disclosure by the US Government is
 subject to restrictions as set forth in subparagraphs (a)
 and (c) of the Commercial Computer Software - Restricted
 Rights clause in FAR 52.227-19.
  
 Gaussian, Inc.
 340 Quinnipiac St., Bldg. 40, Wallingford CT 06492
  
  
 ---------------------------------------------------------------
 Warning -- This program may not be used in any manner that
 competes with the business of Gaussian, Inc. or will provide
 assistance to any competitor of Gaussian, Inc.  The licensee
 of this program is prohibited from giving any competitor of
 Gaussian, Inc. access to this program.  By using this program,
 the user acknowledges that Gaussian, Inc. is engaged in the
 business of creating and licensing software in the field of
 computational chemistry and represents and warrants to the
 licensee that it is not a competitor of Gaussian, Inc. and that
 it will not use this program in any manner prohibited above.
 ---------------------------------------------------------------
  

 Cite this work as:
 Gaussian 16, Revision C.01,
 M. J. Frisch, G. W. Trucks, H. B. Schlegel, G. E. Scuseria, 
 M. A. Robb, J. R. Cheeseman, G. Scalmani, V. Barone, 
 G. A. Petersson, H. Nakatsuji, X. Li, M. Caricato, A. V. Marenich, 
 J. Bloino, B. G. Janesko, R. Gomperts, B. Mennucci, H. P. Hratchian, 
 J. V. Ortiz, A. F. Izmaylov, J. L. Sonnenberg, D. Williams-Young, 
 F. Ding, F. Lipparini, F. Egidi, J. Goings, B. Peng, A. Petrone, 
 T. Henderson, D. Ranasinghe, V. G. Zakrzewski, J. Gao, N. Rega, 
 G. Zheng, W. Liang, M. Hada, M. Ehara, K. Toyota, R. Fukuda, 
 J. Hasegawa, M. Ishida, T. Nakajima, Y. Honda, O. Kitao, H. Nakai, 
 T. Vreven, K. Throssell, J. A. Montgomery, Jr., J. E. Peralta, 
 F. Ogliaro, M. J. Bearpark, J. J. Heyd, E. N. Brothers, K. N. Kudin, 
 V. N. Staroverov, T. A. Keith, R. Kobayashi, J. Normand, 
 K. Raghavachari, A. P. Rendell, J. C. Burant, S. S. Iyengar, 
 J. Tomasi, M. Cossi, J. M. Millam, M. Klene, C. Adamo, R. Cammi, 
 J. W. Ochterski, R. L. Martin, K. Morokuma, O. Farkas, 
 J. B. Foresman, and D. J. Fox, Gaussian, Inc., Wallingford CT, 2019.
 
 ******************************************
 Gaussian 16:  ES64L-G16RevC.01  3-Jul-2019
                19-Nov-2025 
 ******************************************
 %chk=test_parall.chk
 %nprocs=1
 Will use up to    1 processors via shared memory.
 ------------------
 #p force hf/sto-3g
 ------------------
 1/10=7,30=1,38=1/1,3;
 2/12=2,17=6,18=5,40=1/2;
 3/6=3,11=9,25=1,30=1,71=1/1,2,3;
 4//1;
 5/5=2,38=5/2;
 6/7=2,8=2,9=2,10=2,28=1/1;
 7/29=1/1,2,3,16;
 1/10=7,30=1/3;
 99//99;
 Leave Link    1 at Wed Nov 19 18:17:11 2025, MaxMem=           0 cpu:               0.0 elap:               0.1
 (Enter /gaussian/g16.c01/intel64-sandybridge/g16/l101.exe)
 -----
 title
 -----
 Symbolic Z-matrix:
 Charge =  0 Multiplicity = 1
 C                     0.        0.       -0.77 
 H                     0.       -1.00881  -1.12667 
 H                     0.87365   0.5044   -1.12667 
 H                    -0.87365   0.5044   -1.12667 
 C                     0.        0.        0.77 
 H                    -0.87365  -0.5044    1.12667 
 H                     0.87365  -0.5044    1.12667 
 H                     0.        1.00881   1.12667 
 
 ITRead=  0  0  0  0  0  0  0  0
 MicOpt= -1 -1 -1 -1 -1 -1 -1 -1
 NAtoms=      8 NQM=        8 NQMF=       0 NMMI=      0 NMMIF=      0
                NMic=       0 NMicF=      0.
                    Isotopes and Nuclear Properties:
 (Nuclear quadrupole moments (NQMom) in fm**2, nuclear magnetic moments (NMagM)
  in nuclear magnetons)

  Atom         1           2           3           4           5           6           7           8
 IAtWgt=          12           1           1           1          12           1           1           1
 AtmWgt=  12.0000000   1.0078250   1.0078250   1.0078250  12.0000000   1.0078250   1.0078250   1.0078250
 NucSpn=           0           1           1           1           0           1           1           1
 AtZEff=  -0.0000000  -0.0000000  -0.0000000  -0.0000000  -0.0000000  -0.0000000  -0.0000000  -0.0000000
 NQMom=    0.0000000   0.0000000   0.0000000   0.0000000   0.0000000   0.0000000   0.0000000   0.0000000
 NMagM=    0.0000000   2.7928460   2.7928460   2.7928460   0.0000000   2.7928460   2.7928460   2.7928460
 AtZNuc=   6.0000000   1.0000000   1.0000000   1.0000000   6.0000000   1.0000000   1.0000000   1.0000000
 Leave Link  101 at Wed Nov 19 18:17:11 2025, MaxMem=   104857600 cpu:               0.2 elap:               0.2
 (Enter /gaussian/g16.c01/intel64-sandybridge/g16/l103.exe)

 GradGradGradGradGradGradGradGradGradGradGradGradGradGradGradGradGradGrad
 Berny optimization.
 Initialization pass.
 Trust Radius=3.00D-01 FncErr=1.00D-07 GrdErr=1.00D-07 EigMax=2.50D+02 EigMin=1.00D-04
 Number of steps in this run=      2 maximum allowed number of steps=      2.
 GradGradGradGradGradGradGradGradGradGradGradGradGradGradGradGradGradGrad

 Leave Link  103 at Wed Nov 19 18:17:12 2025, MaxMem=   104857600 cpu:               0.0 elap:               0.1
 (Enter /gaussian/g16.c01/intel64-sandybridge/g16/l202.exe)
                          Input orientation:                          
 ---------------------------------------------------------------------
 Center     Atomic      Atomic             Coordinates (Angstroms)
 Number     Number       Type             X           Y           Z
 ---------------------------------------------------------------------
      1          6           0        0.000000    0.000000   -0.770000
      2          1           0        0.000000   -1.008806   -1.126666
      3          1           0        0.873651    0.504403   -1.126666
      4          1           0       -0.873651    0.504403   -1.126666
      5          6           0        0.000000    0.000000    0.770000
      6          1           0       -0.873651   -0.504403    1.126666
      7          1           0        0.873651   -0.504403    1.126666
      8          1           0        0.000000    1.008806    1.126666
 ---------------------------------------------------------------------
                    Distance matrix (angstroms):
                    1          2          3          4          5
     1  C    0.000000
     2  H    1.070000   0.000000
     3  H    1.070000   1.747303   0.000000
     4  H    1.070000   1.747303   1.747303   0.000000
     5  C    1.540000   2.148263   2.148263   2.148263   0.000000
     6  H    2.148263   2.468845   3.024610   2.468845   1.070000
     7  H    2.148263   2.468845   2.468845   3.024610   1.070000
     8  H    2.148263   3.024610   2.468845   2.468845   1.070000
                    6          7          8
     6  H    0.000000
     7  H    1.747303   0.000000
     8  H    1.747303   1.747303   0.000000
 Stoichiometry    C2H6
 Framework group  D3D[C3(C.C),3SGD(H2)]
 Deg. of freedom     3
 Full point group                 D3D     NOp  12
 Largest Abelian subgroup         C2H     NOp   4
 Largest concise Abelian subgroup C2H     NOp   4
                         Standard orientation:                         
 ---------------------------------------------------------------------
 Center     Atomic      Atomic             Coordinates (Angstroms)
 Number     Number       Type             X           Y           Z
 ---------------------------------------------------------------------
      1          6           0        0.000000    0.000000    0.770000
      2          1           0        0.000000    1.008806    1.126666
      3          1           0        0.873651   -0.504403    1.126666
      4          1           0       -0.873651   -0.504403    1.126666
      5          6           0       -0.000000   -0.000000   -0.770000
      6          1           0       -0.873651    0.504403   -1.126666
      7          1           0        0.873651    0.504403   -1.126666
      8          1           0       -0.000000   -1.008806   -1.126666
 ---------------------------------------------------------------------
 Rotational constants (GHZ):          82.1231576          20.2293893          20.2293893
 Leave Link  202 at Wed Nov 19 18:17:12 2025, MaxMem=   104857600 cpu:               0.0 elap:               0.0
 (Enter /gaussian/g16.c01/intel64-sandybridge/g16/l301.exe)
 Standard basis: STO-3G (5D, 7F)
 Ernie: Thresh=  0.10000D-02 Tol=  0.10000D-05 Strict=F.
 There are     6 symmetry adapted cartesian basis functions of AG  symmetry.
 There are     2 symmetry adapted cartesian basis functions of BG  symmetry.
 There are     2 symmetry adapted cartesian basis functions of AU  symmetry.
 There are     6 symmetry adapted cartesian basis functions of BU  symmetry.
 There are     6 symmetry adapted basis functions of AG  symmetry.
 There are     2 symmetry adapted basis functions of BG  symmetry.
 There are     2 symmetry adapted basis functions of AU  symmetry.
 There are     6 symmetry adapted basis functions of BU  symmetry.
    16 basis functions,    48 primitive gaussians,    16 cartesian basis functions
     9 alpha electrons        9 beta electrons
       nuclear repulsion energy        42.6703233486 Hartrees.
 IExCor=    0 DFT=F Ex=HF Corr=None ExCW=0 ScaHFX=  1.000000
 ScaDFX=  1.000000  1.000000  1.000000  1.000000 ScalE2=  1.000000  1.000000
 IRadAn=      5 IRanWt=     -1 IRanGd=            0 ICorTp=0 IEmpDi=  4
 NAtoms=    8 NActive=    8 NUniq=    2 SFac= 4.00D+00 NAtFMM=   60 NAOKFM=F Big=F
 Integral buffers will be    131072 words long.
 Raffenetti 1 integral format.
 Two-electron integral symmetry is turned on.
 Leave Link  301 at Wed Nov 19 18:17:12 2025, MaxMem=   104857600 cpu:               0.1 elap:               0.1
 (Enter /gaussian/g16.c01/intel64-sandybridge/g16/l302.exe)
 NPDir=0 NMtPBC=     1 NCelOv=     1 NCel=       1 NClECP=     1 NCelD=      1
         NCelK=      1 NCelE2=     1 NClLst=     1 CellRange=     0.0.
 One-electron integrals computed using PRISM.
 One-electron integral symmetry used in STVInt
 NBasis=    16 RedAO= T EigKep=  1.98D-01  NBF=     6     2     2     6
 NBsUse=    16 1.00D-06 EigRej= -1.00D+00 NBFU=     6     2     2     6
 Leave Link  302 at Wed Nov 19 18:17:12 2025, MaxMem=   104857600 cpu:               0.1 elap:               0.1
 (Enter /gaussian/g16.c01/intel64-sandybridge/g16/l303.exe)
 DipDrv:  MaxL=1.
 Leave Link  303 at Wed Nov 19 18:17:12 2025, MaxMem=   104857600 cpu:               0.1 elap:               0.1
 (Enter /gaussian/g16.c01/intel64-sandybridge/g16/l401.exe)
 ExpMin= 1.69D-01 ExpMax= 7.16D+01 ExpMxC= 7.16D+01 IAcc=3 IRadAn=         5 AccDes= 0.00D+00
 Harris functional with IExCor=  205 and IRadAn=       5 diagonalized for initial guess.
 HarFok:  IExCor=  205 AccDes= 0.00D+00 IRadAn=         5 IDoV= 1 UseB2=F ITyADJ=14
 ICtDFT=  3500011 ScaDFX=  1.000000  1.000000  1.000000  1.000000
 FoFCou: FMM=F IPFlag=           0 FMFlag=      100000 FMFlg1=           0
         NFxFlg=           0 DoJE=T BraDBF=F KetDBF=T FulRan=T
         wScrn=  0.000000 ICntrl=       500 IOpCl=  0 I1Cent=   200000004 NGrid=           0
         NMat0=    1 NMatS0=      1 NMatT0=    0 NMatD0=    1 NMtDS0=    0 NMtDT0=    0
 Petite list used in FoFCou.
 Harris En= -78.5415225504671    
 JPrj=0 DoOrth=F DoCkMO=F.
 Initial guess orbital symmetries:
       Occupied  (A2U) (A1G) (A1G) (A2U) (EU) (EU) (A1G) (EG) (EG)
       Virtual   (A2U) (EU) (EU) (A1G) (EG) (EG) (A2U)
 The electronic state of the initial guess is 1-A1G.
 Leave Link  401 at Wed Nov 19 18:17:12 2025, MaxMem=   104857600 cpu:               0.1 elap:               0.2
 (Enter /gaussian/g16.c01/intel64-sandybridge/g16/l502.exe)
 Keep R1 ints in memory in symmetry-blocked form, NReq=819134.
 FoFCou: FMM=F IPFlag=           0 FMFlag=           0 FMFlg1=           0
         NFxFlg=           0 DoJE=F BraDBF=F KetDBF=F FulRan=T
         wScrn=  0.000000 ICntrl=       600 IOpCl=  0 I1Cent=           0 NGrid=           0
         NMat0=    1 NMatS0=    136 NMatT0=    0 NMatD0=    1 NMtDS0=    0 NMtDT0=    0
 Petite list used in FoFCou.
 Closed shell SCF:
 Using DIIS extrapolation, IDIIS=  1040.
 NGot=   104857600 LenX=   104852494 LenY=   104851612
 Requested convergence on RMS density matrix=1.00D-08 within 128 cycles.
 Requested convergence on MAX density matrix=1.00D-06.
 Requested convergence on             energy=1.00D-06.
 No special actions if energy rises.

 Cycle   1  Pass 1  IDiag  1:
 E= -78.2186972955304    
 DIIS: error= 5.66D-02 at cycle   1 NSaved=   1.
 NSaved= 1 IEnMin= 1 EnMin= -78.2186972955304     IErMin= 1 ErrMin= 5.66D-02
 ErrMax= 5.66D-02  0.00D+00 EMaxC= 1.00D-01 BMatC= 7.84D-02 BMatP= 7.84D-02
 IDIUse=3 WtCom= 4.34D-01 WtEn= 5.66D-01
 Coeff-Com:  0.100D+01
 Coeff-En:   0.100D+01
 Coeff:      0.100D+01
 Gap=     1.129 Goal=   None    Shift=    0.000
 GapD=    1.129 DampG=2.000 DampE=0.500 DampFc=1.0000 IDamp=-1.
 RMSDP=2.45D-02 MaxDP=1.13D-01              OVMax= 0.00D+00

 Cycle   2  Pass 1  IDiag  1:
 E= -78.3023803719688     Delta-E=       -0.083683076438 Rises=F Damp=F
 DIIS: error= 1.03D-02 at cycle   2 NSaved=   2.
 NSaved= 2 IEnMin= 2 EnMin= -78.3023803719688     IErMin= 2 ErrMin= 1.03D-02
 ErrMax= 1.03D-02  0.00D+00 EMaxC= 1.00D-01 BMatC= 1.90D-03 BMatP= 7.84D-02
 IDIUse=3 WtCom= 8.97D-01 WtEn= 1.03D-01
 Coeff-Com:  0.920D-01 0.908D+00
 Coeff-En:   0.000D+00 0.100D+01
 Coeff:      0.825D-01 0.917D+00
 Gap=     1.145 Goal=   None    Shift=    0.000
 RMSDP=3.54D-03 MaxDP=1.83D-02 DE=-8.37D-02 OVMax= 0.00D+00

 Cycle   3  Pass 1  IDiag  1:
 E= -78.3043305749887     Delta-E=       -0.001950203020 Rises=F Damp=F
 DIIS: error= 7.02D-04 at cycle   3 NSaved=   3.
 NSaved= 3 IEnMin= 3 EnMin= -78.3043305749887     IErMin= 3 ErrMin= 7.02D-04
 ErrMax= 7.02D-04  0.00D+00 EMaxC= 1.00D-01 BMatC= 1.01D-05 BMatP= 1.90D-03
 IDIUse=3 WtCom= 9.93D-01 WtEn= 7.02D-03
 Coeff-Com: -0.906D-02-0.457D-02 0.101D+01
 Coeff-En:   0.000D+00 0.000D+00 0.100D+01
 Coeff:     -0.900D-02-0.454D-02 0.101D+01
 Gap=     1.146 Goal=   None    Shift=    0.000
 RMSDP=2.96D-04 MaxDP=1.01D-03 DE=-1.95D-03 OVMax= 0.00D+00

 Cycle   4  Pass 1  IDiag  1:
 E= -78.3043462081055     Delta-E=       -0.000015633117 Rises=F Damp=F
 DIIS: error= 1.31D-04 at cycle   4 NSaved=   4.
 NSaved= 4 IEnMin= 4 EnMin= -78.3043462081055     IErMin= 4 ErrMin= 1.31D-04
 ErrMax= 1.31D-04  0.00D+00 EMaxC= 1.00D-01 BMatC= 2.59D-07 BMatP= 1.01D-05
 IDIUse=3 WtCom= 9.99D-01 WtEn= 1.31D-03
 Coeff-Com:  0.232D-02-0.375D-02-0.305D+00 0.131D+01
 Coeff-En:   0.000D+00 0.000D+00 0.000D+00 0.100D+01
 Coeff:      0.232D-02-0.375D-02-0.304D+00 0.131D+01
 Gap=     1.145 Goal=   None    Shift=    0.000
 RMSDP=6.79D-05 MaxDP=4.74D-04 DE=-1.56D-05 OVMax= 0.00D+00

 Cycle   5  Pass 1  IDiag  1:
 E= -78.3043466754592     Delta-E=       -0.000000467354 Rises=F Damp=F
 DIIS: error= 2.25D-06 at cycle   5 NSaved=   5.
 NSaved= 5 IEnMin= 5 EnMin= -78.3043466754592     IErMin= 5 ErrMin= 2.25D-06
 ErrMax= 2.25D-06  0.00D+00 EMaxC= 1.00D-01 BMatC= 6.64D-11 BMatP= 2.59D-07
 IDIUse=1 WtCom= 1.00D+00 WtEn= 0.00D+00
 Coeff-Com: -0.453D-03 0.674D-03 0.594D-01-0.256D+00 0.120D+01
 Coeff:     -0.453D-03 0.674D-03 0.594D-01-0.256D+00 0.120D+01
 Gap=     1.145 Goal=   None    Shift=    0.000
 RMSDP=9.00D-07 MaxDP=4.66D-06 DE=-4.67D-07 OVMax= 0.00D+00

 Cycle   6  Pass 1  IDiag  1:
 E= -78.3043466755680     Delta-E=       -0.000000000109 Rises=F Damp=F
 DIIS: error= 1.65D-07 at cycle   6 NSaved=   6.
 NSaved= 6 IEnMin= 6 EnMin= -78.3043466755680     IErMin= 6 ErrMin= 1.65D-07
 ErrMax= 1.65D-07  0.00D+00 EMaxC= 1.00D-01 BMatC= 4.17D-13 BMatP= 6.64D-11
 IDIUse=1 WtCom= 1.00D+00 WtEn= 0.00D+00
 Coeff-Com:  0.153D-04-0.134D-04-0.194D-02 0.850D-02-0.113D+00 0.111D+01
 Coeff:      0.153D-04-0.134D-04-0.194D-02 0.850D-02-0.113D+00 0.111D+01
 Gap=     1.145 Goal=   None    Shift=    0.000
 RMSDP=7.76D-08 MaxDP=4.09D-07 DE=-1.09D-10 OVMax= 0.00D+00

 Cycle   7  Pass 1  IDiag  1:
 E= -78.3043466755687     Delta-E=       -0.000000000001 Rises=F Damp=F
 DIIS: error= 1.34D-08 at cycle   7 NSaved=   7.
 NSaved= 7 IEnMin= 7 EnMin= -78.3043466755687     IErMin= 7 ErrMin= 1.34D-08
 ErrMax= 1.34D-08  0.00D+00 EMaxC= 1.00D-01 BMatC= 1.93D-15 BMatP= 4.17D-13
 IDIUse=1 WtCom= 1.00D+00 WtEn= 0.00D+00
 Coeff-Com: -0.137D-05-0.475D-07 0.164D-03-0.747D-03 0.190D-01-0.219D+00
 Coeff-Com:  0.120D+01
 Coeff:     -0.137D-05-0.475D-07 0.164D-03-0.747D-03 0.190D-01-0.219D+00
 Coeff:      0.120D+01
 Gap=     1.145 Goal=   None    Shift=    0.000
 RMSDP=5.67D-09 MaxDP=2.15D-08 DE=-6.82D-13 OVMax= 0.00D+00

 SCF Done:  E(RHF) =  -78.3043466756     A.U. after    7 cycles
            NFock=  7  Conv=0.57D-08     -V/T= 2.0071
 KE= 7.775343360854D+01 PE=-2.668324735316D+02 EE= 6.810436989882D+01
 Leave Link  502 at Wed Nov 19 18:17:13 2025, MaxMem=   104857600 cpu:               0.1 elap:               0.3
 (Enter /gaussian/g16.c01/intel64-sandybridge/g16/l601.exe)
 Copying SCF densities to generalized density rwf, IOpCl= 0 IROHF=0.

 **********************************************************************

            Population analysis using the SCF Density.

 **********************************************************************

 Orbital symmetries:
       Occupied  (A2U) (A1G) (A1G) (A2U) (EU) (EU) (EG) (EG) (A1G)
       Virtual   (A2U) (EU) (EU) (A1G) (EG) (EG) (A2U)
 The electronic state is 1-A1G.
 Alpha  occ. eigenvalues --  -11.03353 -11.03322  -0.98752  -0.81673  -0.58103
 Alpha  occ. eigenvalues --   -0.58103  -0.46786  -0.46786  -0.46637
 Alpha virt. eigenvalues --    0.67851   0.67863   0.67863   0.74478   0.80447
 Alpha virt. eigenvalues --    0.80447   0.80533
          Condensed to atoms (all electrons):
               1          2          3          4          5          6
     1  C    4.723904   0.389097   0.389097   0.389097   0.358965  -0.021410
     2  H    0.389097   0.617231  -0.022068  -0.022068  -0.021410  -0.002375
     3  H    0.389097  -0.022068   0.617231  -0.022068  -0.021410   0.001989
     4  H    0.389097  -0.022068  -0.022068   0.617231  -0.021410  -0.002375
     5  C    0.358965  -0.021410  -0.021410  -0.021410   4.723904   0.389097
     6  H   -0.021410  -0.002375   0.001989  -0.002375   0.389097   0.617231
     7  H   -0.021410  -0.002375  -0.002375   0.001989   0.389097  -0.022068
     8  H   -0.021410   0.001989  -0.002375  -0.002375   0.389097  -0.022068
               7          8
     1  C   -0.021410  -0.021410
     2  H   -0.002375   0.001989
     3  H   -0.002375  -0.002375
     4  H    0.001989  -0.002375
     5  C    0.389097   0.389097
     6  H   -0.022068  -0.022068
     7  H    0.617231  -0.022068
     8  H   -0.022068   0.617231
 Mulliken charges:
               1
     1  C   -0.185932
     2  H    0.061977
     3  H    0.061977
     4  H    0.061977
     5  C   -0.185932
     6  H    0.061977
     7  H    0.061977
     8  H    0.061977
 Sum of Mulliken charges =   0.00000
 Mulliken charges with hydrogens summed into heavy atoms:
               1
     1  C    0.000000
     5  C    0.000000
 Electronic spatial extent (au):  <R**2>=            106.0455
 Charge=              0.0000 electrons
 Dipole moment (field-independent basis, Debye):
    X=             -0.0000    Y=              0.0000    Z=              0.0000  Tot=              0.0000
 Quadrupole moment (field-independent basis, Debye-Ang):
   XX=            -13.9926   YY=            -13.9926   ZZ=            -14.5643
   XY=             -0.0000   XZ=              0.0000   YZ=              0.0000
 Traceless Quadrupole moment (field-independent basis, Debye-Ang):
   XX=              0.1906   YY=              0.1906   ZZ=             -0.3811
   XY=             -0.0000   XZ=              0.0000   YZ=              0.0000
 Octapole moment (field-independent basis, Debye-Ang**2):
  XXX=              0.0000  YYY=              0.0000  ZZZ=              0.0000  XYY=              0.0000
  XXY=             -0.0000  XXZ=              0.0000  XZZ=              0.0000  YZZ=              0.0000
  YYZ=             -0.0000  XYZ=             -0.0000
 Hexadecapole moment (field-independent basis, Debye-Ang**3):
 XXXX=            -24.6962 YYYY=            -24.6962 ZZZZ=            -84.1265 XXXY=              0.0000
 XXXZ=             -0.0000 YYYX=              0.0000 YYYZ=              1.0900 ZZZX=              0.0000
 ZZZY=              0.0000 XXYY=             -8.2321 XXZZ=            -17.1083 YYZZ=            -17.1083
 XXYZ=             -1.0900 YYXZ=              0.0000 ZZXY=             -0.0000
 N-N= 4.267032334862D+01 E-N=-2.668324735623D+02  KE= 7.775343360854D+01
 Symmetry AG   KE= 3.831962123453D+01
 Symmetry BG   KE= 2.137572295297D+00
 Symmetry AU   KE= 1.799987491302D+00
 Symmetry BU   KE= 3.549625258742D+01
 No NMR shielding tensors so no spin-rotation constants.
 Leave Link  601 at Wed Nov 19 18:17:13 2025, MaxMem=   104857600 cpu:               0.1 elap:               0.1
 (Enter /gaussian/g16.c01/intel64-sandybridge/g16/l701.exe)
 ... and contract with generalized density number  0.
 Compute integral first derivatives.
 Leave Link  701 at Wed Nov 19 18:17:13 2025, MaxMem=   104857600 cpu:               0.1 elap:               0.1
 (Enter /gaussian/g16.c01/intel64-sandybridge/g16/l702.exe)
 L702 exits ... SP integral derivatives will be done elsewhere.
 Leave Link  702 at Wed Nov 19 18:17:13 2025, MaxMem=   104857600 cpu:               0.1 elap:               0.1
 (Enter /gaussian/g16.c01/intel64-sandybridge/g16/l703.exe)
 Integral derivatives from FoFJK, PRISM(SPDF).
 Compute integral first derivatives, UseDBF=F ICtDFT=           0.
 Calling FoFJK, ICntrl=      2127 FMM=F ISym2X=1 I1Cent= 0 IOpClX= 0 NMat=1 NMatS=1 NMatT=0.
 FoFJK:  IHMeth= 1 ICntrl=    2127 DoSepK=F KAlg= 0 I1Cent=           0 FoldK=F
 IRaf=         0 NMat=       1 IRICut=       1 DoRegI=T DoRafI=F ISym2E= 1 IDoP0=0 IntGTp=1.
 FoFCou: FMM=F IPFlag=           0 FMFlag=      100000 FMFlg1=         800
         NFxFlg=           0 DoJE=F BraDBF=F KetDBF=F FulRan=T
         wScrn=  0.000000 ICntrl=      2127 IOpCl=  0 I1Cent=           0 NGrid=           0
         NMat0=    1 NMatS0=      1 NMatT0=    0 NMatD0=    1 NMtDS0=    0 NMtDT0=    0
 Petite list used in FoFCou.
 Leave Link  703 at Wed Nov 19 18:17:13 2025, MaxMem=   104857600 cpu:               0.1 elap:               0.1
 (Enter /gaussian/g16.c01/intel64-sandybridge/g16/l716.exe)
 Dipole        =-3.42539590D-17 2.22044605D-16 2.22044605D-15
 ***** Axes restored to original set *****
 -------------------------------------------------------------------
 Center     Atomic                   Forces (Hartrees/Bohr)
 Number     Number              X              Y              Z
 -------------------------------------------------------------------
      1        6          -0.000000000    0.000000000    0.023123158
      2        1          -0.000000000   -0.012137481   -0.008666378
      3        1           0.010511367    0.006068740   -0.008666378
      4        1          -0.010511367    0.006068741   -0.008666378
      5        6           0.000000000   -0.000000000   -0.023123158
      6        1          -0.010511367   -0.006068740    0.008666378
      7        1           0.010511367   -0.006068741    0.008666378
      8        1           0.000000000    0.012137481    0.008666378
 -------------------------------------------------------------------
 Cartesian Forces:  Max     0.023123158 RMS     0.010008139
 Z-matrix is all fixed cartesians, so copy forces.
 Force constants in Cartesian coordinates: 
                1             2             3             4             5 
      1  0.698593D+00
      2  0.000000D+00  0.698593D+00
      3  0.000000D+00  0.000000D+00  0.621040D+00
      4 -0.818112D-01  0.000000D+00  0.000000D+00  0.611482D-01
      5  0.000000D+00 -0.335755D+00 -0.920478D-01  0.000000D+00  0.337503D+00
      6  0.000000D+00 -0.103368D+00 -0.111950D+00  0.000000D+00  0.984237D-01
      7 -0.272269D+00 -0.109961D+00  0.797158D-01  0.994079D-02  0.182839D-02
      8 -0.109961D+00 -0.145297D+00  0.460239D-01 -0.284359D-01 -0.542106D-02
      9  0.895194D-01  0.516841D-01 -0.111950D+00 -0.158646D-01 -0.318791D-02
     10 -0.272269D+00  0.109961D+00 -0.797158D-01  0.994079D-02 -0.182839D-02
     11  0.109961D+00 -0.145297D+00  0.460239D-01  0.284359D-01 -0.542106D-02
     12 -0.895194D-01  0.516841D-01 -0.111950D+00  0.158646D-01 -0.318791D-02
     13 -0.870566D-01  0.000000D+00  0.000000D+00  0.781491D-03  0.000000D+00
     14  0.000000D+00 -0.870566D-01  0.000000D+00  0.000000D+00  0.909399D-02
     15  0.000000D+00  0.000000D+00 -0.285189D+00  0.000000D+00  0.000000D+00
     16  0.701587D-02  0.359942D-02  0.000000D+00 -0.325825D-03  0.000000D+00
     17  0.359942D-02  0.285962D-02  0.000000D+00  0.564346D-03  0.000000D+00
     18  0.222757D-01  0.128609D-01  0.000000D+00  0.000000D+00  0.000000D+00
     19  0.701587D-02 -0.359942D-02  0.000000D+00 -0.325825D-03  0.000000D+00
     20 -0.359942D-02  0.285962D-02  0.000000D+00 -0.564346D-03  0.000000D+00
     21 -0.222757D-01  0.128609D-01  0.000000D+00  0.000000D+00  0.000000D+00
     22  0.781491D-03  0.000000D+00  0.000000D+00  0.651650D-03  0.000000D+00
     23  0.000000D+00  0.909399D-02  0.000000D+00  0.000000D+00  0.000000D+00
     24  0.000000D+00 -0.257217D-01  0.000000D+00  0.000000D+00  0.000000D+00
                6             7             8             9            10 
      6  0.939165D-01
      7 -0.517148D-02  0.268414D+00
      8  0.153331D-01  0.119665D+00  0.130237D+00
      9  0.901678D-02 -0.852374D-01 -0.492118D-01  0.939165D-01
     10  0.517148D-02 -0.131020D-01  0.151321D-01 -0.106931D-01  0.268414D+00
     11  0.153331D-01 -0.151321D-01  0.176217D-01 -0.121452D-01 -0.119665D+00
     12  0.901678D-02  0.106931D-01 -0.121452D-01  0.901678D-02  0.852374D-01
     13  0.000000D+00  0.701587D-02  0.359942D-02  0.222757D-01  0.701587D-02
     14 -0.257217D-01  0.359942D-02  0.285962D-02  0.128609D-01 -0.359942D-02
     15  0.000000D+00  0.000000D+00  0.000000D+00  0.000000D+00  0.000000D+00
     16  0.000000D+00  0.162913D-03 -0.282173D-03  0.000000D+00  0.162913D-03
     17  0.000000D+00 -0.282173D-03  0.488738D-03  0.000000D+00 -0.282173D-03
     18  0.000000D+00  0.000000D+00  0.000000D+00  0.000000D+00  0.000000D+00
     19  0.000000D+00  0.162913D-03 -0.282173D-03  0.000000D+00  0.162913D-03
     20  0.000000D+00  0.282173D-03 -0.488738D-03  0.000000D+00  0.282173D-03
     21  0.000000D+00  0.000000D+00  0.000000D+00  0.000000D+00  0.000000D+00
     22  0.000000D+00 -0.325825D-03  0.564346D-03  0.000000D+00 -0.325825D-03
     23  0.000000D+00  0.000000D+00  0.000000D+00  0.000000D+00  0.000000D+00
     24  0.000000D+00  0.000000D+00  0.000000D+00  0.000000D+00  0.000000D+00
               11            12            13            14            15 
     11  0.130237D+00
     12 -0.492118D-01  0.939165D-01
     13 -0.359942D-02 -0.222757D-01  0.698593D+00
     14  0.285962D-02  0.128609D-01  0.000000D+00  0.698593D+00
     15  0.000000D+00  0.000000D+00  0.000000D+00  0.000000D+00  0.621040D+00
     16  0.282173D-03  0.000000D+00 -0.272269D+00 -0.109961D+00  0.797158D-01
     17 -0.488738D-03  0.000000D+00 -0.109961D+00 -0.145297D+00  0.460239D-01
     18  0.000000D+00  0.000000D+00  0.895194D-01  0.516841D-01 -0.111950D+00
     19  0.282173D-03  0.000000D+00 -0.272269D+00  0.109961D+00 -0.797158D-01
     20  0.488738D-03  0.000000D+00  0.109961D+00 -0.145297D+00  0.460239D-01
     21  0.000000D+00  0.000000D+00 -0.895194D-01  0.516841D-01 -0.111950D+00
     22 -0.564346D-03  0.000000D+00 -0.818112D-01  0.000000D+00  0.000000D+00
     23  0.000000D+00  0.000000D+00  0.000000D+00 -0.335755D+00 -0.920478D-01
     24  0.000000D+00  0.000000D+00  0.000000D+00 -0.103368D+00 -0.111950D+00
               16            17            18            19            20 
     16  0.268414D+00
     17  0.119665D+00  0.130237D+00
     18 -0.852374D-01 -0.492118D-01  0.939165D-01
     19 -0.131020D-01  0.151321D-01 -0.106931D-01  0.268414D+00
     20 -0.151321D-01  0.176217D-01 -0.121452D-01 -0.119665D+00  0.130237D+00
     21  0.106931D-01 -0.121452D-01  0.901678D-02  0.852374D-01 -0.492118D-01
     22  0.994079D-02 -0.284359D-01 -0.158646D-01  0.994079D-02  0.284359D-01
     23  0.182839D-02 -0.542106D-02 -0.318791D-02 -0.182839D-02 -0.542106D-02
     24 -0.517148D-02  0.153331D-01  0.901678D-02  0.517148D-02  0.153331D-01
               21            22            23            24 
     21  0.939165D-01
     22  0.158646D-01  0.611482D-01
     23 -0.318791D-02  0.000000D+00  0.337503D+00
     24  0.901678D-02  0.000000D+00  0.984237D-01  0.939165D-01
 Leave Link  716 at Wed Nov 19 18:17:14 2025, MaxMem=   104857600 cpu:               0.0 elap:               0.1
 (Enter /gaussian/g16.c01/intel64-sandybridge/g16/l103.exe)

 GradGradGradGradGradGradGradGradGradGradGradGradGradGradGradGradGradGrad
 Berny optimization.
 Search for a local minimum.
 Step number   1 out of a maximum of    2
 All quantities printed in internal units (Hartrees-Bohrs-Radians)
 Second derivative matrix not updated -- first step.
 ITU=  0
     Eigenvalues ---    0.00391   0.04101   0.04101   0.05555   0.08465
     Eigenvalues ---    0.08465   0.13358   0.13358   0.14412   0.14412
     Eigenvalues ---    0.18672   0.30406   0.52244   0.80621   0.80621
     Eigenvalues ---    0.95882   0.95882   0.99833
 Angle between quadratic step and forces=  56.38 degrees.
 ClnCor:  largest displacement from symmetrization is 6.00D-14 for atom     8.
 Linear search not attempted -- first point.
 ClnCor:  largest displacement from symmetrization is 3.14D-16 for atom     3.
 B after Tr=    -0.000000    0.000000    0.000000
         Rot=    1.000000   -0.000000   -0.000000    0.000000 Ang=   0.00 deg.
 Variable       Old X    -DE/DX   Delta X   Delta X   Delta X     New X
                                 (Linear)    (Quad)   (Total)
    X1        0.00000  -0.00000   0.00000   0.00000  -0.00000  -0.00000
    Y1        0.00000   0.00000   0.00000  -0.00000   0.00000   0.00000
    Z1       -1.45509   0.02312   0.00000  -0.00504  -0.00504  -1.46013
    X2       -0.00000  -0.00000   0.00000  -0.00000  -0.00000  -0.00000
    Y2       -1.90637  -0.01214   0.00000  -0.01898  -0.01898  -1.92535
    Z2       -2.12909  -0.00867   0.00000  -0.06685  -0.06685  -2.19594
    X3        1.65096   0.01051   0.00000   0.01644   0.01644   1.66740
    Y3        0.95318   0.00607   0.00000   0.00949   0.00949   0.96267
    Z3       -2.12909  -0.00867   0.00000  -0.06685  -0.06685  -2.19594
    X4       -1.65096  -0.01051   0.00000  -0.01644  -0.01644  -1.66740
    Y4        0.95318   0.00607   0.00000   0.00949   0.00949   0.96267
    Z4       -2.12909  -0.00867   0.00000  -0.06685  -0.06685  -2.19594
    X5        0.00000   0.00000   0.00000   0.00000   0.00000   0.00000
    Y5        0.00000  -0.00000   0.00000   0.00000  -0.00000   0.00000
    Z5        1.45509  -0.02312   0.00000   0.00504   0.00504   1.46013
    X6       -1.65096  -0.01051   0.00000  -0.01644  -0.01644  -1.66740
    Y6       -0.95318  -0.00607   0.00000  -0.00949  -0.00949  -0.96267
    Z6        2.12909   0.00867   0.00000   0.06685   0.06685   2.19594
    X7        1.65096   0.01051   0.00000   0.01644   0.01644   1.66740
    Y7       -0.95318  -0.00607   0.00000  -0.00949  -0.00949  -0.96267
    Z7        2.12909   0.00867   0.00000   0.06685   0.06685   2.19594
    X8        0.00000   0.00000   0.00000   0.00000   0.00000   0.00000
    Y8        1.90637   0.01214   0.00000   0.01898   0.01898   1.92535
    Z8        2.12909   0.00867   0.00000   0.06685   0.06685   2.19594
         Item               Value     Threshold  Converged?
 Maximum Force            0.023123     0.000450     NO 
 RMS     Force            0.010008     0.000300     NO 
 Maximum Displacement     0.066850     0.001800     NO 
 RMS     Displacement     0.034777     0.001200     NO 
 Predicted change in Energy=-2.312522D-03
 GradGradGradGradGradGradGradGradGradGradGradGradGradGradGradGradGradGrad

 Leave Link  103 at Wed Nov 19 18:17:14 2025, MaxMem=   104857600 cpu:               0.0 elap:               0.1
 (Enter /gaussian/g16.c01/intel64-sandybridge/g16/l9999.exe)
 Unable to Open any file for archive entry.
 1\1\GINC-THIOTIMOLINE-LARGE01\Force\RHF\STO-3G\C2H6\LCRISCI_VB\19-Nov-
 2025\0\\#p force hf/sto-3g\\title\\0,1\C,0.,0.,-0.76999997\H,-0.000000
 0075,-1.00880583,-1.12666626\H,0.87365148,0.5044029085,-1.12666626\H,-
 0.8736514725,0.5044029215,-1.12666626\C,0.,0.,0.76999997\H,-0.87365148
 ,-0.5044029085,1.12666626\H,0.8736514725,-0.5044029215,1.12666626\H,0.
 0000000075,1.00880583,1.12666626\\Version=ES64L-G16RevC.01\State=1-A1G
 \HF=-78.3043467\RMSD=5.668e-09\RMSF=1.001e-02\Dipole=0.,0.,0.\Quadrupo
 le=0.1416766,0.1416766,-0.2833531,0.,0.,0.\PG=D03D [C3(C1.C1),3SGD(H2)
 ]\\@
 The archive entry for this job was punched.


 BE CAREFUL NOT TO BECOME TOO GOOD OF A SONGBIRD OR 
 THEY'LL THROW YOU INTO A CAGE.

                                    -- SNOOPY TO WOODSTOCK
 Job cpu time:       0 days  0 hours  0 minutes  1.3 seconds.
 Elapsed time:       0 days  0 hours  0 minutes  2.2 seconds.
 File lengths (MBytes):  RWF=      5 Int=      0 D2E=      0 Chk=      1 Scr=      1
 Normal termination of Gaussian 16 at Wed Nov 19 18:17:14 2025.
