%chk=test_parall.chk
%nprocs=1
#p force output=pickett External="CentralExt gau $PGAU/test_pr.dat $EGAU/test_en.dat 7 10 read parall 2" 

title

0 1
C                  0.00000000   -0.00000000   -0.76999997
H                  0.00000000   -1.00880583   -1.12666626
H                  0.87365147    0.50440291   -1.12666626
H                 -0.87365147    0.50440291   -1.12666626
C                  0.00000000    0.00000000    0.76999997
H                 -0.87365147   -0.50440291    1.12666626
H                  0.87365147   -0.50440291    1.12666626
H                  0.00000000    1.00880583    1.12666626








--link1--
%chk=test_parall.chk
%nprocs=1
#p force hf/sto-3g

title

0 1
C                  0.00000000   -0.00000000   -0.76999997
H                  0.00000000   -1.00880583   -1.12666626
H                  0.87365147    0.50440291   -1.12666626
H                 -0.87365147    0.50440291   -1.12666626
C                  0.00000000    0.00000000    0.76999997
H                 -0.87365147   -0.50440291    1.12666626
H                  0.87365147   -0.50440291    1.12666626
H                  0.00000000    1.00880583    1.12666626


