External Calculation                                                    
SP        RHF                                                         STO-3G              
Number of atoms                            I                6
Info1-9                                    I   N=           9
          20          15           0           0           0         110
           1           1           2
Full Title                                 C   N=           2
External Calculation    
Route                                      C   N=           2
#P hf/sto-3g scf=xqc    
Charge                                     I                0
Multiplicity                               I                1
Number of electrons                        I               38
Number of alpha electrons                  I               19
Number of beta electrons                   I               19
Number of basis functions                  I               26
Number of independent functions            I               26
Number of point charges in /Mol/           I                0
Number of translation vectors              I                0
Atomic numbers                             I   N=           6
           6           1           6           1          17           7
Nuclear charges                            R   N=           6
  6.00000000E+00  1.00000000E+00  6.00000000E+00  1.00000000E+00  1.70000000E+01
  7.00000000E+00
Current cartesian coordinates              R   N=          18
  0.00000000E+00  1.70321167E+00  0.00000000E+00 -5.09312435E-01  3.66002361E+00
  0.00000000E+00  2.46616185E+00  1.01288881E+00  0.00000000E+00  3.90896292E+00
  2.42951763E+00  0.00000000E+00 -2.37320551E+00 -6.26944124E-01  0.00000000E+00
  3.16398172E+00 -1.67544200E+00  0.00000000E+00
Number of symbols in /Mol/                 I                0
Int Atom Types                             I   N=           6
           0           0           0           0           0           0
Force Field                                I                0
Atom Types                                 C   N=           6
                                                            
            
MM charges                                 R   N=           6
  0.00000000E+00  0.00000000E+00  0.00000000E+00  0.00000000E+00  0.00000000E+00
  0.00000000E+00
Integer atomic weights                     I   N=           6
          12           1          12           1          35          14
Real atomic weights                        R   N=           6
  1.20000000E+01  1.00782504E+00  1.20000000E+01  1.00782504E+00  3.49688527E+01
  1.40030740E+01
Atom fragment info                         I   N=           6
           0           0           0           0           0           0
Atom residue num                           I   N=           6
           0           0           0           0           0           0
Nuclear spins                              I   N=           6
           0           1           0           1           3           2
Nuclear ZEff                               R   N=           6
 -3.60000000E+00 -1.00000000E+00 -3.60000000E+00 -1.00000000E+00 -1.42400000E+01
 -4.55000000E+00
Nuclear ZNuc                               R   N=           6
  6.00000000E+00  1.00000000E+00  6.00000000E+00  1.00000000E+00  1.70000000E+01
  7.00000000E+00
Nuclear QMom                               R   N=           6
  0.00000000E+00  0.00000000E+00  0.00000000E+00  0.00000000E+00 -8.16500000E+00
  2.04400000E+00
Nuclear GFac                               R   N=           6
  0.00000000E+00  2.79284600E+00  0.00000000E+00  2.79284600E+00  8.21874000E-01
  4.03761000E-01
MicOpt                                     I   N=           6
          -1          -1          -1          -1          -1          -1
Number of residues                         I                0
Number of secondary structures             I                0
SymInf integers                            I   N=          26
           1           2           1           1           1           1
           1          -1           0           0           0           0
           0           0           0           0           0           0
           0           0           0           0           0           0
           0           0
RotTr to input orientation                 R   N=          12
  9.99999979E-01 -2.04382961E-04  0.00000000E+00  2.04382961E-04  9.99999979E-01
  0.00000000E+00  0.00000000E+00  0.00000000E+00  1.00000000E+00 -3.48107444E-04
  2.89405926E-13  0.00000000E+00
Number of contracted shells                I               11
Number of primitive shells                 I               33
Pure/Cartesian d shells                    I                0
Pure/Cartesian f shells                    I                0
Highest angular momentum                   I                1
Largest degree of contraction              I                3
Shell types                                I   N=          11
           0          -1           0           0          -1           0
           0          -1          -1           0          -1
Number of primitives per shell             I   N=          11
           3           3           3           3           3           3
           3           3           3           3           3
Shell to atom map                          I   N=          11
           1           1           2           3           3           4
           5           5           5           6           6
Primitive exponents                        R   N=          33
  7.16168373E+01  1.30450963E+01  3.53051216E+00  2.94124936E+00  6.83483096E-01
  2.22289916E-01  3.42525091E+00  6.23913730E-01  1.68855404E-01  7.16168373E+01
  1.30450963E+01  3.53051216E+00  2.94124936E+00  6.83483096E-01  2.22289916E-01
  3.42525091E+00  6.23913730E-01  1.68855404E-01  6.01345614E+02  1.09535854E+02
  2.96446769E+01  3.89604189E+01  9.05356348E+00  2.94449983E+00  2.12938650E+00
  5.94093427E-01  2.32524141E-01  9.91061690E+01  1.80523124E+01  4.88566024E+00
  3.78045588E+00  8.78496645E-01  2.85714374E-01
Contraction coefficients                   R   N=          33
  1.54328967E-01  5.35328142E-01  4.44634542E-01 -9.99672292E-02  3.99512826E-01
  7.00115469E-01  1.54328967E-01  5.35328142E-01  4.44634542E-01  1.54328967E-01
  5.35328142E-01  4.44634542E-01 -9.99672292E-02  3.99512826E-01  7.00115469E-01
  1.54328967E-01  5.35328142E-01  4.44634542E-01  1.54328967E-01  5.35328142E-01
  4.44634542E-01 -9.99672292E-02  3.99512826E-01  7.00115469E-01 -2.19620369E-01
  2.25595434E-01  9.00398426E-01  1.54328967E-01  5.35328142E-01  4.44634542E-01
 -9.99672292E-02  3.99512826E-01  7.00115469E-01
P(S=P) Contraction coefficients            R   N=          33
  0.00000000E+00  0.00000000E+00  0.00000000E+00  1.55916275E-01  6.07683719E-01
  3.91957393E-01  0.00000000E+00  0.00000000E+00  0.00000000E+00  0.00000000E+00
  0.00000000E+00  0.00000000E+00  1.55916275E-01  6.07683719E-01  3.91957393E-01
  0.00000000E+00  0.00000000E+00  0.00000000E+00  0.00000000E+00  0.00000000E+00
  0.00000000E+00  1.55916275E-01  6.07683719E-01  3.91957393E-01  1.05876043E-02
  5.95167005E-01  4.62001012E-01  0.00000000E+00  0.00000000E+00  0.00000000E+00
  1.55916275E-01  6.07683719E-01  3.91957393E-01
Coordinates of each shell                  R   N=          33
  0.00000000E+00  1.70321167E+00  0.00000000E+00  0.00000000E+00  1.70321167E+00
  0.00000000E+00 -5.09312435E-01  3.66002361E+00  0.00000000E+00  2.46616185E+00
  1.01288881E+00  0.00000000E+00  2.46616185E+00  1.01288881E+00  0.00000000E+00
  3.90896292E+00  2.42951763E+00  0.00000000E+00 -2.37320551E+00 -6.26944124E-01
  0.00000000E+00 -2.37320551E+00 -6.26944124E-01  0.00000000E+00 -2.37320551E+00
 -6.26944124E-01  0.00000000E+00  3.16398172E+00 -1.67544200E+00  0.00000000E+00
  3.16398172E+00 -1.67544200E+00  0.00000000E+00
Num ILSW                                   I              100
ILSW                                       I   N=         100
           0           0           0           0           2           0
           0           0           0           0           0          -1
           5           0           0           0           0           0
           0           0           0           0           0           0
           1           0           0           0           0           0
           0           0      100000           0          -1           0
           0           0           0           0           0           0
           0           0           0           1           0           0
           0 -2000000000           1           0           0           0
           0           0           4          52           0           0
           0           0           0           0           0           0
           0           0           0           6           0           1
           0           0           0           0           0           0
           0           0           0           0           0           0
           0           0           0           0           0           0
           0           0           0           0           0           0
           0           0           0           0
Num RLSW                                   I               52
RLSW                                       R   N=          52
  1.00000000E+00  1.00000000E+00  1.00000000E+00  1.00000000E+00  1.00000000E+00
  0.00000000E+00  0.00000000E+00  1.00000000E+00  0.00000000E+00  0.00000000E+00
  0.00000000E+00  0.00000000E+00  1.00000000E+00  0.00000000E+00  0.00000000E+00
  0.00000000E+00  0.00000000E+00  1.00000000E+00  0.00000000E+00  0.00000000E+00
  0.00000000E+00  0.00000000E+00  1.00000000E+00  0.00000000E+00  0.00000000E+00
  0.00000000E+00  0.00000000E+00  1.00000000E+00  0.00000000E+00  0.00000000E+00
  0.00000000E+00  0.00000000E+00  1.00000000E+00  0.00000000E+00  0.00000000E+00
  0.00000000E+00  0.00000000E+00  0.00000000E+00  1.00000000E+00  1.00000000E+00
  0.00000000E+00  1.00000000E+00  0.00000000E+00  0.00000000E+00  0.00000000E+00
  0.00000000E+00  0.00000000E+00  0.00000000E+00  0.00000000E+00  0.00000000E+00
  0.00000000E+00  0.00000000E+00
MxBond                                     I                3
NBond                                      I   N=           6
           3           1           3           1           1           1
IBond                                      I   N=          18
           2           3           5           1           0           0
           1           4           6           3           0           0
           1           0           0           3           0           0
RBond                                      R   N=          18
  1.00000000E+00  2.00000000E+00  1.00000000E+00  1.00000000E+00  0.00000000E+00
  0.00000000E+00  2.00000000E+00  1.00000000E+00  1.00000000E+00  1.00000000E+00
  0.00000000E+00  0.00000000E+00  1.00000000E+00  0.00000000E+00  0.00000000E+00
  1.00000000E+00  0.00000000E+00  0.00000000E+00
Virial Ratio                               R      2.015641059591956E+00
SCF Energy                                 R     -5.840962668919135E+02
Total Energy                               R     -5.840962668919135E+02
RMS Density                                R      8.417123061388764E-09
Job Status                                 I                1
Nuclear derivative order                   I                0
External E-field                           R   N=          35
  0.00000000E+00  0.00000000E+00  0.00000000E+00  0.00000000E+00  0.00000000E+00
  0.00000000E+00  0.00000000E+00  0.00000000E+00  0.00000000E+00  0.00000000E+00
  0.00000000E+00  0.00000000E+00  0.00000000E+00  0.00000000E+00  0.00000000E+00
  0.00000000E+00  0.00000000E+00  0.00000000E+00  0.00000000E+00  0.00000000E+00
  0.00000000E+00  0.00000000E+00  0.00000000E+00  0.00000000E+00  0.00000000E+00
  0.00000000E+00  0.00000000E+00  0.00000000E+00  0.00000000E+00  0.00000000E+00
  0.00000000E+00  0.00000000E+00  0.00000000E+00  0.00000000E+00  0.00000000E+00
IOpCl                                      I                0
IROHF                                      I                0
Alpha Orbital Energies                     R   N=          26
 -1.03742133E+02 -1.53170793E+01 -1.11553214E+01 -1.10754497E+01 -1.04207646E+01
 -7.86506574E+00 -7.85943602E+00 -7.85903176E+00 -1.12514608E+00 -1.02814920E+00
 -9.03813364E-01 -7.13820221E-01 -6.50283737E-01 -5.25617195E-01 -4.78059574E-01
 -4.32159635E-01 -4.11015521E-01 -3.54270417E-01 -3.11163359E-01  1.45109721E-01
  3.35131227E-01  3.47750563E-01  5.94080334E-01  6.47723503E-01  8.43556671E-01
  8.96496915E-01
Alpha MO coefficients                      R   N=         676
 -5.22454821E-05  3.69624694E-04 -2.47729264E-04 -2.51184036E-04  0.00000000E+00
  7.39038867E-06 -9.18848461E-07 -8.38061750E-06  4.76067265E-06  1.80645268E-05
  0.00000000E+00  2.84014882E-06  9.94506593E-01  1.57345742E-02  8.07342339E-05
  8.24186940E-05  0.00000000E+00 -1.80114964E-03 -1.69369564E-04 -1.66198835E-04
  0.00000000E+00 -3.04021008E-06  1.58986851E-05 -2.01499350E-05  1.72358239E-06
  0.00000000E+00  8.98469987E-08  2.08465833E-04 -4.05414797E-05 -3.10944402E-04
  0.00000000E+00 -1.47249073E-05  5.28298955E-04 -5.34844703E-03 -1.10703880E-03
  4.62528880E-03  0.00000000E+00  9.31772790E-06 -6.75800100E-06  2.26224225E-05
  4.59139042E-05 -1.06240044E-05  0.00000000E+00 -1.88142481E-04 -2.45854615E-04
  4.02150242E-05  0.00000000E+00  9.94406676E-01  2.42336949E-02 -1.09786138E-03
  4.23554336E-03  0.00000000E+00  9.92481020E-01  3.40818017E-02  1.45640148E-03
  3.16171603E-05  0.00000000E+00 -6.81648398E-03  4.14254421E-03 -7.17756085E-03
  4.19266196E-03 -1.16147037E-03  0.00000000E+00  8.41011666E-05  1.47911704E-04
 -4.97799151E-04  3.18038645E-04  3.02737830E-04  0.00000000E+00 -4.33519881E-03
 -3.06194504E-03 -2.93048037E-03  0.00000000E+00  1.13893024E-05  1.47742704E-04
  5.40228125E-05  9.62225643E-05  0.00000000E+00 -3.48182646E-03 -7.84904326E-03
 -4.56532910E-03  1.25854258E-03  0.00000000E+00  1.30421638E-04  9.92320640E-01
  3.51232249E-02 -1.79522946E-03  9.93135503E-04  0.00000000E+00 -6.97609773E-03
  1.79502747E-05 -3.29879537E-05  2.10945865E-05 -1.19481288E-05  0.00000000E+00
  3.99455590E-05 -5.65088376E-05  1.22054399E-04  0.00000000E+00  4.93210827E-04
 -5.09228877E-03  9.25389504E-04 -3.13532076E-03  0.00000000E+00  1.74524401E-03
 -7.67237095E-03  4.75850483E-03  4.77534620E-03  0.00000000E+00 -1.46978345E-04
  1.17988623E-04  1.43701860E-04 -2.74601947E-06 -1.60388297E-04  0.00000000E+00
 -1.00706627E-04 -3.77075372E-01  1.05361723E+00  7.02387046E-03  7.57376454E-03
  0.00000000E+00  4.42416181E-02  3.98698861E-03  3.97584538E-03  0.00000000E+00
  8.41340365E-05 -3.13971125E-04  4.46226484E-04 -1.20513684E-06  0.00000000E+00
  1.34695398E-03 -1.08715456E-02  6.42507851E-03  6.41782020E-03  0.00000000E+00
  9.31619358E-06  4.32563476E-05  2.55928473E-04 -1.31073959E-04 -3.15945702E-04
  0.00000000E+00 -7.83460281E-05  4.59904678E-03 -1.30768590E-02  7.00591826E-01
  6.97397920E-01  0.00000000E+00  5.80664739E-03  3.31248858E-02  3.29142470E-02
  0.00000000E+00  6.07590874E-05 -2.79335417E-04  3.21426171E-04 -6.43601371E-05
  0.00000000E+00  0.00000000E+00  0.00000000E+00  0.00000000E+00  0.00000000E+00
 -3.11271272E-03  0.00000000E+00  0.00000000E+00  0.00000000E+00  0.00000000E+00
  0.00000000E+00  2.52615461E-04  0.00000000E+00  0.00000000E+00  0.00000000E+00
  0.00000000E+00  0.00000000E+00  9.90162361E-01  0.00000000E+00  0.00000000E+00
  0.00000000E+00  3.92628569E-02  0.00000000E+00  0.00000000E+00  0.00000000E+00
  0.00000000E+00 -1.15894581E-04 -2.49039689E-05  2.30637940E-04  2.60607567E-03
 -2.45198865E-03  0.00000000E+00  5.26987826E-04 -5.59292703E-05 -7.87378432E-04
  2.74888927E-04 -6.37555196E-04  0.00000000E+00  2.31048218E-04  1.56852641E-04
 -4.43897012E-04 -6.98554876E-01  7.01766839E-01  0.00000000E+00 -4.76942298E-06
 -2.76801491E-02  2.77708149E-02  0.00000000E+00 -1.04261197E-04  3.45336810E-04
 -6.71894055E-04 -1.20707110E-04  0.00000000E+00 -1.45108713E-01  3.87187226E-01
  2.72298427E-02 -5.83760752E-02  0.00000000E+00  7.68850459E-02 -1.22483902E-01
  3.13988013E-01 -6.93321802E-02 -2.28074162E-02  0.00000000E+00  5.73540739E-02
  4.85540508E-02 -1.61851980E-01 -2.85397949E-02 -2.61765712E-02  0.00000000E+00
  5.23559001E-01  8.24942858E-02  7.68560920E-02  0.00000000E+00 -7.80903860E-02
  2.66731630E-01 -2.94735825E-02  7.02373414E-02  0.00000000E+00 -1.08866032E-02
  2.74477701E-02 -1.41842818E-01 -2.00670881E-02  0.00000000E+00  1.49499475E-02
  1.21711622E-01 -3.30338482E-01 -2.70587156E-02  7.95037707E-02  0.00000000E+00
 -7.90664348E-02  5.60570421E-02 -1.85408939E-01 -1.19687694E-02 -2.02993869E-02
  0.00000000E+00  6.32293746E-01  3.64401789E-02  6.33407356E-02  0.00000000E+00
  1.40373745E-01 -4.97577276E-01  2.25001728E-02 -1.07059297E-01  0.00000000E+00
  1.42487774E-01 -4.25205889E-01 -1.28705012E-01 -9.68376587E-02  0.00000000E+00
 -1.69760793E-01  5.69768606E-02 -1.47266280E-01  1.52895705E-01 -2.04363576E-01
  0.00000000E+00 -6.70732609E-02  3.59907641E-02 -1.17445582E-01  8.98168301E-03
  1.07664814E-02  0.00000000E+00  4.33822985E-01 -2.46020308E-02 -3.14039830E-02
  0.00000000E+00 -1.42768222E-01  5.36968660E-01 -4.37085272E-03  4.45125303E-02
  0.00000000E+00 -9.07810395E-02  3.15212329E-01 -2.45582152E-01  1.95975878E-01
  0.00000000E+00  3.03088256E-01  1.20950380E-01 -3.77381802E-01 -8.89547664E-02
 -1.76561631E-01  0.00000000E+00 -2.80650913E-01 -2.12962072E-02  6.78006925E-02
 -2.35934197E-02 -4.89174583E-02  0.00000000E+00 -2.83520437E-01  7.49980162E-02
  1.58193614E-01  0.00000000E+00 -9.47822650E-02  3.93378725E-01 -6.27084181E-03
 -7.82269597E-02  0.00000000E+00  3.07100868E-02 -1.00074222E-01 -2.15906883E-01
  3.77787965E-01  0.00000000E+00  2.68819074E-01 -8.02733868E-03  4.49058332E-02
  3.88133201E-01  1.59225559E-01  0.00000000E+00  2.98616702E-01  1.14589851E-02
 -3.61392949E-02  6.66386437E-02 -5.89721456E-03  0.00000000E+00  1.58143526E-01
 -2.26284832E-01  2.56248680E-02  0.00000000E+00 -1.92066936E-02  8.22225791E-02
  1.61160770E-01  1.89156887E-02  0.00000000E+00 -7.91441117E-03  6.65220607E-02
 -3.62666039E-01 -2.75268399E-01  0.00000000E+00 -1.39048709E-01 -1.54493973E-02
  7.48998154E-02  2.59496985E-01 -4.95143849E-02  0.00000000E+00  1.74892863E-01
 -1.96228163E-02  6.01006374E-02 -1.12489607E-01 -1.40719610E-01  0.00000000E+00
 -2.96051737E-01  3.85539950E-01  4.88727881E-01  0.00000000E+00  4.25486994E-02
 -1.99005007E-01  6.77727642E-02  1.58042608E-01  0.00000000E+00  0.00000000E+00
  0.00000000E+00  0.00000000E+00  0.00000000E+00  4.17360858E-01  0.00000000E+00
  0.00000000E+00  0.00000000E+00  0.00000000E+00  0.00000000E+00  2.96778652E-01
  0.00000000E+00  0.00000000E+00  0.00000000E+00  0.00000000E+00  0.00000000E+00
 -2.13791854E-01  0.00000000E+00  0.00000000E+00  0.00000000E+00  7.83895096E-01
  0.00000000E+00  0.00000000E+00  0.00000000E+00  0.00000000E+00  6.96088907E-02
  1.25589669E-02 -5.25414958E-02 -1.36368134E-02  1.01523611E-01  0.00000000E+00
  8.21886104E-02 -5.11596962E-02  2.15558278E-01 -1.08313280E-02 -4.02128858E-01
  0.00000000E+00 -2.00286242E-01  1.89189473E-03 -5.53370693E-03  1.32013949E-01
 -5.76632425E-02  0.00000000E+00  3.22109379E-02 -4.84341165E-01  2.18784487E-01
  0.00000000E+00  8.23763365E-02 -4.13462286E-01 -1.60071516E-01  5.09058821E-01
  0.00000000E+00 -8.53109919E-03  2.76600370E-02  1.14480093E-01 -1.30348941E-01
  0.00000000E+00 -2.08278682E-01  4.09159059E-03 -3.18933842E-02 -1.55919803E-01
  2.16388333E-01  0.00000000E+00  1.86801620E-02 -1.07858659E-03  3.45495371E-03
  1.52046859E-01 -1.79185593E-01  0.00000000E+00 -1.43443444E-02 -5.69060192E-01
  6.67598529E-01  0.00000000E+00 -4.74894754E-02  2.34624299E-01  9.96758433E-02
 -2.84068678E-01  0.00000000E+00  0.00000000E+00  0.00000000E+00  0.00000000E+00
  0.00000000E+00 -4.30740600E-01  0.00000000E+00  0.00000000E+00  0.00000000E+00
  0.00000000E+00  0.00000000E+00 -5.75430778E-01  0.00000000E+00  0.00000000E+00
  0.00000000E+00  0.00000000E+00  0.00000000E+00 -1.69555302E-01  0.00000000E+00
  0.00000000E+00  0.00000000E+00  6.39762558E-01  0.00000000E+00  0.00000000E+00
  0.00000000E+00  0.00000000E+00 -1.65109927E-01 -3.20350505E-02  1.38929265E-01
  1.39281087E-01 -5.63057741E-02  0.00000000E+00 -4.76363965E-02  3.51754561E-03
 -2.28150198E-02 -5.07387602E-02 -3.79303056E-02  0.00000000E+00 -2.05108260E-01
  9.71091349E-04 -3.32734925E-03 -2.01326530E-03  2.18604248E-02  0.00000000E+00
  9.60328221E-03  4.60177547E-03 -8.07094430E-02  0.00000000E+00  1.18114644E-03
 -5.76930610E-03  9.41986616E-01  2.46498271E-01  0.00000000E+00  0.00000000E+00
  0.00000000E+00  0.00000000E+00  0.00000000E+00 -6.70462859E-01  0.00000000E+00
  0.00000000E+00  0.00000000E+00  0.00000000E+00  0.00000000E+00  3.69961413E-01
  0.00000000E+00  0.00000000E+00  0.00000000E+00  0.00000000E+00  0.00000000E+00
 -4.71919688E-02  0.00000000E+00  0.00000000E+00  0.00000000E+00  1.89973678E-01
  0.00000000E+00  0.00000000E+00  0.00000000E+00  0.00000000E+00  6.77170748E-01
 -1.43944431E-01  7.79395593E-01 -5.73224585E-01 -5.07028604E-01  0.00000000E+00
 -1.82772556E-01  1.83777009E-02 -9.52216061E-02  8.58810618E-02 -1.56182951E-01
  0.00000000E+00  2.15012322E-01 -2.34469193E-02  6.57374547E-02  1.52361787E-01
  1.51300014E-01  0.00000000E+00 -4.41842538E-01 -6.44509157E-01 -6.39631987E-01
  0.00000000E+00  1.30819731E-02 -7.75788253E-02  3.13773161E-02 -1.65930398E-01
  0.00000000E+00  0.00000000E+00  0.00000000E+00  0.00000000E+00  0.00000000E+00
  5.13989963E-01  0.00000000E+00  0.00000000E+00  0.00000000E+00  0.00000000E+00
  0.00000000E+00 -7.25876194E-01  0.00000000E+00  0.00000000E+00  0.00000000E+00
  0.00000000E+00  0.00000000E+00  2.73037394E-02  0.00000000E+00  0.00000000E+00
  0.00000000E+00 -1.12484078E-01  0.00000000E+00  0.00000000E+00  0.00000000E+00
  0.00000000E+00  7.31162426E-01  1.23311566E-01 -7.89228475E-01  9.56411729E-02
 -5.54210560E-01  0.00000000E+00  9.86672837E-01 -8.32145568E-02  4.48530078E-01
 -8.81091806E-02 -5.45367209E-01  0.00000000E+00  1.55570447E-01  1.09241293E-03
 -3.49304068E-03  3.22581738E-03 -1.84027988E-02  0.00000000E+00  1.56861109E-02
 -1.44674809E-02  7.81067564E-02  0.00000000E+00  6.25926267E-02 -3.86533790E-01
  2.08855514E-01 -5.73355141E-01  0.00000000E+00 -7.92693950E-03  8.44346319E-02
 -2.92773453E-01  3.87680106E-01  0.00000000E+00 -4.25069645E-01 -1.91411013E-01
  1.19851008E+00  4.48843417E-01 -3.08645232E-04  0.00000000E+00 -9.52315183E-01
  7.14324090E-04 -1.84384848E-03 -1.34857475E-02  8.04133845E-03  0.00000000E+00
  1.55832797E-02  5.94700963E-02 -3.35001993E-02  0.00000000E+00  5.65911180E-02
 -3.48166632E-01  4.65621316E-02 -5.58680728E-01  0.00000000E+00  8.55798807E-02
 -6.22817309E-01 -4.26651652E-01 -6.29267201E-01  0.00000000E+00  6.30544519E-01
 -6.08617032E-02  4.69707117E-01 -8.24314243E-02  1.02222688E+00  0.00000000E+00
 -7.02533659E-01 -5.35874698E-03  1.32072764E-02  2.68701064E-02  2.74364062E-02
  0.00000000E+00 -1.24468136E-01 -1.26524392E-01 -1.27904291E-01  0.00000000E+00
 -4.99264889E-02  3.37144708E-01 -1.20008637E-01  4.19399239E-01  0.00000000E+00
 -9.83642168E-02  7.39811937E-01  9.37142296E-01 -5.23864741E-01  0.00000000E+00
  2.81100457E-01  8.93256730E-02 -6.60196695E-01  1.18313295E+00  3.49651999E-02
  0.00000000E+00 -4.12900661E-01 -7.20716440E-04  1.79559160E-03  1.97265500E-02
 -1.22541903E-02  0.00000000E+00 -1.68056755E-02 -9.02960047E-02  5.29290355E-02
  0.00000000E+00 -4.19778418E-03  2.97457416E-02 -1.77046824E-01 -4.59437461E-03
  0.00000000E+00
Orthonormal basis                          R   N=         676
  1.11350815E-01  3.52420046E-01  1.42196179E-01  5.64563683E-03  0.00000000E+00
  2.13960861E-01  1.16449929E-01  3.65032080E-01 -1.09254528E-01  6.95549239E-02
  0.00000000E+00  2.22066385E-01  7.64202686E-03  2.13566591E-02  1.93963227E-02
  1.37682406E-02  0.00000000E+00  8.00967896E-02  8.78512644E-02  6.21462695E-02
  0.00000000E+00  2.56955206E-02  1.00818406E-01 -4.63199903E-02  1.03757497E-01
  0.00000000E+00  1.15096221E-01  2.55341054E-01 -2.09088798E-01  1.30116117E-01
  0.00000000E+00  2.85752649E-01 -1.13080996E-01 -2.51383406E-01 -2.29776483E-01
  1.21381411E-01  0.00000000E+00 -2.19922913E-01  2.73995290E-02  5.70041855E-02
  2.23204571E-02  4.77232403E-02  0.00000000E+00  1.28812965E-01  6.79110885E-02
  1.50172017E-01  0.00000000E+00 -7.71163955E-02 -2.07624227E-01  7.34040441E-05
 -1.92178526E-01  0.00000000E+00 -2.95916730E-02 -7.64812858E-02  9.89161060E-02
  3.71909487E-01  0.00000000E+00  1.56625105E-01  2.95812192E-03 -4.90305484E-03
  1.82378767E-01  3.69441558E-01  0.00000000E+00  2.41514402E-01 -4.88401044E-02
 -9.57085123E-02 -6.67244279E-02 -3.27340699E-02  0.00000000E+00 -1.89569514E-01
 -1.93316567E-01 -8.96163704E-02  0.00000000E+00 -6.95275641E-02 -1.72042730E-01
  1.25714853E-01 -1.01512570E-01  0.00000000E+00 -3.19751012E-02 -1.16567155E-02
 -4.30268315E-01  1.15514154E-01  0.00000000E+00  1.55357803E-01 -2.55734448E-02
 -5.71161121E-03  4.39045246E-01 -1.09796478E-01  0.00000000E+00  1.69889195E-01
  1.34970139E-01  1.87132069E-01 -8.21366379E-03  1.01996029E-01  0.00000000E+00
  1.80022765E-01 -2.31140484E-02  2.02675518E-01  0.00000000E+00  9.34900366E-02
  1.64738155E-01  1.28852289E-01  1.31071154E-01  0.00000000E+00 -3.81618473E-02
 -4.65924490E-02  8.18622661E-02 -2.14512166E-01  0.00000000E+00 -2.14952784E-01
  3.07167126E-02  2.18886636E-02 -7.09327317E-05  2.72019732E-01  0.00000000E+00
  1.65051159E-01  3.83145416E-01  4.49052045E-01  2.04129154E-02 -4.59568947E-02
  0.00000000E+00  2.35809265E-01  3.11666518E-02 -8.03780559E-02  0.00000000E+00
 -1.53435403E-01 -2.30199483E-01  3.39035449E-02 -1.07041733E-01  0.00000000E+00
 -5.28354841E-03  6.66064510E-03 -1.46971460E-01 -2.81037633E-01  0.00000000E+00
 -1.89014118E-01  1.29128590E-02  1.12200796E-02  1.34345570E-01  2.06237931E-01
  0.00000000E+00  2.10162856E-01 -2.92926922E-01 -2.83221840E-01  2.34353049E-01
  2.03683904E-01  0.00000000E+00 -1.46067073E-02  3.13725179E-01  2.73071411E-01
  0.00000000E+00 -1.62086158E-01 -2.03416773E-01  7.73849750E-02 -4.75653602E-02
  0.00000000E+00  3.30225624E-03  7.19998544E-03 -8.68933616E-02  9.36077156E-02
  0.00000000E+00  1.15799931E-01 -8.28917804E-02 -5.24685887E-02  1.07022018E-01
  5.72434918E-04  0.00000000E+00  2.99082078E-02  3.67915264E-04  2.09766375E-04
  4.62192141E-01 -4.42453399E-01  0.00000000E+00 -9.45213143E-04  4.24653783E-01
 -4.06834219E-01  0.00000000E+00  8.51344535E-02  7.82189118E-02  4.68115334E-02
 -4.59783136E-02  0.00000000E+00 -1.54194642E-02 -2.30174773E-02  1.14676495E-01
 -2.78902597E-02  0.00000000E+00 -8.32602990E-02 -9.11636017E-02 -4.15969384E-02
 -7.56977380E-02  1.96273893E-01  0.00000000E+00  4.89748850E-02  1.06442509E-01
  4.85124080E-02  9.97280877E-02  2.24889934E-01  0.00000000E+00 -1.21803173E-01
  6.25011241E-02  1.39152594E-01  0.00000000E+00  5.45900353E-01  3.58262938E-01
  1.07157398E-01 -5.00680921E-01  0.00000000E+00  1.47136257E-01  8.56641640E-02
 -1.44760638E-01 -2.09574540E-01  0.00000000E+00 -8.78787681E-02 -6.35801776E-02
 -1.55996035E-02  4.04629684E-02  1.19804191E-01  0.00000000E+00  1.11947097E-01
 -3.66442580E-01 -1.33111119E-01 -3.75746396E-01 -3.45834363E-01  0.00000000E+00
  4.61323505E-01 -1.85456931E-01 -1.70630453E-01  0.00000000E+00  1.48224705E-01
  8.28853029E-02  8.17973207E-02 -2.16025041E-01  0.00000000E+00  6.76779365E-01
  5.24745370E-02  1.00564984E-01 -7.01950092E-02  0.00000000E+00 -1.35566250E-01
 -2.78964337E-01 -3.03352111E-02  2.06310454E-02 -3.85950905E-02  0.00000000E+00
 -4.75268718E-02  1.25714632E-01  5.92471830E-03 -3.39782573E-02 -1.09899473E-02
  0.00000000E+00 -1.96431772E-01 -5.23427782E-04  2.26956454E-03  0.00000000E+00
 -1.66432895E-02 -4.76941013E-03  5.68365239E-01  2.20681125E-01  0.00000000E+00
 -1.06140241E-01 -1.14911512E-03 -4.21340697E-02  1.07634715E-02  0.00000000E+00
  2.22259127E-02  7.94720394E-01 -1.47084557E-02 -7.77684396E-02 -2.28286475E-02
  0.00000000E+00 -2.29860976E-01 -3.26616577E-02  1.39507874E-03  5.46065728E-02
 -5.49332218E-02  0.00000000E+00  4.65355200E-02 -9.72301099E-03  6.74322654E-03
  0.00000000E+00  8.99580784E-03  3.68199474E-03  5.65455740E-01 -7.15829975E-02
  0.00000000E+00  6.24837434E-01 -7.87574186E-02 -1.85657884E-01  2.94124924E-02
  0.00000000E+00 -9.49838854E-02  4.57520008E-01 -5.10298752E-02  1.82038631E-01
 -1.76013219E-02  0.00000000E+00  3.95999941E-02  1.25424602E-01 -1.80697583E-02
 -2.39598894E-02 -7.98692646E-02  0.00000000E+00 -2.00652609E-01  6.79496302E-03
  1.93490560E-02  0.00000000E+00 -2.39407231E-02  3.13759145E-03 -5.10168260E-01
 -2.47342382E-01  0.00000000E+00  2.62829753E-01 -1.15336401E-01  1.47880526E-01
  1.65054502E-01  0.00000000E+00 -3.91142842E-02  5.55801753E-02 -4.02072750E-02
  1.99773973E-02  1.12092388E-02  0.00000000E+00 -5.79746576E-02 -3.03353927E-01
  1.18904917E-01  5.06113313E-01  4.83852905E-01  0.00000000E+00  4.49114826E-01
 -3.07552711E-01 -2.93896718E-01  0.00000000E+00  1.48622961E-01 -8.73677192E-02
 -8.41912178E-02  1.34661329E-01  0.00000000E+00 -2.95642080E-02  9.38018100E-03
 -6.93573777E-02 -4.88629115E-02  0.00000000E+00 -4.72149380E-02  1.06501151E-01
 -8.50188507E-02 -4.95483444E-02  1.86724175E-01  0.00000000E+00 -1.88321249E-02
  4.77452283E-02 -2.21955672E-02 -6.16515552E-02 -1.79435900E-01  0.00000000E+00
 -7.26850441E-02  4.08552502E-02  1.26962456E-01  0.00000000E+00  7.60756465E-01
 -5.10348033E-01 -1.19047313E-01  4.73683714E-01  0.00000000E+00  1.06980605E-02
 -6.35792755E-03 -4.27312871E-02  2.57432067E-02  0.00000000E+00  9.71307881E-02
  7.68717364E-02 -6.08104736E-02  7.72030983E-02  3.44391360E-03  0.00000000E+00
 -7.24090322E-03 -3.63105221E-04  1.38478443E-04 -5.57879558E-01  5.50447151E-01
  0.00000000E+00 -1.61384102E-03  5.79569463E-01 -5.72914719E-01  0.00000000E+00
  7.30596778E-02 -7.17650582E-02  2.06804219E-02  3.49184844E-02  0.00000000E+00
  5.31390970E-02 -8.78310978E-02  1.30696206E-01  1.32817953E-01  0.00000000E+00
 -2.88437674E-02  4.72454523E-03 -1.36728535E-02  2.35516132E-02  1.60880120E-03
  0.00000000E+00 -4.23805615E-02 -7.66431338E-01  8.68193110E-01 -1.38132376E-01
 -1.37636169E-01  0.00000000E+00 -2.72637296E-01  2.41832730E-01  2.40705267E-01
  0.00000000E+00 -2.01374893E-02  3.45803774E-02 -2.33803379E-02  1.59770109E-02
  0.00000000E+00  1.01031790E-01 -2.46541240E-01  4.45494151E-01  6.10932278E-01
  0.00000000E+00 -3.34117559E-01  4.11803466E-02 -1.15918548E-01  1.29864270E-01
  4.12107193E-01  0.00000000E+00 -3.63104517E-01  1.48189375E-01 -2.57603498E-01
 -1.83700543E-01 -1.68018944E-01  0.00000000E+00  6.14492492E-01  5.11289573E-01
  4.68182068E-01  0.00000000E+00 -1.20187831E-01  3.78053278E-01 -1.21065686E-01
  2.92824912E-01  0.00000000E+00 -8.48348848E-02  2.31363876E-01 -6.88348951E-01
 -1.57170592E-02  0.00000000E+00 -3.76014538E-01  7.46132368E-02 -1.80737290E-01
 -4.50296869E-01  8.15324324E-01  0.00000000E+00 -4.95556288E-02 -5.54366929E-02
  1.05808284E-01  6.99683704E-02  1.01478484E-01  0.00000000E+00 -3.30361998E-01
 -2.21518744E-01 -3.17831910E-01  0.00000000E+00 -1.90708184E-01  6.96735602E-01
 -1.12822246E-01  5.70839837E-01  0.00000000E+00  2.72270254E-02 -1.38732072E-01
 -3.05512899E-01  7.44313983E-01  0.00000000E+00 -5.71614122E-01  5.44005657E-02
 -2.09645025E-01 -8.87066720E-01 -6.14473133E-01  0.00000000E+00  9.85327305E-01
  1.77990369E-02 -3.62721815E-02 -4.75143191E-02 -2.03022954E-02  0.00000000E+00
  1.55377493E-01  1.69790751E-01  7.50670884E-02  0.00000000E+00  2.80672576E-02
 -1.31502241E-01  1.48024447E-01 -5.95830713E-02  0.00000000E+00  1.76427497E-01
 -7.69766488E-01  3.16242018E-01 -5.94899644E-01  0.00000000E+00  9.39361349E-01
  1.79694225E-01 -7.74700491E-01 -3.73562953E-01  1.26810025E-01  0.00000000E+00
  5.80935266E-01  1.48322448E-02 -3.22904866E-02 -1.53806458E-02 -4.55761176E-02
  0.00000000E+00  1.10266296E-01  5.22020422E-02  1.56514161E-01  0.00000000E+00
 -8.69504791E-02  3.66155763E-01 -2.38348029E-02  3.35753778E-01  0.00000000E+00
  2.39158787E-01 -1.29632712E+00 -7.11328580E-01  5.69881637E-02  0.00000000E+00
  3.80659827E-01 -2.48988870E-01  1.35033408E+00 -6.18354280E-01  2.87188894E-01
  0.00000000E+00 -3.99415576E-01  8.99033614E-03 -2.21799509E-02 -3.19675625E-02
 -1.35869027E-02  0.00000000E+00  9.89228122E-02  1.29417550E-01  5.40910591E-02
  0.00000000E+00  3.37611131E-02 -1.61526989E-01  1.01063364E-01 -1.39744685E-01
  0.00000000E+00  0.00000000E+00  0.00000000E+00  0.00000000E+00  0.00000000E+00
  4.83628103E-01  0.00000000E+00  0.00000000E+00  0.00000000E+00  0.00000000E+00
  0.00000000E+00  4.66230090E-01  0.00000000E+00  0.00000000E+00  0.00000000E+00
  0.00000000E+00  0.00000000E+00  2.83550880E-01  0.00000000E+00  0.00000000E+00
  0.00000000E+00  3.97246529E-01  0.00000000E+00  0.00000000E+00  0.00000000E+00
  0.00000000E+00  2.45624701E-01  0.00000000E+00  0.00000000E+00  0.00000000E+00
  0.00000000E+00 -1.76761456E-01  0.00000000E+00  0.00000000E+00  0.00000000E+00
  0.00000000E+00  0.00000000E+00 -4.02562847E-01  0.00000000E+00  0.00000000E+00
  0.00000000E+00  0.00000000E+00  0.00000000E+00  5.50436961E-01  0.00000000E+00
  0.00000000E+00  0.00000000E+00  4.87134144E-01  0.00000000E+00  0.00000000E+00
  0.00000000E+00  0.00000000E+00 -3.11106791E-01  0.00000000E+00  0.00000000E+00
  0.00000000E+00  0.00000000E+00 -5.40875295E-01  0.00000000E+00  0.00000000E+00
  0.00000000E+00  0.00000000E+00  0.00000000E+00 -2.21299044E-02  0.00000000E+00
  0.00000000E+00  0.00000000E+00  0.00000000E+00  0.00000000E+00  2.71876890E-01
  0.00000000E+00  0.00000000E+00  0.00000000E+00 -7.49431905E-03  0.00000000E+00
  0.00000000E+00  0.00000000E+00  0.00000000E+00  8.05237750E-01  0.00000000E+00
  0.00000000E+00  0.00000000E+00  0.00000000E+00 -2.28653840E-01  0.00000000E+00
  0.00000000E+00  0.00000000E+00  0.00000000E+00  0.00000000E+00  5.46105523E-01
  0.00000000E+00  0.00000000E+00  0.00000000E+00  0.00000000E+00  0.00000000E+00
  6.53904000E-01  0.00000000E+00  0.00000000E+00  0.00000000E+00 -6.03643037E-01
  0.00000000E+00  0.00000000E+00  0.00000000E+00  0.00000000E+00 -3.64976964E-01
  0.00000000E+00  0.00000000E+00  0.00000000E+00  0.00000000E+00  6.80789210E-01
  0.00000000E+00  0.00000000E+00  0.00000000E+00  0.00000000E+00  0.00000000E+00
 -6.36252773E-01  0.00000000E+00  0.00000000E+00  0.00000000E+00  0.00000000E+00
  0.00000000E+00  4.15885320E-01  0.00000000E+00  0.00000000E+00  0.00000000E+00
 -5.60826471E-01  0.00000000E+00  0.00000000E+00  0.00000000E+00  0.00000000E+00
  2.94160615E-01
Total SCF Density                          R   N=         351
  2.07403416E+00 -2.41612799E-01  9.38987432E-01 -1.26870962E-02  9.31931967E-03
  6.17326959E-01 -9.76877674E-03  1.36006352E-02 -8.04832198E-02  6.01261897E-01
  0.00000000E+00  0.00000000E+00  0.00000000E+00  0.00000000E+00  7.19474478E-01
 -1.12195722E-01  2.89636871E-01 -1.83663627E-01  4.98109027E-01  0.00000000E+00
  5.41730504E-01  2.66583664E-02 -6.95374437E-02 -1.06334091E-01  3.88763896E-02
  0.00000000E+00  2.85111024E-02  2.07071729E+00 -6.28790125E-02  8.15073337E-02
  2.40480674E-01 -9.53477818E-02  0.00000000E+00 -8.60431315E-02 -2.21270025E-01
  8.57520875E-01  1.14138099E-01 -3.05706741E-01 -3.97097371E-01  1.39259861E-01
  0.00000000E+00  8.71516594E-02 -1.20012360E-02  7.75929352E-02  5.63680166E-01
 -2.44065309E-02  5.43354436E-02  1.32612557E-01 -1.63796301E-02  0.00000000E+00
 -9.20059796E-02  2.53115590E-03 -5.19103268E-02  1.07411795E-02  6.35156919E-01
  0.00000000E+00  0.00000000E+00  0.00000000E+00  0.00000000E+00  7.43448810E-01
  0.00000000E+00  0.00000000E+00  0.00000000E+00  0.00000000E+00  0.00000000E+00
  8.38396425E-01  4.04971917E-02 -1.51107840E-01 -1.22470349E-01  6.34796030E-03
  0.00000000E+00 -5.01507439E-02 -1.13668926E-01  2.94181909E-01  3.67673681E-01
  3.73817624E-01  0.00000000E+00  5.90291730E-01 -1.28481551E-03 -1.81798654E-03
 -6.82710164E-03 -7.26163063E-03  0.00000000E+00 -3.57725754E-03  8.74314359E-04
 -2.26561574E-03  3.94761708E-03  3.19222654E-03  0.00000000E+00  2.69478433E-03
  2.27804240E+00  4.72719918E-03  6.28039616E-03  2.25894431E-02  2.35045816E-02
  0.00000000E+00  1.20638848E-02 -2.99445668E-03  7.87854383E-03 -1.29875588E-02
 -9.62677671E-03  0.00000000E+00 -8.60871820E-03 -8.14478093E-01  2.38892599E+00
  2.46885433E-02 -9.52354162E-02  1.00014843E-01  1.04984467E-01  0.00000000E+00
  2.83891745E-03 -1.02925525E-02  4.30450515E-02 -4.57378618E-02 -3.35276299E-03
  0.00000000E+00 -3.57003500E-02  4.73625013E-03 -1.32670488E-02  2.07619392E+00
  2.45333621E-02 -9.16353718E-02  1.09531356E-01  9.37535115E-02  0.00000000E+00
  6.18491377E-02 -1.42514606E-04 -6.06470937E-03 -5.77343015E-03 -1.12714041E-02
  0.00000000E+00 -1.88731489E-02  4.72612007E-03 -1.32958555E-02 -3.76033215E-02
  2.07650264E+00  0.00000000E+00  0.00000000E+00  0.00000000E+00  0.00000000E+00
 -3.85521794E-02  0.00000000E+00  0.00000000E+00  0.00000000E+00  0.00000000E+00
  0.00000000E+00  6.87372239E-02  0.00000000E+00  0.00000000E+00  0.00000000E+00
  0.00000000E+00  0.00000000E+00  2.10975492E+00  1.57951559E-02 -1.81178423E-01
  2.21680795E-02  1.05228355E-02  0.00000000E+00 -4.19860046E-02  9.82901086E-03
 -1.84425814E-02  4.81586624E-02  4.62866541E-02  0.00000000E+00  3.45194048E-02
  1.43553227E-01 -4.98803375E-01  7.66988599E-02  7.60600556E-02  0.00000000E+00
  2.11700055E+00 -7.40875394E-02  2.50360678E-01 -3.33769543E-01 -3.10073425E-01
  0.00000000E+00 -4.28221473E-03  4.05230070E-02 -1.56814358E-01  1.77590371E-01
  1.82909268E-02  0.00000000E+00  1.35462871E-01 -1.68303828E-02  4.73852735E-02
 -3.42264462E-01  1.47901680E-01  0.00000000E+00 -2.45283464E-01  1.54906978E+00
 -7.39583244E-02  2.39871218E-01 -3.23954030E-01 -3.13334635E-01  0.00000000E+00
 -2.36241212E-01 -1.50454494E-03  2.72243088E-02  1.69548831E-02  4.23363921E-02
  0.00000000E+00  7.08878797E-02 -1.68141868E-02  4.75738753E-02  1.48006389E-01
 -3.43661780E-01  0.00000000E+00 -2.43493542E-01 -5.63968643E-01  1.55477876E+00
  0.00000000E+00  0.00000000E+00  0.00000000E+00  0.00000000E+00  1.02946415E-01
  0.00000000E+00  0.00000000E+00  0.00000000E+00  0.00000000E+00  0.00000000E+00
 -2.70971638E-01  0.00000000E+00  0.00000000E+00  0.00000000E+00  0.00000000E+00
  0.00000000E+00 -4.74377833E-01  0.00000000E+00  0.00000000E+00  0.00000000E+00
  2.05065845E+00 -2.89942074E-03  7.84812655E-03  3.78568357E-03 -1.55940896E-02
  0.00000000E+00 -5.77072239E-03  6.31730813E-03  4.34304385E-03 -5.68862629E-03
  2.96818100E-02  0.00000000E+00  9.36519601E-03  1.39008276E-04 -6.16954621E-04
 -1.50037965E-03  3.28605857E-04  0.00000000E+00  6.75975714E-04  5.43958781E-03
 -2.11069961E-03  0.00000000E+00  2.11047207E+00  9.53208192E-03 -1.74111933E-02
 -3.48387838E-03  6.61963496E-02  0.00000000E+00  1.66788971E-02  8.81953230E-03
 -1.74823062E-01 -1.89566318E-02  3.09421591E-02  0.00000000E+00 -2.72343895E-02
 -1.08599323E-04  1.10114160E-03  4.82895228E-03 -2.21047102E-03  0.00000000E+00
  3.22408245E-03 -1.69544986E-02  1.16762806E-02  0.00000000E+00 -4.71565853E-01
  2.06964210E+00 -4.91887177E-02  2.38984414E-01  1.67053871E-01 -7.91666860E-02
  0.00000000E+00 -9.59577032E-02  3.16577762E-02 -1.21000277E-01  3.97190414E-02
  1.53941887E-01  0.00000000E+00 -2.01463846E-01  1.28164938E-03 -5.00512479E-03
 -6.75742690E-03  3.61030987E-03  0.00000000E+00  1.31631290E-02  2.57203408E-02
 -1.79079076E-02  0.00000000E+00 -2.28629460E-02  1.19993051E-01  1.90979817E+00
  9.54796573E-03 -2.20741352E-02 -7.18729289E-02  3.37479348E-02  0.00000000E+00
  8.98071980E-02 -1.21198656E-01  4.12214031E-01  1.72834906E-01 -5.71443228E-01
  0.00000000E+00 -1.86099470E-01 -1.39399078E-03  4.29221869E-03  1.71176835E-02
  1.81906753E-02  0.00000000E+00 -2.07799231E-02 -6.43784617E-02 -7.12034974E-02
  0.00000000E+00  9.36674347E-02 -4.86383461E-01  2.63932855E-01  9.00912325E-01
  0.00000000E+00  0.00000000E+00  0.00000000E+00  0.00000000E+00  2.00343872E-01
  0.00000000E+00  0.00000000E+00  0.00000000E+00  0.00000000E+00  0.00000000E+00
  2.31335475E-01  0.00000000E+00  0.00000000E+00  0.00000000E+00  0.00000000E+00
  0.00000000E+00  2.59973908E-02  0.00000000E+00  0.00000000E+00  0.00000000E+00
 -1.02139263E-01  0.00000000E+00  0.00000000E+00  0.00000000E+00  0.00000000E+00
  6.42133983E-02
Mulliken Charges                           R   N=           6
  2.56397054E-02  1.18074384E-01 -4.81961701E-02  7.49993052E-02 -8.65290976E-02
 -8.39881266E-02
ONIOM Charges                              I   N=          16
           0           0           0           0           0           0
           0           0           0           0           0           0
           0           0           0           0
ONIOM Multiplicities                       I   N=          16
           1           0           0           0           0           0
           0           0           0           0           0           0
           0           0           0           0
Atom Layers                                I   N=           6
           1           1           1           1           1           1
Atom Modifiers                             I   N=           6
           0           0           0           0           0           0
Int Atom Modified Types                    I   N=           6
           0           0           0           0           0           0
Force Field                                I                0
Atom Modified Types                        C   N=           6
                                                            
            
Link Atoms                                 I   N=           6
           0           0           0           0           0           0
Atom Modified MM Charges                   R   N=           6
  0.00000000E+00  0.00000000E+00  0.00000000E+00  0.00000000E+00  0.00000000E+00
  0.00000000E+00
Link Distances                             R   N=          24
  0.00000000E+00  0.00000000E+00  0.00000000E+00  0.00000000E+00  0.00000000E+00
  0.00000000E+00  0.00000000E+00  0.00000000E+00  0.00000000E+00  0.00000000E+00
  0.00000000E+00  0.00000000E+00  0.00000000E+00  0.00000000E+00  0.00000000E+00
  0.00000000E+00  0.00000000E+00  0.00000000E+00  0.00000000E+00  0.00000000E+00
  0.00000000E+00  0.00000000E+00  0.00000000E+00  0.00000000E+00
Cartesian Gradient                         R   N=          18
  0.00000000E+00  0.00000000E+00  0.00000000E+00  0.00000000E+00  0.00000000E+00
  0.00000000E+00  0.00000000E+00  0.00000000E+00  0.00000000E+00  0.00000000E+00
  0.00000000E+00  0.00000000E+00  0.00000000E+00  0.00000000E+00  0.00000000E+00
  0.00000000E+00  0.00000000E+00  0.00000000E+00
Nonadiabatic coupling                      R   N=          18
  0.00000000E+00  0.00000000E+00  0.00000000E+00  0.00000000E+00  0.00000000E+00
  0.00000000E+00  0.00000000E+00  0.00000000E+00  0.00000000E+00  0.00000000E+00
  0.00000000E+00  0.00000000E+00  0.00000000E+00  0.00000000E+00  0.00000000E+00
  0.00000000E+00  0.00000000E+00  0.00000000E+00
Dipole Moment                              R   N=           3
  3.94505168E-02  1.15577042E+00  0.00000000E+00
Quadrupole Moment                          R   N=           6
 -1.89667606E+00  8.61352579E-01  1.03532348E+00  1.31415066E+00  0.00000000E+00
  0.00000000E+00
QEq coupling tensors                       R   N=          36
 -2.91758935E-02 -1.96390283E-01 -6.93111130E-02  0.00000000E+00  0.00000000E+00
  9.84870065E-02  1.37536367E-01  1.38634953E-01 -3.23719998E-01  0.00000000E+00
  0.00000000E+00  1.86183631E-01 -1.54359356E-01  2.33778212E-02 -7.40901064E-02
  0.00000000E+00  0.00000000E+00  2.28449462E-01 -1.00531909E-01 -2.67090562E-01
 -8.60189314E-02  0.00000000E+00  0.00000000E+00  1.86550841E-01 -8.35805568E-01
 -2.78541719E+00 -8.13574985E-01  0.00000000E+00  0.00000000E+00  1.64938055E+00
  2.53871855E+00  6.65472754E-01  3.93022565E-03  0.00000000E+00  0.00000000E+00
 -2.54264878E+00
ClPar MaxAn                                I              200
ClPar NIntPar                              I                4
ClPar NRealPar                             I               16
ClPar NBits                                I               30
ClPar LenBitVec                            I                1
ClPar Read BitMap                          I   N=         200
           0           0           0           0           0           0
           0           0           0           0           0           0
           0           0           0           0           0           0
           0           0           0           0           0           0
           0           0           0           0           0           0
           0           0           0           0           0           0
           0           0           0           0           0           0
           0           0           0           0           0           0
           0           0           0           0           0           0
           0           0           0           0           0           0
           0           0           0           0           0           0
           0           0           0           0           0           0
           0           0           0           0           0           0
           0           0           0           0           0           0
           0           0           0           0           0           0
           0           0           0           0           0           0
           0           0           0           0           0           0
           0           0           0           0           0           0
           0           0           0           0           0           0
           0           0           0           0           0           0
           0           0           0           0           0           0
           0           0           0           0           0           0
           0           0           0           0           0           0
           0           0           0           0           0           0
           0           0           0           0           0           0
           0           0           0           0           0           0
           0           0           0           0           0           0
           0           0           0           0           0           0
           0           0           0           0           0           0
           0           0           0           0           0           0
           0           0           0           0           0           0
           0           0           0           0           0           0
           0           0           0           0           0           0
           0           0
ClPar Default BitMap                       I   N=         200
        2016        2016        2016        2016        2016        2016
        2016        2016        2016        2016        2016        2016
        2016        2016        2016        2016        2016        2016
        2016        2016        2016        2016        2016        2016
        2016        2016        2016        2016        2016        2016
        2016        2016        2016        2016        2016        2016
        2016        2016        2016        2016        2016        2016
        2016        2016        2016        2016        2016        2016
        2016        2016        2016        2016        2016        2016
        2016        2016        2016        2016        2016        2016
        2016        2016        2016        2016        2016        2016
        2016        2016        2016        2016        2016        2016
        2016        2016        2016        2016        2016        2016
        2016        2016        2016        2016        2016        2016
        2016        2016         480         480         480         480
         480         480         480         480         480         480
         480         480         480         480         480         480
         480         480         480         480         480         480
         480         480         480         480         480         480
         480         480         480         480         480         480
         480         480         480         480         480         480
         480         480         480         480         480         480
         480         480         480         480         480         480
         480         480         480         480         480         480
         480         480         480         480         480         480
         480         480         480         480         480         480
         480         480         480         480         480         480
         480         480         480         480         480         480
         480         480         480         480         480         480
         480         480         480         480         480         480
         480         480         480         480         480         480
         480         480         480         480         480         480
         480         480         480         480         480         480
         480         480
ClPar Int Params                           I   N=         800
           0           0           0           0           0           0
           0           0           0           0           0           0
           0           0           0           0           0           0
           0           0           0           0           0           0
           0           0           0           0           0           0
           0           0           0           0           0           0
           0           0           0           0           0           0
           0           0           0           0           0           0
           0           0           0           0           0           0
           0           0           0           0           0           0
           0           0           0           0           0           0
           0           0           0           0           0           0
           0           0           0           0           0           0
           0           0           0           0           0           0
           0           0           0           0           0           0
           0           0           0           0           0           0
           0           0           0           0           0           0
           0           0           0           0           0           0
           0           0           0           0           0           0
           0           0           0           0           0           0
           0           0           0           0           0           0
           0           0           0           0           0           0
           0           0           0           0           0           0
           0           0           0           0           0           0
           0           0           0           0           0           0
           0           0           0           0           0           0
           0           0           0           0           0           0
           0           0           0           0           0           0
           0           0           0           0           0           0
           0           0           0           0           0           0
           0           0           0           0           0           0
           0           0           0           0           0           0
           0           0           0           0           0           0
           0           0           0           0           0           0
           0           0           0           0           0           0
           0           0           0           0           0           0
           0           0           0           0           0           0
           0           0           0           0           0           0
           0           0           0           0           0           0
           0           0           0           0           0           0
           0           0           0           0           0           0
           0           0           0           0           0           0
           0           0           0           0           0           0
           0           0           0           0           0           0
           0           0           0           0           0           0
           0           0           0           0           0           0
           0           0           0           0           0           0
           0           0           0           0           0           0
           0           0           0           0           0           0
           0           0           0           0           0           0
           0           0           0           0           0           0
           0           0           0           0           0           0
           0           0           0           0           0           0
           0           0           0           0           0           0
           0           0           0           0           0           0
           0           0           0           0           0           0
           0           0           0           0           0           0
           0           0           0           0           0           0
           0           0           0           0           0           0
           0           0           0           0           0           0
           0           0           0           0           0           0
           0           0           0           0           0           0
           0           0           0           0           0           0
           0           0           0           0           0           0
           0           0           0           0           0           0
           0           0           0           0           0           0
           0           0           0           0           0           0
           0           0           0           0           0           0
           0           0           0           0           0           0
           0           0           0           0           0           0
           0           0           0           0           0           0
           0           0           0           0           0           0
           0           0           0           0           0           0
           0           0           0           0           0           0
           0           0           0           0           0           0
           0           0           0           0           0           0
           0           0           0           0           0           0
           0           0           0           0           0           0
           0           0           0           0           0           0
           0           0           0           0           0           0
           0           0           0           0           0           0
           0           0           0           0           0           0
           0           0           0           0           0           0
           0           0           0           0           0           0
           0           0           0           0           0           0
           0           0           0           0           0           0
           0           0           0           0           0           0
           0           0           0           0           0           0
           0           0           0           0           0           0
           0           0           0           0           0           0
           0           0           0           0           0           0
           0           0           0           0           0           0
           0           0           0           0           0           0
           0           0           0           0           0           0
           0           0           0           0           0           0
           0           0           0           0           0           0
           0           0           0           0           0           0
           0           0           0           0           0           0
           0           0           0           0           0           0
           0           0           0           0           0           0
           0           0           0           0           0           0
           0           0           0           0           0           0
           0           0           0           0           0           0
           0           0           0           0           0           0
           0           0           0           0           0           0
           0           0           0           0           0           0
           0           0           0           0           0           0
           0           0           0           0           0           0
           0           0           0           0           0           0
           0           0           0           0           0           0
           0           0           0           0           0           0
           0           0           0           0           0           0
           0           0           0           0           0           0
           0           0           0           0           0           0
           0           0           0           0           0           0
           0           0           0           0           0           0
           0           0           0           0           0           0
           0           0           0           0           0           0
           0           0           0           0           0           0
           0           0           0           0           0           0
           0           0           0           0           0           0
           0           0           0           0           0           0
           0           0           0           0           0           0
           0           0           0           0           0           0
           0           0           0           0           0           0
           0           0           0           0           0           0
           0           0           0           0           0           0
           0           0           0           0           0           0
           0           0           0           0           0           0
           0           0           0           0           0           0
           0           0           0           0           0           0
           0           0           0           0           0           0
           0           0           0           0           0           0
           0           0
ClPar Real Params                          R   N=        3200
  0.00000000E+00  0.00000000E+00  0.00000000E+00  0.00000000E+00  0.00000000E+00
  0.00000000E+00  0.00000000E+00  0.00000000E+00  0.00000000E+00  0.00000000E+00
  0.00000000E+00  0.00000000E+00  0.00000000E+00  0.00000000E+00  0.00000000E+00
  0.00000000E+00  0.00000000E+00  0.00000000E+00  0.00000000E+00  0.00000000E+00
  0.00000000E+00  0.00000000E+00  0.00000000E+00  0.00000000E+00  0.00000000E+00
  0.00000000E+00  0.00000000E+00  0.00000000E+00  0.00000000E+00  0.00000000E+00
  0.00000000E+00  0.00000000E+00  0.00000000E+00  0.00000000E+00  0.00000000E+00
  0.00000000E+00  0.00000000E+00  0.00000000E+00  0.00000000E+00  0.00000000E+00
  0.00000000E+00  0.00000000E+00  0.00000000E+00  0.00000000E+00  0.00000000E+00
  0.00000000E+00  0.00000000E+00  0.00000000E+00  0.00000000E+00  0.00000000E+00
  0.00000000E+00  0.00000000E+00  0.00000000E+00  0.00000000E+00  0.00000000E+00
  0.00000000E+00  0.00000000E+00  0.00000000E+00  0.00000000E+00  0.00000000E+00
  0.00000000E+00  0.00000000E+00  0.00000000E+00  0.00000000E+00  0.00000000E+00
  0.00000000E+00  0.00000000E+00  0.00000000E+00  0.00000000E+00  0.00000000E+00
  0.00000000E+00  0.00000000E+00  0.00000000E+00  0.00000000E+00  0.00000000E+00
  0.00000000E+00  0.00000000E+00  0.00000000E+00  0.00000000E+00  0.00000000E+00
  0.00000000E+00  0.00000000E+00  0.00000000E+00  0.00000000E+00  0.00000000E+00
  0.00000000E+00  0.00000000E+00  0.00000000E+00  0.00000000E+00  0.00000000E+00
  0.00000000E+00  0.00000000E+00  0.00000000E+00  0.00000000E+00  0.00000000E+00
  0.00000000E+00  0.00000000E+00  0.00000000E+00  0.00000000E+00  0.00000000E+00
  0.00000000E+00  0.00000000E+00  0.00000000E+00  0.00000000E+00  0.00000000E+00
  0.00000000E+00  0.00000000E+00  0.00000000E+00  0.00000000E+00  0.00000000E+00
  0.00000000E+00  0.00000000E+00  0.00000000E+00  0.00000000E+00  0.00000000E+00
  0.00000000E+00  0.00000000E+00  0.00000000E+00  0.00000000E+00  0.00000000E+00
  0.00000000E+00  0.00000000E+00  0.00000000E+00  0.00000000E+00  0.00000000E+00
  0.00000000E+00  0.00000000E+00  0.00000000E+00  0.00000000E+00  0.00000000E+00
  0.00000000E+00  0.00000000E+00  0.00000000E+00  0.00000000E+00  0.00000000E+00
  0.00000000E+00  0.00000000E+00  0.00000000E+00  0.00000000E+00  0.00000000E+00
  0.00000000E+00  0.00000000E+00  0.00000000E+00  0.00000000E+00  0.00000000E+00
  0.00000000E+00  0.00000000E+00  0.00000000E+00  0.00000000E+00  0.00000000E+00
  0.00000000E+00  0.00000000E+00  0.00000000E+00  0.00000000E+00  0.00000000E+00
  0.00000000E+00  0.00000000E+00  0.00000000E+00  0.00000000E+00  0.00000000E+00
  0.00000000E+00  0.00000000E+00  0.00000000E+00  0.00000000E+00  0.00000000E+00
  0.00000000E+00  0.00000000E+00  0.00000000E+00  0.00000000E+00  0.00000000E+00
  0.00000000E+00  0.00000000E+00  0.00000000E+00  0.00000000E+00  0.00000000E+00
  0.00000000E+00  0.00000000E+00  0.00000000E+00  0.00000000E+00  0.00000000E+00
  0.00000000E+00  0.00000000E+00  0.00000000E+00  0.00000000E+00  0.00000000E+00
  0.00000000E+00  0.00000000E+00  0.00000000E+00  0.00000000E+00  0.00000000E+00
  0.00000000E+00  0.00000000E+00  0.00000000E+00  0.00000000E+00  0.00000000E+00
  0.00000000E+00  0.00000000E+00  0.00000000E+00  0.00000000E+00  0.00000000E+00
  2.26000000E-01  4.43000000E-01  1.01000000E-01  1.47000000E-01  1.92000000E-01
  2.40000000E-01  2.75000000E-01  3.03000000E-01  3.25000000E-01  4.13000000E-01
  9.60000000E-02  1.35000000E-01  1.73000000E-01  2.11000000E-01  2.48000000E-01
  2.86000000E-01  3.23000000E-01  3.60000000E-01  8.20000000E-02  1.04000000E-01
  1.17000000E-01  1.23000000E-01  1.29000000E-01  1.34000000E-01  1.40000000E-01
  1.44000000E-01  1.48000000E-01  1.52000000E-01  1.55000000E-01  1.76000000E-01
  1.98000000E-01  2.19000000E-01  2.39000000E-01  2.60000000E-01  2.80000000E-01
  3.00000000E-01  7.90000000E-02  9.90000000E-02  1.19000000E-01  1.26000000E-01
  1.33000000E-01  1.40000000E-01  1.47000000E-01  1.53000000E-01  1.58000000E-01
  1.63000000E-01  1.57000000E-01  1.70000000E-01  1.87000000E-01  2.03000000E-01
  2.19000000E-01  2.34000000E-01  2.50000000E-01  2.65000000E-01  7.40000000E-02
  9.20000000E-02  1.05000000E-01  1.06000000E-01  1.07000000E-01  1.08000000E-01
  1.09000000E-01  1.10000000E-01  1.11000000E-01  1.12000000E-01  1.13000000E-01
  1.14000000E-01  1.15000000E-01  1.16000000E-01  1.17000000E-01  1.17000000E-01
  1.26000000E-01  1.36000000E-01  1.46000000E-01  1.55000000E-01  1.65000000E-01
  1.73000000E-01  1.82000000E-01  1.90000000E-01  1.62000000E-01  1.78000000E-01
  1.10000000E-01  1.35000000E-01  1.59000000E-01  1.83000000E-01  2.07000000E-01
  2.31000000E-01  6.90000000E-02  9.40000000E-02  1.02000000E-01  1.03000000E-01
  1.05000000E-01  1.07000000E-01  1.09000000E-01  1.11000000E-01  1.13000000E-01
  1.15000000E-01  1.17000000E-01  1.19000000E-01  1.20000000E-01  1.22000000E-01
  1.24000000E-01  1.26000000E-01  1.28000000E-01  1.28000000E-01  1.28000000E-01
  1.28000000E-01  1.28000000E-01  1.28000000E-01  1.28000000E-01  1.28000000E-01
  1.28000000E-01  1.28000000E-01  1.28000000E-01  1.28000000E-01  1.28000000E-01
  1.28000000E-01  1.28000000E-01  1.28000000E-01  1.28000000E-01  1.28000000E-01
  1.28000000E-01  1.28000000E-01  1.28000000E-01  1.28000000E-01  1.28000000E-01
  1.28000000E-01  1.28000000E-01  1.28000000E-01  1.28000000E-01  1.28000000E-01
  1.28000000E-01  1.28000000E-01  1.28000000E-01  1.28000000E-01  1.28000000E-01
  1.28000000E-01  1.28000000E-01  1.28000000E-01  1.28000000E-01  1.28000000E-01
  1.28000000E-01  1.28000000E-01  1.28000000E-01  1.28000000E-01  1.28000000E-01
  1.28000000E-01  1.28000000E-01  1.28000000E-01  1.28000000E-01  1.28000000E-01
  1.28000000E-01  1.28000000E-01  1.28000000E-01  1.28000000E-01  1.28000000E-01
  1.28000000E-01  1.28000000E-01  1.28000000E-01  1.28000000E-01  1.28000000E-01
  1.28000000E-01  1.28000000E-01  1.28000000E-01  1.28000000E-01  1.28000000E-01
  1.28000000E-01  1.28000000E-01  1.28000000E-01  1.28000000E-01  1.28000000E-01
  1.28000000E-01  1.28000000E-01  1.28000000E-01  1.28000000E-01  1.28000000E-01
  1.28000000E-01  1.28000000E-01  1.28000000E-01  1.28000000E-01  1.28000000E-01
  1.28000000E-01  1.28000000E-01  1.28000000E-01  1.28000000E-01  1.28000000E-01
  1.28000000E-01  1.28000000E-01  1.28000000E-01  1.28000000E-01  1.28000000E-01
  1.28000000E-01  1.28000000E-01  1.28000000E-01  1.28000000E-01  1.28000000E-01
  1.28000000E-01  1.28000000E-01  1.28000000E-01  1.28000000E-01  1.28000000E-01
  5.47000000E-01  5.92000000E-01  5.99000000E-01  6.68000000E-01  6.98000000E-01
  7.18000000E-01  7.26000000E-01  7.36000000E-01  7.43000000E-01  7.45000000E-01
  6.07000000E-01  6.66000000E-01  6.93000000E-01  7.09000000E-01  7.20000000E-01
  7.29000000E-01  7.35000000E-01  7.40000000E-01  6.08000000E-01  7.34000000E-01
  7.46000000E-01  7.55000000E-01  7.61000000E-01  7.65000000E-01  7.67000000E-01
  7.60000000E-01  7.49000000E-01  7.33000000E-01  7.08000000E-01  6.48000000E-01
  6.88000000E-01  7.09000000E-01  7.22000000E-01  7.31000000E-01  7.38000000E-01
  7.44000000E-01  6.09000000E-01  7.30000000E-01  7.41000000E-01  7.52000000E-01
  7.58000000E-01  7.63000000E-01  7.66000000E-01  7.58000000E-01  7.48000000E-01
  7.33000000E-01  7.01000000E-01  6.45000000E-01  6.86000000E-01  7.08000000E-01
  7.22000000E-01  7.31000000E-01  7.38000000E-01  7.44000000E-01  6.08000000E-01
  7.28000000E-01  7.32000000E-01  7.32000000E-01  7.32000000E-01  7.32000000E-01
  7.32000000E-01  7.32000000E-01  7.32000000E-01  7.32000000E-01  7.32000000E-01
  7.31000000E-01  7.31000000E-01  7.31000000E-01  7.31000000E-01  7.46000000E-01
  7.37000000E-01  7.46000000E-01  7.51000000E-01  7.55000000E-01  7.58000000E-01
  7.47000000E-01  7.32000000E-01  7.11000000E-01  7.41000000E-01  7.07000000E-01
  7.47000000E-01  7.43000000E-01  7.42000000E-01  7.42000000E-01  7.43000000E-01
  7.44000000E-01  6.05000000E-01  7.24000000E-01  7.26000000E-01  7.26000000E-01
  7.27000000E-01  7.27000000E-01  7.27000000E-01  7.28000000E-01  7.28000000E-01
  7.28000000E-01  7.28000000E-01  7.28000000E-01  7.29000000E-01  7.29000000E-01
  7.29000000E-01  7.29000000E-01  7.29000000E-01  7.29000000E-01  7.29000000E-01
  7.29000000E-01  7.29000000E-01  7.29000000E-01  7.29000000E-01  7.29000000E-01
  7.29000000E-01  7.29000000E-01  7.29000000E-01  7.29000000E-01  7.29000000E-01
  7.29000000E-01  7.29000000E-01  7.29000000E-01  7.29000000E-01  7.29000000E-01
  7.29000000E-01  7.29000000E-01  7.29000000E-01  7.29000000E-01  7.29000000E-01
  7.29000000E-01  7.29000000E-01  7.29000000E-01  7.29000000E-01  7.29000000E-01
  7.29000000E-01  7.29000000E-01  7.29000000E-01  7.29000000E-01  7.29000000E-01
  7.29000000E-01  7.29000000E-01  7.29000000E-01  7.29000000E-01  7.29000000E-01
  7.29000000E-01  7.29000000E-01  7.29000000E-01  7.29000000E-01  7.29000000E-01
  7.29000000E-01  7.29000000E-01  7.29000000E-01  7.29000000E-01  7.29000000E-01
  7.29000000E-01  7.29000000E-01  7.29000000E-01  7.29000000E-01  7.29000000E-01
  7.29000000E-01  7.29000000E-01  7.29000000E-01  7.29000000E-01  7.29000000E-01
  7.29000000E-01  7.29000000E-01  7.29000000E-01  7.29000000E-01  7.29000000E-01
  7.29000000E-01  7.29000000E-01  7.29000000E-01  7.29000000E-01  7.29000000E-01
  7.29000000E-01  7.29000000E-01  7.29000000E-01  7.29000000E-01  7.29000000E-01
  7.29000000E-01  7.29000000E-01  7.29000000E-01  7.29000000E-01  7.29000000E-01
  7.29000000E-01  7.29000000E-01  7.29000000E-01  7.29000000E-01  7.29000000E-01
  7.29000000E-01  7.29000000E-01  7.29000000E-01  7.29000000E-01  7.29000000E-01
  7.29000000E-01  7.29000000E-01  7.29000000E-01  7.29000000E-01  7.29000000E-01
  7.29000000E-01  7.29000000E-01  7.29000000E-01  7.29000000E-01  7.29000000E-01
  1.00000000E+00  1.70400000E+00  3.23000000E-01  3.89000000E-01  4.67000000E-01
  5.67000000E-01  6.36000000E-01  6.64000000E-01  6.96000000E-01  8.79000000E-01
  3.07000000E-01  3.48000000E-01  4.00000000E-01  4.54000000E-01  5.09000000E-01
  5.65000000E-01  6.21000000E-01  6.77000000E-01  2.56000000E-01  3.50000000E-01
  3.64000000E-01  3.62000000E-01  3.62000000E-01  3.62000000E-01  3.62000000E-01
  3.65000000E-01  3.69000000E-01  3.75000000E-01  3.86000000E-01  4.46000000E-01
  4.55000000E-01  4.74000000E-01  4.96000000E-01  5.20000000E-01  5.45000000E-01
  5.70000000E-01  2.45000000E-01  3.22000000E-01  3.55000000E-01  3.59000000E-01
  3.64000000E-01  3.70000000E-01  3.76000000E-01  3.85000000E-01  3.95000000E-01
  4.08000000E-01  3.76000000E-01  4.23000000E-01  4.22000000E-01  4.32000000E-01
  4.45000000E-01  4.59000000E-01  4.75000000E-01  4.91000000E-01  2.28000000E-01
  2.92000000E-01  2.89000000E-01  2.92000000E-01  2.95000000E-01  2.98000000E-01
  3.00000000E-01  3.03000000E-01  3.06000000E-01  3.09000000E-01  3.12000000E-01
  3.15000000E-01  3.18000000E-01  3.21000000E-01  3.24000000E-01  3.61000000E-01
  3.69000000E-01  3.70000000E-01  3.72000000E-01  3.75000000E-01  3.78000000E-01
  3.85000000E-01  3.94000000E-01  4.07000000E-01  5.26000000E-01  6.21000000E-01
  3.36000000E-01  3.54000000E-01  3.71000000E-01  3.86000000E-01  4.02000000E-01
  4.17000000E-01  2.09000000E-01  2.94000000E-01  2.65000000E-01  2.72000000E-01
  2.78000000E-01  2.84000000E-01  2.91000000E-01  2.97000000E-01  3.03000000E-01
  3.10000000E-01  3.16000000E-01  3.22000000E-01  3.29000000E-01  3.35000000E-01
  3.41000000E-01  3.48000000E-01  3.54000000E-01  3.54000000E-01  3.54000000E-01
  3.54000000E-01  3.54000000E-01  3.54000000E-01  3.54000000E-01  3.54000000E-01
  3.54000000E-01  3.54000000E-01  3.54000000E-01  3.54000000E-01  3.54000000E-01
  3.54000000E-01  3.54000000E-01  3.54000000E-01  3.54000000E-01  3.54000000E-01
  3.54000000E-01  3.54000000E-01  3.54000000E-01  3.54000000E-01  3.54000000E-01
  3.54000000E-01  3.54000000E-01  3.54000000E-01  3.54000000E-01  3.54000000E-01
  3.54000000E-01  3.54000000E-01  3.54000000E-01  3.54000000E-01  3.54000000E-01
  3.54000000E-01  3.54000000E-01  3.54000000E-01  3.54000000E-01  3.54000000E-01
  3.54000000E-01  3.54000000E-01  3.54000000E-01  3.54000000E-01  3.54000000E-01
  3.54000000E-01  3.54000000E-01  3.54000000E-01  3.54000000E-01  3.54000000E-01
  3.54000000E-01  3.54000000E-01  3.54000000E-01  3.54000000E-01  3.54000000E-01
  3.54000000E-01  3.54000000E-01  3.54000000E-01  3.54000000E-01  3.54000000E-01
  3.54000000E-01  3.54000000E-01  3.54000000E-01  3.54000000E-01  3.54000000E-01
  3.54000000E-01  3.54000000E-01  3.54000000E-01  3.54000000E-01  3.54000000E-01
  3.54000000E-01  3.54000000E-01  3.54000000E-01  3.54000000E-01  3.54000000E-01
  3.54000000E-01  3.54000000E-01  3.54000000E-01  3.54000000E-01  3.54000000E-01
  3.54000000E-01  3.54000000E-01  3.54000000E-01  3.54000000E-01  3.54000000E-01
  3.54000000E-01  3.54000000E-01  3.54000000E-01  3.54000000E-01  3.54000000E-01
  3.54000000E-01  3.54000000E-01  3.54000000E-01  3.54000000E-01  3.54000000E-01
  3.54000000E-01  3.54000000E-01  3.54000000E-01  3.54000000E-01  3.54000000E-01
  2.74000000E-01  2.96000000E-01  5.80000000E-02  4.40000000E-02  3.90000000E-02
  3.90000000E-02  3.60000000E-02  3.20000000E-02  2.90000000E-02  3.30000000E-02
  5.50000000E-02  3.90000000E-02  3.30000000E-02  3.00000000E-02  2.80000000E-02
  2.60000000E-02  2.50000000E-02  2.50000000E-02  4.50000000E-02  4.40000000E-02
  3.30000000E-02  2.50000000E-02  2.10000000E-02  1.80000000E-02  1.50000000E-02
  1.80000000E-02  2.10000000E-02  2.50000000E-02  3.30000000E-02  5.00000000E-02
  3.80000000E-02  3.10000000E-02  2.70000000E-02  2.40000000E-02  2.20000000E-02
  2.10000000E-02  4.30000000E-02  4.00000000E-02  3.20000000E-02  2.50000000E-02
  2.10000000E-02  1.80000000E-02  1.60000000E-02  1.90000000E-02  2.20000000E-02
  2.80000000E-02  3.10000000E-02  4.70000000E-02  3.40000000E-02  2.80000000E-02
  2.40000000E-02  2.10000000E-02  1.90000000E-02  1.80000000E-02  3.90000000E-02
  3.60000000E-02  2.50000000E-02  2.50000000E-02  2.50000000E-02  2.60000000E-02
  2.60000000E-02  2.60000000E-02  2.70000000E-02  2.70000000E-02  2.70000000E-02
  2.70000000E-02  2.80000000E-02  2.80000000E-02  2.80000000E-02  3.30000000E-02
  3.30000000E-02  2.60000000E-02  2.10000000E-02  1.80000000E-02  1.60000000E-02
  1.80000000E-02  2.20000000E-02  2.60000000E-02  4.90000000E-02  8.20000000E-02
  3.00000000E-02  2.40000000E-02  2.10000000E-02  1.80000000E-02  1.60000000E-02
  1.50000000E-02  3.50000000E-02  3.60000000E-02  2.20000000E-02  2.30000000E-02
  2.40000000E-02  2.40000000E-02  2.50000000E-02  2.50000000E-02  2.60000000E-02
  2.70000000E-02  2.70000000E-02  2.80000000E-02  2.80000000E-02  2.90000000E-02
  3.00000000E-02  3.00000000E-02  3.10000000E-02  3.10000000E-02  3.10000000E-02
  3.10000000E-02  3.10000000E-02  3.10000000E-02  3.10000000E-02  3.10000000E-02
  3.10000000E-02  3.10000000E-02  3.10000000E-02  3.10000000E-02  3.10000000E-02
  3.10000000E-02  3.10000000E-02  3.10000000E-02  3.10000000E-02  3.10000000E-02
  3.10000000E-02  3.10000000E-02  3.10000000E-02  3.10000000E-02  3.10000000E-02
  3.10000000E-02  3.10000000E-02  3.10000000E-02  3.10000000E-02  3.10000000E-02
  3.10000000E-02  3.10000000E-02  3.10000000E-02  3.10000000E-02  3.10000000E-02
  3.10000000E-02  3.10000000E-02  3.10000000E-02  3.10000000E-02  3.10000000E-02
  3.10000000E-02  3.10000000E-02  3.10000000E-02  3.10000000E-02  3.10000000E-02
  3.10000000E-02  3.10000000E-02  3.10000000E-02  3.10000000E-02  3.10000000E-02
  3.10000000E-02  3.10000000E-02  3.10000000E-02  3.10000000E-02  3.10000000E-02
  3.10000000E-02  3.10000000E-02  3.10000000E-02  3.10000000E-02  3.10000000E-02
  3.10000000E-02  3.10000000E-02  3.10000000E-02  3.10000000E-02  3.10000000E-02
  3.10000000E-02  3.10000000E-02  3.10000000E-02  3.10000000E-02  3.10000000E-02
  3.10000000E-02  3.10000000E-02  3.10000000E-02  3.10000000E-02  3.10000000E-02
  3.10000000E-02  3.10000000E-02  3.10000000E-02  3.10000000E-02  3.10000000E-02
  3.10000000E-02  3.10000000E-02  3.10000000E-02  3.10000000E-02  3.10000000E-02
  3.10000000E-02  3.10000000E-02  3.10000000E-02  3.10000000E-02  3.10000000E-02
  3.10000000E-02  3.10000000E-02  3.10000000E-02  3.10000000E-02  3.10000000E-02
  3.10000000E-02  3.10000000E-02  3.10000000E-02  3.10000000E-02  3.10000000E-02
 -5.92770000E-01 -9.17860000E-01 -2.48668000E+00 -8.36430000E-01 -3.18470000E-01
 -4.55790000E-01 -5.70730000E-01 -6.77940000E-01 -7.69860000E-01 -8.51140000E-01
 -1.51908000E+00 -3.18830000E-01 -2.17900000E-01 -3.01260000E-01 -3.72750000E-01
 -4.15890000E-01 -4.45930000E-01 -5.91320000E-01 -9.56370000E-01 -2.88450000E-01
 -4.87320000E-01 -6.34280000E-01 -7.17490000E-01 -7.91980000E-01 -8.68490000E-01
 -9.17520000E-01 -9.54890000E-01 -9.88460000E-01 -1.50055000E+00 -2.92560000E-01
 -2.14960000E-01 -2.91180000E-01 -3.42080000E-01 -3.84480000E-01 -4.34940000E-01
 -5.24310000E-01 -8.10070000E-01 -2.58460000E-01 -4.35550000E-01 -5.32740000E-01
 -6.08450000E-01 -6.10260000E-01 -7.58920000E-01 -8.90130000E-01 -8.45780000E-01
 -8.69340000E-01 -1.38234000E+00 -2.64850000E-01 -1.97280000E-01 -2.65040000E-01
 -2.94470000E-01 -3.16570000E-01 -3.63590000E-01 -4.57840000E-01 -8.61830000E-01
 -1.33004000E+00 -6.82880000E-01 -6.25540000E-01 -6.35430000E-01 -8.79690000E-01
 -9.02690000E-01 -9.59650000E-01 -1.01869000E+00 -6.81170000E-01 -7.96500000E-01
 -9.04950000E-01 -8.34790000E-01 -9.01560000E-01 -9.74130000E-01 -1.03326000E+00
 -7.15490000E-01 -7.83960000E-01 -8.28380000E-01 -5.61040000E-01 -1.03841000E+00
 -8.62500000E-01 -9.59300000E-01 -1.01755000E+00 -7.64900000E-01 -1.29467000E+00
 -1.92740000E-01 -2.56010000E-01 -3.19820000E-01 -1.94660000E-01 -2.60090000E-01
 -4.27990000E-01  0.00000000E+00  0.00000000E+00  0.00000000E+00  0.00000000E+00
  0.00000000E+00  0.00000000E+00  0.00000000E+00  0.00000000E+00  0.00000000E+00
  0.00000000E+00  0.00000000E+00  0.00000000E+00  0.00000000E+00  0.00000000E+00
  0.00000000E+00  0.00000000E+00  0.00000000E+00  0.00000000E+00  0.00000000E+00
  0.00000000E+00  0.00000000E+00  0.00000000E+00  0.00000000E+00  0.00000000E+00
  0.00000000E+00  0.00000000E+00  0.00000000E+00  0.00000000E+00  0.00000000E+00
  0.00000000E+00  0.00000000E+00  0.00000000E+00  0.00000000E+00  0.00000000E+00
  0.00000000E+00  0.00000000E+00  0.00000000E+00  0.00000000E+00  0.00000000E+00
  0.00000000E+00  0.00000000E+00  0.00000000E+00  0.00000000E+00  0.00000000E+00
  0.00000000E+00  0.00000000E+00  0.00000000E+00  0.00000000E+00  0.00000000E+00
  0.00000000E+00  0.00000000E+00  0.00000000E+00  0.00000000E+00  0.00000000E+00
  0.00000000E+00  0.00000000E+00  0.00000000E+00  0.00000000E+00  0.00000000E+00
  0.00000000E+00  0.00000000E+00  0.00000000E+00  0.00000000E+00  0.00000000E+00
  0.00000000E+00  0.00000000E+00  0.00000000E+00  0.00000000E+00  0.00000000E+00
  0.00000000E+00  0.00000000E+00  0.00000000E+00  0.00000000E+00  0.00000000E+00
  0.00000000E+00  0.00000000E+00  0.00000000E+00  0.00000000E+00  0.00000000E+00
  0.00000000E+00  0.00000000E+00  0.00000000E+00  0.00000000E+00  0.00000000E+00
  0.00000000E+00  0.00000000E+00  0.00000000E+00  0.00000000E+00  0.00000000E+00
  0.00000000E+00  0.00000000E+00  0.00000000E+00  0.00000000E+00  0.00000000E+00
  0.00000000E+00  0.00000000E+00  0.00000000E+00  0.00000000E+00  0.00000000E+00
  0.00000000E+00  0.00000000E+00  0.00000000E+00  0.00000000E+00  0.00000000E+00
  0.00000000E+00  0.00000000E+00  0.00000000E+00  0.00000000E+00  0.00000000E+00
  0.00000000E+00  0.00000000E+00  0.00000000E+00  0.00000000E+00  0.00000000E+00
  1.90440000E+00  1.36430000E+00  4.84000000E-01  7.31600000E+00  9.24030000E+00
  8.78200000E+00  5.61290000E+00  4.83340000E+00  3.24870000E+00  2.71090000E+00
  2.01130000E+00  1.50282000E+01  1.46788000E+01  2.13546000E+01  2.38290000E+01
  1.98022000E+01  1.50468000E+01  1.09745000E+01  1.27219000E+01  1.51949000E+01
  1.57342000E+01  2.79222000E+01  1.61366000E+01  2.21252000E+01  2.45676000E+01
  1.96016000E+01  1.79818000E+01  1.72396000E+01  5.01500000E+00  1.92898000E+01
  2.34477000E+01  2.23993000E+01  2.96586000E+01  2.60081000E+01  2.15580000E+01
  1.69594000E+01  1.56479000E+01  1.86897000E+01  1.93530000E+01  3.43444000E+01
  1.98480000E+01  2.72140000E+01  3.02182000E+01  2.41099000E+01  2.21176000E+01
  2.12047000E+01  7.56690000E+00  2.37264000E+01  2.93879000E+01  3.01278000E+01
  4.19382000E+01  3.85203000E+01  3.39511000E+01  2.75774000E+01  1.56460000E+01
  1.04460000E+01  2.01830000E+01  4.99540000E+01  4.76430000E+01  1.18690000E+01
  1.08670000E+01  9.96100000E+00  9.18700000E+00  3.67980000E+01  1.34070000E+01
  9.38200000E+00  9.81700000E+00  8.90800000E+00  8.40700000E+00  8.05800000E+00
  1.29600000E+01  2.67920000E+01  2.49300000E+01  3.45630000E+01  1.11860000E+01
  1.09440000E+01  1.01270000E+01  9.40400000E+00  1.36660000E+01  7.81000000E+00
  6.93600000E+01  5.86630000E+01  4.79690000E+01  4.52740000E+01  3.92290000E+01
  3.30660000E+01  0.00000000E+00  0.00000000E+00  0.00000000E+00  0.00000000E+00
  0.00000000E+00  0.00000000E+00  0.00000000E+00  0.00000000E+00  0.00000000E+00
  0.00000000E+00  0.00000000E+00  0.00000000E+00  0.00000000E+00  0.00000000E+00
  0.00000000E+00  0.00000000E+00  0.00000000E+00  0.00000000E+00  0.00000000E+00
  0.00000000E+00  0.00000000E+00  0.00000000E+00  0.00000000E+00  0.00000000E+00
  0.00000000E+00  0.00000000E+00  0.00000000E+00  0.00000000E+00  0.00000000E+00
  0.00000000E+00  0.00000000E+00  0.00000000E+00  0.00000000E+00  0.00000000E+00
  0.00000000E+00  0.00000000E+00  0.00000000E+00  0.00000000E+00  0.00000000E+00
  0.00000000E+00  0.00000000E+00  0.00000000E+00  0.00000000E+00  0.00000000E+00
  0.00000000E+00  0.00000000E+00  0.00000000E+00  0.00000000E+00  0.00000000E+00
  0.00000000E+00  0.00000000E+00  0.00000000E+00  0.00000000E+00  0.00000000E+00
  0.00000000E+00  0.00000000E+00  0.00000000E+00  0.00000000E+00  0.00000000E+00
  0.00000000E+00  0.00000000E+00  0.00000000E+00  0.00000000E+00  0.00000000E+00
  0.00000000E+00  0.00000000E+00  0.00000000E+00  0.00000000E+00  0.00000000E+00
  0.00000000E+00  0.00000000E+00  0.00000000E+00  0.00000000E+00  0.00000000E+00
  0.00000000E+00  0.00000000E+00  0.00000000E+00  0.00000000E+00  0.00000000E+00
  0.00000000E+00  0.00000000E+00  0.00000000E+00  0.00000000E+00  0.00000000E+00
  0.00000000E+00  0.00000000E+00  0.00000000E+00  0.00000000E+00  0.00000000E+00
  0.00000000E+00  0.00000000E+00  0.00000000E+00  0.00000000E+00  0.00000000E+00
  0.00000000E+00  0.00000000E+00  0.00000000E+00  0.00000000E+00  0.00000000E+00
  0.00000000E+00  0.00000000E+00  0.00000000E+00  0.00000000E+00  0.00000000E+00
  0.00000000E+00  0.00000000E+00  0.00000000E+00  0.00000000E+00  0.00000000E+00
  0.00000000E+00  0.00000000E+00  0.00000000E+00  0.00000000E+00  0.00000000E+00
  0.00000000E+00  0.00000000E+00  0.00000000E+00  0.00000000E+00  0.00000000E+00
  0.00000000E+00  0.00000000E+00  0.00000000E+00  0.00000000E+00  0.00000000E+00
  0.00000000E+00  0.00000000E+00  0.00000000E+00  0.00000000E+00  0.00000000E+00
  0.00000000E+00  0.00000000E+00  0.00000000E+00  0.00000000E+00  0.00000000E+00
  0.00000000E+00  0.00000000E+00  0.00000000E+00  0.00000000E+00  0.00000000E+00
  0.00000000E+00  0.00000000E+00  0.00000000E+00  0.00000000E+00  0.00000000E+00
  0.00000000E+00  0.00000000E+00  0.00000000E+00  0.00000000E+00  0.00000000E+00
  0.00000000E+00  0.00000000E+00  0.00000000E+00  0.00000000E+00  0.00000000E+00
  0.00000000E+00  0.00000000E+00  0.00000000E+00  0.00000000E+00  0.00000000E+00
  0.00000000E+00  0.00000000E+00  0.00000000E+00  0.00000000E+00  0.00000000E+00
  0.00000000E+00  0.00000000E+00  0.00000000E+00  0.00000000E+00  0.00000000E+00
  0.00000000E+00  0.00000000E+00  0.00000000E+00  0.00000000E+00  0.00000000E+00
  0.00000000E+00  0.00000000E+00  0.00000000E+00  0.00000000E+00  0.00000000E+00
  0.00000000E+00  0.00000000E+00  0.00000000E+00  0.00000000E+00  0.00000000E+00
  0.00000000E+00  0.00000000E+00  0.00000000E+00  0.00000000E+00  0.00000000E+00
  0.00000000E+00  0.00000000E+00  0.00000000E+00  0.00000000E+00  0.00000000E+00
  0.00000000E+00  0.00000000E+00  0.00000000E+00  0.00000000E+00  0.00000000E+00
  0.00000000E+00  0.00000000E+00  0.00000000E+00  0.00000000E+00  0.00000000E+00
  0.00000000E+00  0.00000000E+00  0.00000000E+00  0.00000000E+00  0.00000000E+00
  0.00000000E+00  0.00000000E+00  0.00000000E+00  0.00000000E+00  0.00000000E+00
  0.00000000E+00  0.00000000E+00  0.00000000E+00  0.00000000E+00  0.00000000E+00
  0.00000000E+00  0.00000000E+00  0.00000000E+00  0.00000000E+00  0.00000000E+00
  0.00000000E+00  0.00000000E+00  0.00000000E+00  0.00000000E+00  0.00000000E+00
  0.00000000E+00  0.00000000E+00  0.00000000E+00  0.00000000E+00  0.00000000E+00
  0.00000000E+00  0.00000000E+00  0.00000000E+00  0.00000000E+00  0.00000000E+00
  0.00000000E+00  0.00000000E+00  0.00000000E+00  0.00000000E+00  0.00000000E+00
  0.00000000E+00  0.00000000E+00  0.00000000E+00  0.00000000E+00  0.00000000E+00
  0.00000000E+00  0.00000000E+00  0.00000000E+00  0.00000000E+00  0.00000000E+00
  0.00000000E+00  0.00000000E+00  0.00000000E+00  0.00000000E+00  0.00000000E+00
  0.00000000E+00  0.00000000E+00  0.00000000E+00  0.00000000E+00  0.00000000E+00
  0.00000000E+00  0.00000000E+00  0.00000000E+00  0.00000000E+00  0.00000000E+00
  0.00000000E+00  0.00000000E+00  0.00000000E+00  0.00000000E+00  0.00000000E+00
  0.00000000E+00  0.00000000E+00  0.00000000E+00  0.00000000E+00  0.00000000E+00
  0.00000000E+00  0.00000000E+00  0.00000000E+00  0.00000000E+00  0.00000000E+00
  0.00000000E+00  0.00000000E+00  0.00000000E+00  0.00000000E+00  0.00000000E+00
  0.00000000E+00  0.00000000E+00  0.00000000E+00  0.00000000E+00  0.00000000E+00
  0.00000000E+00  0.00000000E+00  0.00000000E+00  0.00000000E+00  0.00000000E+00
  0.00000000E+00  0.00000000E+00  0.00000000E+00  0.00000000E+00  0.00000000E+00
  0.00000000E+00  0.00000000E+00  0.00000000E+00  0.00000000E+00  0.00000000E+00
  0.00000000E+00  0.00000000E+00  0.00000000E+00  0.00000000E+00  0.00000000E+00
  0.00000000E+00  0.00000000E+00  0.00000000E+00  0.00000000E+00  0.00000000E+00
  0.00000000E+00  0.00000000E+00  0.00000000E+00  0.00000000E+00  0.00000000E+00
  0.00000000E+00  0.00000000E+00  0.00000000E+00  0.00000000E+00  0.00000000E+00
  0.00000000E+00  0.00000000E+00  0.00000000E+00  0.00000000E+00  0.00000000E+00
  0.00000000E+00  0.00000000E+00  0.00000000E+00  0.00000000E+00  0.00000000E+00
  0.00000000E+00  0.00000000E+00  0.00000000E+00  0.00000000E+00  0.00000000E+00
  0.00000000E+00  0.00000000E+00  0.00000000E+00  0.00000000E+00  0.00000000E+00
  0.00000000E+00  0.00000000E+00  0.00000000E+00  0.00000000E+00  0.00000000E+00
  0.00000000E+00  0.00000000E+00  0.00000000E+00  0.00000000E+00  0.00000000E+00
  0.00000000E+00  0.00000000E+00  0.00000000E+00  0.00000000E+00  0.00000000E+00
  0.00000000E+00  0.00000000E+00  0.00000000E+00  0.00000000E+00  0.00000000E+00
  0.00000000E+00  0.00000000E+00  0.00000000E+00  0.00000000E+00  0.00000000E+00
  0.00000000E+00  0.00000000E+00  0.00000000E+00  0.00000000E+00  0.00000000E+00
  0.00000000E+00  0.00000000E+00  0.00000000E+00  0.00000000E+00  0.00000000E+00
  0.00000000E+00  0.00000000E+00  0.00000000E+00  0.00000000E+00  0.00000000E+00
  0.00000000E+00  0.00000000E+00  0.00000000E+00  0.00000000E+00  0.00000000E+00
  0.00000000E+00  0.00000000E+00  0.00000000E+00  0.00000000E+00  0.00000000E+00
  0.00000000E+00  0.00000000E+00  0.00000000E+00  0.00000000E+00  0.00000000E+00
  0.00000000E+00  0.00000000E+00  0.00000000E+00  0.00000000E+00  0.00000000E+00
  0.00000000E+00  0.00000000E+00  0.00000000E+00  0.00000000E+00  0.00000000E+00
  0.00000000E+00  0.00000000E+00  0.00000000E+00  0.00000000E+00  0.00000000E+00
  0.00000000E+00  0.00000000E+00  0.00000000E+00  0.00000000E+00  0.00000000E+00
  0.00000000E+00  0.00000000E+00  0.00000000E+00  0.00000000E+00  0.00000000E+00
  0.00000000E+00  0.00000000E+00  0.00000000E+00  0.00000000E+00  0.00000000E+00
  0.00000000E+00  0.00000000E+00  0.00000000E+00  0.00000000E+00  0.00000000E+00
  0.00000000E+00  0.00000000E+00  0.00000000E+00  0.00000000E+00  0.00000000E+00
  0.00000000E+00  0.00000000E+00  0.00000000E+00  0.00000000E+00  0.00000000E+00
  0.00000000E+00  0.00000000E+00  0.00000000E+00  0.00000000E+00  0.00000000E+00
  0.00000000E+00  0.00000000E+00  0.00000000E+00  0.00000000E+00  0.00000000E+00
  0.00000000E+00  0.00000000E+00  0.00000000E+00  0.00000000E+00  0.00000000E+00
  0.00000000E+00  0.00000000E+00  0.00000000E+00  0.00000000E+00  0.00000000E+00
  0.00000000E+00  0.00000000E+00  0.00000000E+00  0.00000000E+00  0.00000000E+00
  0.00000000E+00  0.00000000E+00  0.00000000E+00  0.00000000E+00  0.00000000E+00
  0.00000000E+00  0.00000000E+00  0.00000000E+00  0.00000000E+00  0.00000000E+00
  0.00000000E+00  0.00000000E+00  0.00000000E+00  0.00000000E+00  0.00000000E+00
  0.00000000E+00  0.00000000E+00  0.00000000E+00  0.00000000E+00  0.00000000E+00
  0.00000000E+00  0.00000000E+00  0.00000000E+00  0.00000000E+00  0.00000000E+00
  0.00000000E+00  0.00000000E+00  0.00000000E+00  0.00000000E+00  0.00000000E+00
  0.00000000E+00  0.00000000E+00  0.00000000E+00  0.00000000E+00  0.00000000E+00
  0.00000000E+00  0.00000000E+00  0.00000000E+00  0.00000000E+00  0.00000000E+00
  0.00000000E+00  0.00000000E+00  0.00000000E+00  0.00000000E+00  0.00000000E+00
  0.00000000E+00  0.00000000E+00  0.00000000E+00  0.00000000E+00  0.00000000E+00
  0.00000000E+00  0.00000000E+00  0.00000000E+00  0.00000000E+00  0.00000000E+00
  0.00000000E+00  0.00000000E+00  0.00000000E+00  0.00000000E+00  0.00000000E+00
  0.00000000E+00  0.00000000E+00  0.00000000E+00  0.00000000E+00  0.00000000E+00
  0.00000000E+00  0.00000000E+00  0.00000000E+00  0.00000000E+00  0.00000000E+00
  0.00000000E+00  0.00000000E+00  0.00000000E+00  0.00000000E+00  0.00000000E+00
  0.00000000E+00  0.00000000E+00  0.00000000E+00  0.00000000E+00  0.00000000E+00
  0.00000000E+00  0.00000000E+00  0.00000000E+00  0.00000000E+00  0.00000000E+00
  0.00000000E+00  0.00000000E+00  0.00000000E+00  0.00000000E+00  0.00000000E+00
  0.00000000E+00  0.00000000E+00  0.00000000E+00  0.00000000E+00  0.00000000E+00
  0.00000000E+00  0.00000000E+00  0.00000000E+00  0.00000000E+00  0.00000000E+00
  0.00000000E+00  0.00000000E+00  0.00000000E+00  0.00000000E+00  0.00000000E+00
  0.00000000E+00  0.00000000E+00  0.00000000E+00  0.00000000E+00  0.00000000E+00
  0.00000000E+00  0.00000000E+00  0.00000000E+00  0.00000000E+00  0.00000000E+00
  0.00000000E+00  0.00000000E+00  0.00000000E+00  0.00000000E+00  0.00000000E+00
  0.00000000E+00  0.00000000E+00  0.00000000E+00  0.00000000E+00  0.00000000E+00
  0.00000000E+00  0.00000000E+00  0.00000000E+00  0.00000000E+00  0.00000000E+00
  0.00000000E+00  0.00000000E+00  0.00000000E+00  0.00000000E+00  0.00000000E+00
  0.00000000E+00  0.00000000E+00  0.00000000E+00  0.00000000E+00  0.00000000E+00
  0.00000000E+00  0.00000000E+00  0.00000000E+00  0.00000000E+00  0.00000000E+00
  0.00000000E+00  0.00000000E+00  0.00000000E+00  0.00000000E+00  0.00000000E+00
  0.00000000E+00  0.00000000E+00  0.00000000E+00  0.00000000E+00  0.00000000E+00
  0.00000000E+00  0.00000000E+00  0.00000000E+00  0.00000000E+00  0.00000000E+00
  0.00000000E+00  0.00000000E+00  0.00000000E+00  0.00000000E+00  0.00000000E+00
  0.00000000E+00  0.00000000E+00  0.00000000E+00  0.00000000E+00  0.00000000E+00
  0.00000000E+00  0.00000000E+00  0.00000000E+00  0.00000000E+00  0.00000000E+00
  0.00000000E+00  0.00000000E+00  0.00000000E+00  0.00000000E+00  0.00000000E+00
  0.00000000E+00  0.00000000E+00  0.00000000E+00  0.00000000E+00  0.00000000E+00
  0.00000000E+00  0.00000000E+00  0.00000000E+00  0.00000000E+00  0.00000000E+00
  0.00000000E+00  0.00000000E+00  0.00000000E+00  0.00000000E+00  0.00000000E+00
  0.00000000E+00  0.00000000E+00  0.00000000E+00  0.00000000E+00  0.00000000E+00
  0.00000000E+00  0.00000000E+00  0.00000000E+00  0.00000000E+00  0.00000000E+00
  0.00000000E+00  0.00000000E+00  0.00000000E+00  0.00000000E+00  0.00000000E+00
  0.00000000E+00  0.00000000E+00  0.00000000E+00  0.00000000E+00  0.00000000E+00
  0.00000000E+00  0.00000000E+00  0.00000000E+00  0.00000000E+00  0.00000000E+00
  0.00000000E+00  0.00000000E+00  0.00000000E+00  0.00000000E+00  0.00000000E+00
  0.00000000E+00  0.00000000E+00  0.00000000E+00  0.00000000E+00  0.00000000E+00
  0.00000000E+00  0.00000000E+00  0.00000000E+00  0.00000000E+00  0.00000000E+00
  0.00000000E+00  0.00000000E+00  0.00000000E+00  0.00000000E+00  0.00000000E+00
  0.00000000E+00  0.00000000E+00  0.00000000E+00  0.00000000E+00  0.00000000E+00
  0.00000000E+00  0.00000000E+00  0.00000000E+00  0.00000000E+00  0.00000000E+00
  0.00000000E+00  0.00000000E+00  0.00000000E+00  0.00000000E+00  0.00000000E+00
  0.00000000E+00  0.00000000E+00  0.00000000E+00  0.00000000E+00  0.00000000E+00
  0.00000000E+00  0.00000000E+00  0.00000000E+00  0.00000000E+00  0.00000000E+00
  0.00000000E+00  0.00000000E+00  0.00000000E+00  0.00000000E+00  0.00000000E+00
  0.00000000E+00  0.00000000E+00  0.00000000E+00  0.00000000E+00  0.00000000E+00
  0.00000000E+00  0.00000000E+00  0.00000000E+00  0.00000000E+00  0.00000000E+00
  0.00000000E+00  0.00000000E+00  0.00000000E+00  0.00000000E+00  0.00000000E+00
  0.00000000E+00  0.00000000E+00  0.00000000E+00  0.00000000E+00  0.00000000E+00
  0.00000000E+00  0.00000000E+00  0.00000000E+00  0.00000000E+00  0.00000000E+00
  0.00000000E+00  0.00000000E+00  0.00000000E+00  0.00000000E+00  0.00000000E+00
  0.00000000E+00  0.00000000E+00  0.00000000E+00  0.00000000E+00  0.00000000E+00
  0.00000000E+00  0.00000000E+00  0.00000000E+00  0.00000000E+00  0.00000000E+00
  0.00000000E+00  0.00000000E+00  0.00000000E+00  0.00000000E+00  0.00000000E+00
  0.00000000E+00  0.00000000E+00  0.00000000E+00  0.00000000E+00  0.00000000E+00
  0.00000000E+00  0.00000000E+00  0.00000000E+00  0.00000000E+00  0.00000000E+00
  0.00000000E+00  0.00000000E+00  0.00000000E+00  0.00000000E+00  0.00000000E+00
  0.00000000E+00  0.00000000E+00  0.00000000E+00  0.00000000E+00  0.00000000E+00
  0.00000000E+00  0.00000000E+00  0.00000000E+00  0.00000000E+00  0.00000000E+00
  0.00000000E+00  0.00000000E+00  0.00000000E+00  0.00000000E+00  0.00000000E+00
  0.00000000E+00  0.00000000E+00  0.00000000E+00  0.00000000E+00  0.00000000E+00
  0.00000000E+00  0.00000000E+00  0.00000000E+00  0.00000000E+00  0.00000000E+00
  0.00000000E+00  0.00000000E+00  0.00000000E+00  0.00000000E+00  0.00000000E+00
  0.00000000E+00  0.00000000E+00  0.00000000E+00  0.00000000E+00  0.00000000E+00
  0.00000000E+00  0.00000000E+00  0.00000000E+00  0.00000000E+00  0.00000000E+00
  0.00000000E+00  0.00000000E+00  0.00000000E+00  0.00000000E+00  0.00000000E+00
  0.00000000E+00  0.00000000E+00  0.00000000E+00  0.00000000E+00  0.00000000E+00
  0.00000000E+00  0.00000000E+00  0.00000000E+00  0.00000000E+00  0.00000000E+00
  0.00000000E+00  0.00000000E+00  0.00000000E+00  0.00000000E+00  0.00000000E+00
  0.00000000E+00  0.00000000E+00  0.00000000E+00  0.00000000E+00  0.00000000E+00
  0.00000000E+00  0.00000000E+00  0.00000000E+00  0.00000000E+00  0.00000000E+00
  0.00000000E+00  0.00000000E+00  0.00000000E+00  0.00000000E+00  0.00000000E+00
  0.00000000E+00  0.00000000E+00  0.00000000E+00  0.00000000E+00  0.00000000E+00
  0.00000000E+00  0.00000000E+00  0.00000000E+00  0.00000000E+00  0.00000000E+00
  0.00000000E+00  0.00000000E+00  0.00000000E+00  0.00000000E+00  0.00000000E+00
  0.00000000E+00  0.00000000E+00  0.00000000E+00  0.00000000E+00  0.00000000E+00
  0.00000000E+00  0.00000000E+00  0.00000000E+00  0.00000000E+00  0.00000000E+00
  0.00000000E+00  0.00000000E+00  0.00000000E+00  0.00000000E+00  0.00000000E+00
  0.00000000E+00  0.00000000E+00  0.00000000E+00  0.00000000E+00  0.00000000E+00
  0.00000000E+00  0.00000000E+00  0.00000000E+00  0.00000000E+00  0.00000000E+00
  0.00000000E+00  0.00000000E+00  0.00000000E+00  0.00000000E+00  0.00000000E+00
  0.00000000E+00  0.00000000E+00  0.00000000E+00  0.00000000E+00  0.00000000E+00
  0.00000000E+00  0.00000000E+00  0.00000000E+00  0.00000000E+00  0.00000000E+00
  0.00000000E+00  0.00000000E+00  0.00000000E+00  0.00000000E+00  0.00000000E+00
  0.00000000E+00  0.00000000E+00  0.00000000E+00  0.00000000E+00  0.00000000E+00
  0.00000000E+00  0.00000000E+00  0.00000000E+00  0.00000000E+00  0.00000000E+00
  0.00000000E+00  0.00000000E+00  0.00000000E+00  0.00000000E+00  0.00000000E+00
  0.00000000E+00  0.00000000E+00  0.00000000E+00  0.00000000E+00  0.00000000E+00
  0.00000000E+00  0.00000000E+00  0.00000000E+00  0.00000000E+00  0.00000000E+00
  0.00000000E+00  0.00000000E+00  0.00000000E+00  0.00000000E+00  0.00000000E+00
  0.00000000E+00  0.00000000E+00  0.00000000E+00  0.00000000E+00  0.00000000E+00
  0.00000000E+00  0.00000000E+00  0.00000000E+00  0.00000000E+00  0.00000000E+00
  0.00000000E+00  0.00000000E+00  0.00000000E+00  0.00000000E+00  0.00000000E+00
  0.00000000E+00  0.00000000E+00  0.00000000E+00  0.00000000E+00  0.00000000E+00
  0.00000000E+00  0.00000000E+00  0.00000000E+00  0.00000000E+00  0.00000000E+00
  0.00000000E+00  0.00000000E+00  0.00000000E+00  0.00000000E+00  0.00000000E+00
  0.00000000E+00  0.00000000E+00  0.00000000E+00  0.00000000E+00  0.00000000E+00
  0.00000000E+00  0.00000000E+00  0.00000000E+00  0.00000000E+00  0.00000000E+00
  0.00000000E+00  0.00000000E+00  0.00000000E+00  0.00000000E+00  0.00000000E+00
  0.00000000E+00  0.00000000E+00  0.00000000E+00  0.00000000E+00  0.00000000E+00
  0.00000000E+00  0.00000000E+00  0.00000000E+00  0.00000000E+00  0.00000000E+00
  0.00000000E+00  0.00000000E+00  0.00000000E+00  0.00000000E+00  0.00000000E+00
  0.00000000E+00  0.00000000E+00  0.00000000E+00  0.00000000E+00  0.00000000E+00
  0.00000000E+00  0.00000000E+00  0.00000000E+00  0.00000000E+00  0.00000000E+00
  0.00000000E+00  0.00000000E+00  0.00000000E+00  0.00000000E+00  0.00000000E+00
  0.00000000E+00  0.00000000E+00  0.00000000E+00  0.00000000E+00  0.00000000E+00
  0.00000000E+00  0.00000000E+00  0.00000000E+00  0.00000000E+00  0.00000000E+00
  0.00000000E+00  0.00000000E+00  0.00000000E+00  0.00000000E+00  0.00000000E+00
  0.00000000E+00  0.00000000E+00  0.00000000E+00  0.00000000E+00  0.00000000E+00
  0.00000000E+00  0.00000000E+00  0.00000000E+00  0.00000000E+00  0.00000000E+00
  0.00000000E+00  0.00000000E+00  0.00000000E+00  0.00000000E+00  0.00000000E+00
  0.00000000E+00  0.00000000E+00  0.00000000E+00  0.00000000E+00  0.00000000E+00
  0.00000000E+00  0.00000000E+00  0.00000000E+00  0.00000000E+00  0.00000000E+00
  0.00000000E+00  0.00000000E+00  0.00000000E+00  0.00000000E+00  0.00000000E+00
  0.00000000E+00  0.00000000E+00  0.00000000E+00  0.00000000E+00  0.00000000E+00
  0.00000000E+00  0.00000000E+00  0.00000000E+00  0.00000000E+00  0.00000000E+00
  0.00000000E+00  0.00000000E+00  0.00000000E+00  0.00000000E+00  0.00000000E+00
  0.00000000E+00  0.00000000E+00  0.00000000E+00  0.00000000E+00  0.00000000E+00
  0.00000000E+00  0.00000000E+00  0.00000000E+00  0.00000000E+00  0.00000000E+00
  0.00000000E+00  0.00000000E+00  0.00000000E+00  0.00000000E+00  0.00000000E+00
  0.00000000E+00  0.00000000E+00  0.00000000E+00  0.00000000E+00  0.00000000E+00
  0.00000000E+00  0.00000000E+00  0.00000000E+00  0.00000000E+00  0.00000000E+00
  0.00000000E+00  0.00000000E+00  0.00000000E+00  0.00000000E+00  0.00000000E+00
  0.00000000E+00  0.00000000E+00  0.00000000E+00  0.00000000E+00  0.00000000E+00
  0.00000000E+00  0.00000000E+00  0.00000000E+00  0.00000000E+00  0.00000000E+00
  0.00000000E+00  0.00000000E+00  0.00000000E+00  0.00000000E+00  0.00000000E+00
  0.00000000E+00  0.00000000E+00  0.00000000E+00  0.00000000E+00  0.00000000E+00
  0.00000000E+00  0.00000000E+00  0.00000000E+00  0.00000000E+00  0.00000000E+00
  0.00000000E+00  0.00000000E+00  0.00000000E+00  0.00000000E+00  0.00000000E+00
  0.00000000E+00  0.00000000E+00  0.00000000E+00  0.00000000E+00  0.00000000E+00
  0.00000000E+00  0.00000000E+00  0.00000000E+00  0.00000000E+00  0.00000000E+00
  0.00000000E+00  0.00000000E+00  0.00000000E+00  0.00000000E+00  0.00000000E+00
  0.00000000E+00  0.00000000E+00  0.00000000E+00  0.00000000E+00  0.00000000E+00
  0.00000000E+00  0.00000000E+00  0.00000000E+00  0.00000000E+00  0.00000000E+00
  0.00000000E+00  0.00000000E+00  0.00000000E+00  0.00000000E+00  0.00000000E+00
  0.00000000E+00  0.00000000E+00  0.00000000E+00  0.00000000E+00  0.00000000E+00
  0.00000000E+00  0.00000000E+00  0.00000000E+00  0.00000000E+00  0.00000000E+00
  0.00000000E+00  0.00000000E+00  0.00000000E+00  0.00000000E+00  0.00000000E+00
  0.00000000E+00  0.00000000E+00  0.00000000E+00  0.00000000E+00  0.00000000E+00
  0.00000000E+00  0.00000000E+00  0.00000000E+00  0.00000000E+00  0.00000000E+00
  0.00000000E+00  0.00000000E+00  0.00000000E+00  0.00000000E+00  0.00000000E+00
  0.00000000E+00  0.00000000E+00  0.00000000E+00  0.00000000E+00  0.00000000E+00
  0.00000000E+00  0.00000000E+00  0.00000000E+00  0.00000000E+00  0.00000000E+00
  0.00000000E+00  0.00000000E+00  0.00000000E+00  0.00000000E+00  0.00000000E+00
  0.00000000E+00  0.00000000E+00  0.00000000E+00  0.00000000E+00  0.00000000E+00
  0.00000000E+00  0.00000000E+00  0.00000000E+00  0.00000000E+00  0.00000000E+00
  0.00000000E+00  0.00000000E+00  0.00000000E+00  0.00000000E+00  0.00000000E+00
  0.00000000E+00  0.00000000E+00  0.00000000E+00  0.00000000E+00  0.00000000E+00
  0.00000000E+00  0.00000000E+00  0.00000000E+00  0.00000000E+00  0.00000000E+00
  0.00000000E+00  0.00000000E+00  0.00000000E+00  0.00000000E+00  0.00000000E+00
  0.00000000E+00  0.00000000E+00  0.00000000E+00  0.00000000E+00  0.00000000E+00
  0.00000000E+00  0.00000000E+00  0.00000000E+00  0.00000000E+00  0.00000000E+00
  0.00000000E+00  0.00000000E+00  0.00000000E+00  0.00000000E+00  0.00000000E+00
  0.00000000E+00  0.00000000E+00  0.00000000E+00  0.00000000E+00  0.00000000E+00
  0.00000000E+00  0.00000000E+00  0.00000000E+00  0.00000000E+00  0.00000000E+00
  0.00000000E+00  0.00000000E+00  0.00000000E+00  0.00000000E+00  0.00000000E+00
  0.00000000E+00  0.00000000E+00  0.00000000E+00  0.00000000E+00  0.00000000E+00
  0.00000000E+00  0.00000000E+00  0.00000000E+00  0.00000000E+00  0.00000000E+00
  0.00000000E+00  0.00000000E+00  0.00000000E+00  0.00000000E+00  0.00000000E+00
  0.00000000E+00  0.00000000E+00  0.00000000E+00  0.00000000E+00  0.00000000E+00
  0.00000000E+00  0.00000000E+00  0.00000000E+00  0.00000000E+00  0.00000000E+00
  0.00000000E+00  0.00000000E+00  0.00000000E+00  0.00000000E+00  0.00000000E+00
  0.00000000E+00  0.00000000E+00  0.00000000E+00  0.00000000E+00  0.00000000E+00
  0.00000000E+00  0.00000000E+00  0.00000000E+00  0.00000000E+00  0.00000000E+00
  0.00000000E+00  0.00000000E+00  0.00000000E+00  0.00000000E+00  0.00000000E+00
  0.00000000E+00  0.00000000E+00  0.00000000E+00  0.00000000E+00  0.00000000E+00
  0.00000000E+00  0.00000000E+00  0.00000000E+00  0.00000000E+00  0.00000000E+00
  0.00000000E+00  0.00000000E+00  0.00000000E+00  0.00000000E+00  0.00000000E+00
  0.00000000E+00  0.00000000E+00  0.00000000E+00  0.00000000E+00  0.00000000E+00
  0.00000000E+00  0.00000000E+00  0.00000000E+00  0.00000000E+00  0.00000000E+00
  0.00000000E+00  0.00000000E+00  0.00000000E+00  0.00000000E+00  0.00000000E+00
  0.00000000E+00  0.00000000E+00  0.00000000E+00  0.00000000E+00  0.00000000E+00
  0.00000000E+00  0.00000000E+00  0.00000000E+00  0.00000000E+00  0.00000000E+00
  0.00000000E+00  0.00000000E+00  0.00000000E+00  0.00000000E+00  0.00000000E+00
  0.00000000E+00  0.00000000E+00  0.00000000E+00  0.00000000E+00  0.00000000E+00
  0.00000000E+00  0.00000000E+00  0.00000000E+00  0.00000000E+00  0.00000000E+00
  0.00000000E+00  0.00000000E+00  0.00000000E+00  0.00000000E+00  0.00000000E+00
  0.00000000E+00  0.00000000E+00  0.00000000E+00  0.00000000E+00  0.00000000E+00
  0.00000000E+00  0.00000000E+00  0.00000000E+00  0.00000000E+00  0.00000000E+00
  0.00000000E+00  0.00000000E+00  0.00000000E+00  0.00000000E+00  0.00000000E+00
  0.00000000E+00  0.00000000E+00  0.00000000E+00  0.00000000E+00  0.00000000E+00
  0.00000000E+00  0.00000000E+00  0.00000000E+00  0.00000000E+00  0.00000000E+00
  0.00000000E+00  0.00000000E+00  0.00000000E+00  0.00000000E+00  0.00000000E+00
  0.00000000E+00  0.00000000E+00  0.00000000E+00  0.00000000E+00  0.00000000E+00
  0.00000000E+00  0.00000000E+00  0.00000000E+00  0.00000000E+00  0.00000000E+00
  0.00000000E+00  0.00000000E+00  0.00000000E+00  0.00000000E+00  0.00000000E+00
  0.00000000E+00  0.00000000E+00  0.00000000E+00  0.00000000E+00  0.00000000E+00
  0.00000000E+00  0.00000000E+00  0.00000000E+00  0.00000000E+00  0.00000000E+00
  0.00000000E+00  0.00000000E+00  0.00000000E+00  0.00000000E+00  0.00000000E+00
  0.00000000E+00  0.00000000E+00  0.00000000E+00  0.00000000E+00  0.00000000E+00
  0.00000000E+00  0.00000000E+00  0.00000000E+00  0.00000000E+00  0.00000000E+00
  0.00000000E+00  0.00000000E+00  0.00000000E+00  0.00000000E+00  0.00000000E+00
  0.00000000E+00  0.00000000E+00  0.00000000E+00  0.00000000E+00  0.00000000E+00
  0.00000000E+00  0.00000000E+00  0.00000000E+00  0.00000000E+00  0.00000000E+00
  0.00000000E+00  0.00000000E+00  0.00000000E+00  0.00000000E+00  0.00000000E+00
  0.00000000E+00  0.00000000E+00  0.00000000E+00  0.00000000E+00  0.00000000E+00
  0.00000000E+00  0.00000000E+00  0.00000000E+00  0.00000000E+00  0.00000000E+00
  0.00000000E+00  0.00000000E+00  0.00000000E+00  0.00000000E+00  0.00000000E+00
  0.00000000E+00  0.00000000E+00  0.00000000E+00  0.00000000E+00  0.00000000E+00
  0.00000000E+00  0.00000000E+00  0.00000000E+00  0.00000000E+00  0.00000000E+00
  0.00000000E+00  0.00000000E+00  0.00000000E+00  0.00000000E+00  0.00000000E+00
  0.00000000E+00  0.00000000E+00  0.00000000E+00  0.00000000E+00  0.00000000E+00
  0.00000000E+00  0.00000000E+00  0.00000000E+00  0.00000000E+00  0.00000000E+00
  0.00000000E+00  0.00000000E+00  0.00000000E+00  0.00000000E+00  0.00000000E+00
  0.00000000E+00  0.00000000E+00  0.00000000E+00  0.00000000E+00  0.00000000E+00
  0.00000000E+00  0.00000000E+00  0.00000000E+00  0.00000000E+00  0.00000000E+00
  0.00000000E+00  0.00000000E+00  0.00000000E+00  0.00000000E+00  0.00000000E+00
  0.00000000E+00  0.00000000E+00  0.00000000E+00  0.00000000E+00  0.00000000E+00
  0.00000000E+00  0.00000000E+00  0.00000000E+00  0.00000000E+00  0.00000000E+00
  0.00000000E+00  0.00000000E+00  0.00000000E+00  0.00000000E+00  0.00000000E+00
  0.00000000E+00  0.00000000E+00  0.00000000E+00  0.00000000E+00  0.00000000E+00
  0.00000000E+00  0.00000000E+00  0.00000000E+00  0.00000000E+00  0.00000000E+00
  0.00000000E+00  0.00000000E+00  0.00000000E+00  0.00000000E+00  0.00000000E+00
  0.00000000E+00  0.00000000E+00  0.00000000E+00  0.00000000E+00  0.00000000E+00
  0.00000000E+00  0.00000000E+00  0.00000000E+00  0.00000000E+00  0.00000000E+00
  0.00000000E+00  0.00000000E+00  0.00000000E+00  0.00000000E+00  0.00000000E+00
  0.00000000E+00  0.00000000E+00  0.00000000E+00  0.00000000E+00  0.00000000E+00
  0.00000000E+00  0.00000000E+00  0.00000000E+00  0.00000000E+00  0.00000000E+00
  0.00000000E+00  0.00000000E+00  0.00000000E+00  0.00000000E+00  0.00000000E+00
  0.00000000E+00  0.00000000E+00  0.00000000E+00  0.00000000E+00  0.00000000E+00
  0.00000000E+00  0.00000000E+00  0.00000000E+00  0.00000000E+00  0.00000000E+00
  0.00000000E+00  0.00000000E+00  0.00000000E+00  0.00000000E+00  0.00000000E+00
  0.00000000E+00  0.00000000E+00  0.00000000E+00  0.00000000E+00  0.00000000E+00
  0.00000000E+00  0.00000000E+00  0.00000000E+00  0.00000000E+00  0.00000000E+00
  0.00000000E+00  0.00000000E+00  0.00000000E+00  0.00000000E+00  0.00000000E+00
  0.00000000E+00  0.00000000E+00  0.00000000E+00  0.00000000E+00  0.00000000E+00
  0.00000000E+00  0.00000000E+00  0.00000000E+00  0.00000000E+00  0.00000000E+00
  0.00000000E+00  0.00000000E+00  0.00000000E+00  0.00000000E+00  0.00000000E+00
  0.00000000E+00  0.00000000E+00  0.00000000E+00  0.00000000E+00  0.00000000E+00
  0.00000000E+00  0.00000000E+00  0.00000000E+00  0.00000000E+00  0.00000000E+00
  0.00000000E+00  0.00000000E+00  0.00000000E+00  0.00000000E+00  0.00000000E+00
  0.00000000E+00  0.00000000E+00  0.00000000E+00  0.00000000E+00  0.00000000E+00
  0.00000000E+00  0.00000000E+00  0.00000000E+00  0.00000000E+00  0.00000000E+00
  0.00000000E+00  0.00000000E+00  0.00000000E+00  0.00000000E+00  0.00000000E+00
  0.00000000E+00  0.00000000E+00  0.00000000E+00  0.00000000E+00  0.00000000E+00
  0.00000000E+00  0.00000000E+00  0.00000000E+00  0.00000000E+00  0.00000000E+00
  0.00000000E+00  0.00000000E+00  0.00000000E+00  0.00000000E+00  0.00000000E+00
  0.00000000E+00  0.00000000E+00  0.00000000E+00  0.00000000E+00  0.00000000E+00
  0.00000000E+00  0.00000000E+00  0.00000000E+00  0.00000000E+00  0.00000000E+00
  0.00000000E+00  0.00000000E+00  0.00000000E+00  0.00000000E+00  0.00000000E+00
  0.00000000E+00  0.00000000E+00  0.00000000E+00  0.00000000E+00  0.00000000E+00
  0.00000000E+00  0.00000000E+00  0.00000000E+00  0.00000000E+00  0.00000000E+00
  0.00000000E+00  0.00000000E+00  0.00000000E+00  0.00000000E+00  0.00000000E+00
  0.00000000E+00  0.00000000E+00  0.00000000E+00  0.00000000E+00  0.00000000E+00
  0.00000000E+00  0.00000000E+00  0.00000000E+00  0.00000000E+00  0.00000000E+00
  0.00000000E+00  0.00000000E+00  0.00000000E+00  0.00000000E+00  0.00000000E+00
  0.00000000E+00  0.00000000E+00  0.00000000E+00  0.00000000E+00  0.00000000E+00
  0.00000000E+00  0.00000000E+00  0.00000000E+00  0.00000000E+00  0.00000000E+00
  0.00000000E+00  0.00000000E+00  0.00000000E+00  0.00000000E+00  0.00000000E+00
  0.00000000E+00  0.00000000E+00  0.00000000E+00  0.00000000E+00  0.00000000E+00
  0.00000000E+00  0.00000000E+00  0.00000000E+00  0.00000000E+00  0.00000000E+00
  0.00000000E+00  0.00000000E+00  0.00000000E+00  0.00000000E+00  0.00000000E+00
  0.00000000E+00  0.00000000E+00  0.00000000E+00  0.00000000E+00  0.00000000E+00
  0.00000000E+00  0.00000000E+00  0.00000000E+00  0.00000000E+00  0.00000000E+00
  0.00000000E+00  0.00000000E+00  0.00000000E+00  0.00000000E+00  0.00000000E+00
  0.00000000E+00  0.00000000E+00  0.00000000E+00  0.00000000E+00  0.00000000E+00
  0.00000000E+00  0.00000000E+00  0.00000000E+00  0.00000000E+00  0.00000000E+00
  0.00000000E+00  0.00000000E+00  0.00000000E+00  0.00000000E+00  0.00000000E+00
  0.00000000E+00  0.00000000E+00  0.00000000E+00  0.00000000E+00  0.00000000E+00
  0.00000000E+00  0.00000000E+00  0.00000000E+00  0.00000000E+00  0.00000000E+00
  0.00000000E+00  0.00000000E+00  0.00000000E+00  0.00000000E+00  0.00000000E+00
  0.00000000E+00  0.00000000E+00  0.00000000E+00  0.00000000E+00  0.00000000E+00
  0.00000000E+00  0.00000000E+00  0.00000000E+00  0.00000000E+00  0.00000000E+00
  0.00000000E+00  0.00000000E+00  0.00000000E+00  0.00000000E+00  0.00000000E+00
  0.00000000E+00  0.00000000E+00  0.00000000E+00  0.00000000E+00  0.00000000E+00
  0.00000000E+00  0.00000000E+00  0.00000000E+00  0.00000000E+00  0.00000000E+00
  0.00000000E+00  0.00000000E+00  0.00000000E+00  0.00000000E+00  0.00000000E+00
  0.00000000E+00  0.00000000E+00  0.00000000E+00  0.00000000E+00  0.00000000E+00
  0.00000000E+00  0.00000000E+00  0.00000000E+00  0.00000000E+00  0.00000000E+00
  0.00000000E+00  0.00000000E+00  0.00000000E+00  0.00000000E+00  0.00000000E+00
  0.00000000E+00  0.00000000E+00  0.00000000E+00  0.00000000E+00  0.00000000E+00
  0.00000000E+00  0.00000000E+00  0.00000000E+00  0.00000000E+00  0.00000000E+00
  0.00000000E+00  0.00000000E+00  0.00000000E+00  0.00000000E+00  0.00000000E+00
  0.00000000E+00  0.00000000E+00  0.00000000E+00  0.00000000E+00  0.00000000E+00
  0.00000000E+00  0.00000000E+00  0.00000000E+00  0.00000000E+00  0.00000000E+00
  0.00000000E+00  0.00000000E+00  0.00000000E+00  0.00000000E+00  0.00000000E+00
  0.00000000E+00  0.00000000E+00  0.00000000E+00  0.00000000E+00  0.00000000E+00
  0.00000000E+00  0.00000000E+00  0.00000000E+00  0.00000000E+00  0.00000000E+00
  0.00000000E+00  0.00000000E+00  0.00000000E+00  0.00000000E+00  0.00000000E+00
Gaussian Version                           C   N=           2
ES64L-G16RevC.01        
