%nproc=7
%mem=55GB
%chk=GauExternal.chk
#P hf/sto-3g  

External Calculation

0 1
C 0.0 1.3959906799099904 0.0
C 1.2080973668446828 0.6974953399551608 0.0
C 1.2080973668446828 -0.6974953399551608 0.0
C 0.0 -1.3949906799103216 0.0
C -1.2080973668446828 -0.6974953399551608 0.0
C -1.2080973668446828 0.6974953399551608 0.0
H 0.0 2.4946009798396336 0.0
H 2.1603878208470455 1.2473004899198168 0.0
H 2.1603878208470455 -1.2473004899198168 0.0
H 0.0 -2.4946009798396336 0.0
H -2.1603878208470455 -1.2473004899198168 0.0
H -2.1603878208470455 1.2473004899198168 0.0





