 Entering Gaussian System, Link 0=g16
 Input=GauExternal.gjf
 Output=GauExternal.log
 Initial command:
 /gaussian/g16.c01/intel64-sandybridge/g16/l1.exe "/home/barone/lcrisci_vb/ACTUAL_PROJECTS/MRCC_new_Interface_project/TestingOldVersion/Symmetry/C2H2S2_C2h/Iterations/Iteration_1/task_atom_1_ixyz_1_up/Gau-4155726.inp" -scrdir="/home/barone/lcrisci_vb/ACTUAL_PROJECTS/MRCC_new_Interface_project/TestingOldVersion/Symmetry/C2H2S2_C2h/Iterations/Iteration_1/task_atom_1_ixyz_1_up/"
 Entering Link 1 = /gaussian/g16.c01/intel64-sandybridge/g16/l1.exe PID=   4155732.
  
 Copyright (c) 1988-2019, Gaussian, Inc.  All Rights Reserved.
  
 This is part of the Gaussian(R) 16 program.  It is based on
 the Gaussian(R) 09 system (copyright 2009, Gaussian, Inc.),
 the Gaussian(R) 03 system (copyright 2003, Gaussian, Inc.),
 the Gaussian(R) 98 system (copyright 1998, Gaussian, Inc.),
 the Gaussian(R) 94 system (copyright 1995, Gaussian, Inc.),
 the Gaussian 92(TM) system (copyright 1992, Gaussian, Inc.),
 the Gaussian 90(TM) system (copyright 1990, Gaussian, Inc.),
 the Gaussian 88(TM) system (copyright 1988, Gaussian, Inc.),
 the Gaussian 86(TM) system (copyright 1986, Carnegie Mellon
 University), and the Gaussian 82(TM) system (copyright 1983,
 Carnegie Mellon University). Gaussian is a federally registered
 trademark of Gaussian, Inc.
  
 This software contains proprietary and confidential information,
 including trade secrets, belonging to Gaussian, Inc.
  
 This software is provided under written license and may be
 used, copied, transmitted, or stored only in accord with that
 written license.
  
 The following legend is applicable only to US Government
 contracts under FAR:
  
                    RESTRICTED RIGHTS LEGEND
  
 Use, reproduction and disclosure by the US Government is
 subject to restrictions as set forth in subparagraphs (a)
 and (c) of the Commercial Computer Software - Restricted
 Rights clause in FAR 52.227-19.
  
 Gaussian, Inc.
 340 Quinnipiac St., Bldg. 40, Wallingford CT 06492
  
  
 ---------------------------------------------------------------
 Warning -- This program may not be used in any manner that
 competes with the business of Gaussian, Inc. or will provide
 assistance to any competitor of Gaussian, Inc.  The licensee
 of this program is prohibited from giving any competitor of
 Gaussian, Inc. access to this program.  By using this program,
 the user acknowledges that Gaussian, Inc. is engaged in the
 business of creating and licensing software in the field of
 computational chemistry and represents and warrants to the
 licensee that it is not a competitor of Gaussian, Inc. and that
 it will not use this program in any manner prohibited above.
 ---------------------------------------------------------------
  

 Cite this work as:
 Gaussian 16, Revision C.01,
 M. J. Frisch, G. W. Trucks, H. B. Schlegel, G. E. Scuseria, 
 M. A. Robb, J. R. Cheeseman, G. Scalmani, V. Barone, 
 G. A. Petersson, H. Nakatsuji, X. Li, M. Caricato, A. V. Marenich, 
 J. Bloino, B. G. Janesko, R. Gomperts, B. Mennucci, H. P. Hratchian, 
 J. V. Ortiz, A. F. Izmaylov, J. L. Sonnenberg, D. Williams-Young, 
 F. Ding, F. Lipparini, F. Egidi, J. Goings, B. Peng, A. Petrone, 
 T. Henderson, D. Ranasinghe, V. G. Zakrzewski, J. Gao, N. Rega, 
 G. Zheng, W. Liang, M. Hada, M. Ehara, K. Toyota, R. Fukuda, 
 J. Hasegawa, M. Ishida, T. Nakajima, Y. Honda, O. Kitao, H. Nakai, 
 T. Vreven, K. Throssell, J. A. Montgomery, Jr., J. E. Peralta, 
 F. Ogliaro, M. J. Bearpark, J. J. Heyd, E. N. Brothers, K. N. Kudin, 
 V. N. Staroverov, T. A. Keith, R. Kobayashi, J. Normand, 
 K. Raghavachari, A. P. Rendell, J. C. Burant, S. S. Iyengar, 
 J. Tomasi, M. Cossi, J. M. Millam, M. Klene, C. Adamo, R. Cammi, 
 J. W. Ochterski, R. L. Martin, K. Morokuma, O. Farkas, 
 J. B. Foresman, and D. J. Fox, Gaussian, Inc., Wallingford CT, 2019.
 
 ******************************************
 Gaussian 16:  ES64L-G16RevC.01  3-Jul-2019
                19-Nov-2025 
 ******************************************
 %nproc=2
 Will use up to    2 processors via shared memory.
 %mem=20GB
 %chk=GauExternal.chk
 --------------------
 #P hf/sto-3g scf=xqc
 --------------------
 1/38=1,172=1/1;
 2/12=2,17=6,18=5,40=1/2;
 3/6=3,11=9,25=1,30=1/1,2,3;
 4//1;
 5/5=2,8=3,13=1,38=5/2,8;
 6/7=2,8=2,9=2,10=2,28=1/1;
 99/5=1,9=1/99;
 Leave Link    1 at Wed Nov 19 18:18:12 2025, MaxMem=  2684354560 cpu:               0.0 elap:               0.3
 (Enter /gaussian/g16.c01/intel64-sandybridge/g16/l101.exe)
 --------------------
 External Calculation
 --------------------
 Symbolic Z-matrix:
 Charge =  0 Multiplicity = 1
 C                    -0.38123   0.5595    0. 
 H                    -1.449     0.47643   0. 
 C                     0.38223  -0.5595    0. 
 H                     1.449    -0.47643   0. 
 S                    -0.38223  -2.16699   0. 
 S                     0.38223   2.16699   0. 
 
 ITRead=  0  0  0  0  0  0
 MicOpt= -1 -1 -1 -1 -1 -1
 NAtoms=      6 NQM=        6 NQMF=       0 NMMI=      0 NMMIF=      0
                NMic=       0 NMicF=      0.
                    Isotopes and Nuclear Properties:
 (Nuclear quadrupole moments (NQMom) in fm**2, nuclear magnetic moments (NMagM)
  in nuclear magnetons)

  Atom         1           2           3           4           5           6
 IAtWgt=          12           1          12           1          32          32
 AtmWgt=  12.0000000   1.0078250  12.0000000   1.0078250  31.9720718  31.9720718
 NucSpn=           0           1           0           1           0           0
 AtZEff=  -0.0000000  -0.0000000  -0.0000000  -0.0000000  -0.0000000  -0.0000000
 NQMom=    0.0000000   0.0000000   0.0000000   0.0000000   0.0000000   0.0000000
 NMagM=    0.0000000   2.7928460   0.0000000   2.7928460   0.0000000   0.0000000
 AtZNuc=   6.0000000   1.0000000   6.0000000   1.0000000  16.0000000  16.0000000
 Leave Link  101 at Wed Nov 19 18:18:13 2025, MaxMem=  2684354560 cpu:               0.4 elap:               0.4
 (Enter /gaussian/g16.c01/intel64-sandybridge/g16/l202.exe)
                          Input orientation:                          
 ---------------------------------------------------------------------
 Center     Atomic      Atomic             Coordinates (Angstroms)
 Number     Number       Type             X           Y           Z
 ---------------------------------------------------------------------
      1          6           0       -0.381228    0.559503    0.000000
      2          1           0       -1.448998    0.476434    0.000000
      3          6           0        0.382228   -0.559503    0.000000
      4          1           0        1.448998   -0.476434    0.000000
      5         16           0       -0.382228   -2.166988    0.000000
      6         16           0        0.382228    2.166988    0.000000
 ---------------------------------------------------------------------
                    Distance matrix (angstroms):
                    1          2          3          4          5
     1  C    0.000000
     2  H    1.070997   0.000000
     3  C    1.354636   2.103938   0.000000
     4  H    2.103067   3.050630   1.070000   0.000000
     5  S    2.726491   2.850557   1.780000   2.492261   0.000000
     6  S    1.779571   2.492261   2.726491   2.850557   4.400879
                    6
     6  S    0.000000
 Stoichiometry    C2H2S2
 Framework group  CS[SG(C2H2S2)]
 Deg. of freedom     9
 Full point group                 CS      NOp   2
 Largest Abelian subgroup         CS      NOp   2
 Largest concise Abelian subgroup C1      NOp   1
                         Standard orientation:                         
 ---------------------------------------------------------------------
 Center     Atomic      Atomic             Coordinates (Angstroms)
 Number     Number       Type             X           Y           Z
 ---------------------------------------------------------------------
      1          6           0        0.000000    0.677110    0.000000
      2          1           0        0.929096    1.209853    0.000000
      3          6           0       -0.000611   -0.677526    0.000000
      4          1           0       -0.928881   -1.209706    0.000000
      5         16           0        1.536426   -1.575255    0.000000
      6         16           0       -1.536210    1.575402    0.000000
 ---------------------------------------------------------------------
 Rotational constants (GHZ):          51.3498224           1.6019808           1.5535152
 Leave Link  202 at Wed Nov 19 18:18:13 2025, MaxMem=  2684354560 cpu:               0.0 elap:               0.1
 (Enter /gaussian/g16.c01/intel64-sandybridge/g16/l301.exe)
 Standard basis: STO-3G (5D, 7F)
 Ernie: Thresh=  0.10000D-02 Tol=  0.10000D-05 Strict=F.
 There are    24 symmetry adapted cartesian basis functions of A'  symmetry.
 There are     6 symmetry adapted cartesian basis functions of A"  symmetry.
 There are    24 symmetry adapted basis functions of A'  symmetry.
 There are     6 symmetry adapted basis functions of A"  symmetry.
    30 basis functions,    90 primitive gaussians,    30 cartesian basis functions
    23 alpha electrons       23 beta electrons
       nuclear repulsion energy       161.0560785406 Hartrees.
 IExCor=    0 DFT=F Ex=HF Corr=None ExCW=0 ScaHFX=  1.000000
 ScaDFX=  1.000000  1.000000  1.000000  1.000000 ScalE2=  1.000000  1.000000
 IRadAn=      5 IRanWt=     -1 IRanGd=            0 ICorTp=0 IEmpDi=  4
 NAtoms=    6 NActive=    6 NUniq=    6 SFac= 1.00D+00 NAtFMM=   60 NAOKFM=F Big=F
 Integral buffers will be    131072 words long.
 Raffenetti 1 integral format.
 Two-electron integral symmetry is turned on.
 Leave Link  301 at Wed Nov 19 18:18:13 2025, MaxMem=  2684354560 cpu:               0.1 elap:               0.1
 (Enter /gaussian/g16.c01/intel64-sandybridge/g16/l302.exe)
 NPDir=0 NMtPBC=     1 NCelOv=     1 NCel=       1 NClECP=     1 NCelD=      1
         NCelK=      1 NCelE2=     1 NClLst=     1 CellRange=     0.0.
 One-electron integrals computed using PRISM.
 One-electron integral symmetry used in STVInt
 NBasis=    30 RedAO= T EigKep=  2.02D-01  NBF=    24     6
 NBsUse=    30 1.00D-06 EigRej= -1.00D+00 NBFU=    24     6
 Leave Link  302 at Wed Nov 19 18:18:13 2025, MaxMem=  2684354560 cpu:               0.1 elap:               0.2
 (Enter /gaussian/g16.c01/intel64-sandybridge/g16/l303.exe)
 DipDrv:  MaxL=1.
 Leave Link  303 at Wed Nov 19 18:18:13 2025, MaxMem=  2684354560 cpu:               0.0 elap:               0.1
 (Enter /gaussian/g16.c01/intel64-sandybridge/g16/l401.exe)
 ExpMin= 1.69D-01 ExpMax= 5.33D+02 ExpMxC= 5.33D+02 IAcc=3 IRadAn=         5 AccDes= 0.00D+00
 Harris functional with IExCor=  205 and IRadAn=       5 diagonalized for initial guess.
 HarFok:  IExCor=  205 AccDes= 0.00D+00 IRadAn=         5 IDoV= 1 UseB2=F ITyADJ=14
 ICtDFT=  3500011 ScaDFX=  1.000000  1.000000  1.000000  1.000000
 FoFCou: FMM=F IPFlag=           0 FMFlag=      100000 FMFlg1=           0
         NFxFlg=           0 DoJE=T BraDBF=F KetDBF=T FulRan=T
         wScrn=  0.000000 ICntrl=       500 IOpCl=  0 I1Cent=   200000004 NGrid=           0
         NMat0=    1 NMatS0=      1 NMatT0=    0 NMatD0=    1 NMtDS0=    0 NMtDT0=    0
 Petite list used in FoFCou.
 Harris En= -861.414879043149    
 JPrj=0 DoOrth=F DoCkMO=F.
 Initial guess orbital symmetries:
       Occupied  (A') (A') (A') (A') (A') (A') (A') (A') (A') (A')
                 (A") (A") (A') (A') (A') (A') (A') (A') (A") (A')
                 (A") (A') (A')
       Virtual   (A") (A") (A') (A') (A') (A') (A')
 The electronic state of the initial guess is 1-A'.
 Leave Link  401 at Wed Nov 19 18:18:14 2025, MaxMem=  2684354560 cpu:               0.2 elap:               0.2
 (Enter /gaussian/g16.c01/intel64-sandybridge/g16/l502.exe)
 Keep R1 ints in memory in symmetry-blocked form, NReq=920697.
 FoFCou: FMM=F IPFlag=           0 FMFlag=           0 FMFlg1=           0
         NFxFlg=           0 DoJE=F BraDBF=F KetDBF=F FulRan=T
         wScrn=  0.000000 ICntrl=       600 IOpCl=  0 I1Cent=           0 NGrid=           0
         NMat0=    1 NMatS0=    465 NMatT0=    0 NMatD0=    1 NMtDS0=    0 NMtDT0=    0
 Petite list used in FoFCou.
 Closed shell SCF:
 Using DIIS extrapolation, IDIIS=  1040.
 NGot=  2684354560 LenX=  2684288363 LenY=  2684287022
 Requested convergence on RMS density matrix=1.00D-08 within  32 cycles.
 Requested convergence on MAX density matrix=1.00D-06.
 Requested convergence on             energy=1.00D-06.
 No special actions if energy rises.

 Cycle   1  Pass 1  IDiag  1:
 E= -862.107339644274    
 DIIS: error= 4.30D-02 at cycle   1 NSaved=   1.
 NSaved= 1 IEnMin= 1 EnMin= -862.107339644274     IErMin= 1 ErrMin= 4.30D-02
 ErrMax= 4.30D-02  0.00D+00 EMaxC= 1.00D-01 BMatC= 5.85D-02 BMatP= 5.85D-02
 IDIUse=3 WtCom= 5.70D-01 WtEn= 4.30D-01
 Coeff-Com:  0.100D+01
 Coeff-En:   0.100D+01
 Coeff:      0.100D+01
 Gap=     0.246 Goal=   None    Shift=    0.000
 GapD=    0.246 DampG=1.000 DampE=0.500 DampFc=0.5000 IDamp=-1.
 Damping current iteration by 5.00D-01
 RMSDP=1.33D-02 MaxDP=9.93D-02              OVMax= 0.00D+00

 Cycle   2  Pass 1  IDiag  1:
 E= -862.133603133858     Delta-E=       -0.026263489583 Rises=F Damp=T
 DIIS: error= 2.54D-02 at cycle   2 NSaved=   2.
 NSaved= 2 IEnMin= 2 EnMin= -862.133603133858     IErMin= 2 ErrMin= 2.54D-02
 ErrMax= 2.54D-02  0.00D+00 EMaxC= 1.00D-01 BMatC= 1.03D-02 BMatP= 5.85D-02
 IDIUse=3 WtCom= 7.46D-01 WtEn= 2.54D-01
 Coeff-Com: -0.425D+00 0.143D+01
 Coeff-En:   0.000D+00 0.100D+01
 Coeff:     -0.317D+00 0.132D+01
 Gap=     0.257 Goal=   None    Shift=    0.000
 RMSDP=3.09D-03 MaxDP=2.03D-02 DE=-2.63D-02 OVMax= 0.00D+00

 Cycle   3  Pass 1  IDiag  1:
 E= -862.158536759439     Delta-E=       -0.024933625581 Rises=F Damp=F
 DIIS: error= 4.16D-03 at cycle   3 NSaved=   3.
 NSaved= 3 IEnMin= 3 EnMin= -862.158536759439     IErMin= 3 ErrMin= 4.16D-03
 ErrMax= 4.16D-03  0.00D+00 EMaxC= 1.00D-01 BMatC= 4.52D-04 BMatP= 1.03D-02
 IDIUse=3 WtCom= 9.58D-01 WtEn= 4.16D-02
 Coeff-Com: -0.129D+00 0.182D+00 0.947D+00
 Coeff-En:   0.000D+00 0.000D+00 0.100D+01
 Coeff:     -0.124D+00 0.174D+00 0.949D+00
 Gap=     0.266 Goal=   None    Shift=    0.000
 RMSDP=1.27D-03 MaxDP=1.09D-02 DE=-2.49D-02 OVMax= 0.00D+00

 Cycle   4  Pass 1  IDiag  1:
 E= -862.159485840281     Delta-E=       -0.000949080842 Rises=F Damp=F
 DIIS: error= 9.83D-04 at cycle   4 NSaved=   4.
 NSaved= 4 IEnMin= 4 EnMin= -862.159485840281     IErMin= 4 ErrMin= 9.83D-04
 ErrMax= 9.83D-04  0.00D+00 EMaxC= 1.00D-01 BMatC= 2.92D-05 BMatP= 4.52D-04
 IDIUse=3 WtCom= 9.90D-01 WtEn= 9.83D-03
 Coeff-Com:  0.108D+00-0.183D+00-0.466D+00 0.154D+01
 Coeff-En:   0.000D+00 0.000D+00 0.000D+00 0.100D+01
 Coeff:      0.107D+00-0.181D+00-0.462D+00 0.154D+01
 Gap=     0.268 Goal=   None    Shift=    0.000
 RMSDP=6.45D-04 MaxDP=5.29D-03 DE=-9.49D-04 OVMax= 0.00D+00

 Cycle   5  Pass 1  IDiag  1:
 E= -862.159620790627     Delta-E=       -0.000134950345 Rises=F Damp=F
 DIIS: error= 4.14D-04 at cycle   5 NSaved=   5.
 NSaved= 5 IEnMin= 5 EnMin= -862.159620790627     IErMin= 5 ErrMin= 4.14D-04
 ErrMax= 4.14D-04  0.00D+00 EMaxC= 1.00D-01 BMatC= 3.87D-06 BMatP= 2.92D-05
 IDIUse=3 WtCom= 9.96D-01 WtEn= 4.14D-03
 Coeff-Com: -0.554D-01 0.940D-01 0.305D+00-0.129D+01 0.195D+01
 Coeff-En:   0.000D+00 0.000D+00 0.000D+00 0.000D+00 0.100D+01
 Coeff:     -0.551D-01 0.936D-01 0.304D+00-0.129D+01 0.194D+01
 Gap=     0.269 Goal=   None    Shift=    0.000
 RMSDP=3.25D-04 MaxDP=2.24D-03 DE=-1.35D-04 OVMax= 0.00D+00

 Cycle   6  Pass 1  IDiag  1:
 E= -862.159637994219     Delta-E=       -0.000017203593 Rises=F Damp=F
 DIIS: error= 6.45D-05 at cycle   6 NSaved=   6.
 NSaved= 6 IEnMin= 6 EnMin= -862.159637994219     IErMin= 6 ErrMin= 6.45D-05
 ErrMax= 6.45D-05  0.00D+00 EMaxC= 1.00D-01 BMatC= 5.44D-08 BMatP= 3.87D-06
 IDIUse=1 WtCom= 1.00D+00 WtEn= 0.00D+00
 Coeff-Com: -0.456D-02 0.751D-02 0.256D-01-0.748D-01 0.829D-01 0.963D+00
 Coeff:     -0.456D-02 0.751D-02 0.256D-01-0.748D-01 0.829D-01 0.963D+00
 Gap=     0.269 Goal=   None    Shift=    0.000
 RMSDP=2.58D-05 MaxDP=2.55D-04 DE=-1.72D-05 OVMax= 0.00D+00

 Cycle   7  Pass 1  IDiag  1:
 E= -862.159638215815     Delta-E=       -0.000000221596 Rises=F Damp=F
 DIIS: error= 2.99D-05 at cycle   7 NSaved=   7.
 NSaved= 7 IEnMin= 7 EnMin= -862.159638215815     IErMin= 7 ErrMin= 2.99D-05
 ErrMax= 2.99D-05  0.00D+00 EMaxC= 1.00D-01 BMatC= 1.78D-08 BMatP= 5.44D-08
 IDIUse=1 WtCom= 1.00D+00 WtEn= 0.00D+00
 Coeff-Com:  0.346D-02-0.601D-02-0.181D-01 0.890D-01-0.141D+00 0.224D+00
 Coeff-Com:  0.849D+00
 Coeff:      0.346D-02-0.601D-02-0.181D-01 0.890D-01-0.141D+00 0.224D+00
 Coeff:      0.849D+00
 Gap=     0.269 Goal=   None    Shift=    0.000
 RMSDP=1.32D-05 MaxDP=1.51D-04 DE=-2.22D-07 OVMax= 0.00D+00

 Cycle   8  Pass 1  IDiag  1:
 E= -862.159638277122     Delta-E=       -0.000000061307 Rises=F Damp=F
 DIIS: error= 1.36D-05 at cycle   8 NSaved=   8.
 NSaved= 8 IEnMin= 8 EnMin= -862.159638277122     IErMin= 8 ErrMin= 1.36D-05
 ErrMax= 1.36D-05  0.00D+00 EMaxC= 1.00D-01 BMatC= 3.85D-09 BMatP= 1.78D-08
 IDIUse=1 WtCom= 1.00D+00 WtEn= 0.00D+00
 Coeff-Com: -0.106D-02 0.184D-02 0.586D-02-0.339D-01 0.448D-01-0.355D+00
 Coeff-Com: -0.987D-02 0.135D+01
 Coeff:     -0.106D-02 0.184D-02 0.586D-02-0.339D-01 0.448D-01-0.355D+00
 Coeff:     -0.987D-02 0.135D+01
 Gap=     0.269 Goal=   None    Shift=    0.000
 RMSDP=1.02D-05 MaxDP=8.78D-05 DE=-6.13D-08 OVMax= 0.00D+00

 Cycle   9  Pass 1  IDiag  1:
 E= -862.159638295346     Delta-E=       -0.000000018224 Rises=F Damp=F
 DIIS: error= 1.21D-06 at cycle   9 NSaved=   9.
 NSaved= 9 IEnMin= 9 EnMin= -862.159638295346     IErMin= 9 ErrMin= 1.21D-06
 ErrMax= 1.21D-06  0.00D+00 EMaxC= 1.00D-01 BMatC= 2.56D-11 BMatP= 3.85D-09
 IDIUse=1 WtCom= 1.00D+00 WtEn= 0.00D+00
 Coeff-Com:  0.533D-04-0.994D-04-0.269D-03 0.345D-02-0.185D-02 0.761D-01
 Coeff-Com: -0.185D-01-0.336D+00 0.128D+01
 Coeff:      0.533D-04-0.994D-04-0.269D-03 0.345D-02-0.185D-02 0.761D-01
 Coeff:     -0.185D-01-0.336D+00 0.128D+01
 Gap=     0.269 Goal=   None    Shift=    0.000
 RMSDP=9.82D-07 MaxDP=1.12D-05 DE=-1.82D-08 OVMax= 0.00D+00

 Cycle  10  Pass 1  IDiag  1:
 E= -862.159638295514     Delta-E=       -0.000000000168 Rises=F Damp=F
 DIIS: error= 6.17D-08 at cycle  10 NSaved=  10.
 NSaved=10 IEnMin=10 EnMin= -862.159638295514     IErMin=10 ErrMin= 6.17D-08
 ErrMax= 6.17D-08  0.00D+00 EMaxC= 1.00D-01 BMatC= 1.70D-13 BMatP= 2.56D-11
 IDIUse=1 WtCom= 1.00D+00 WtEn= 0.00D+00
 Coeff-Com:  0.620D-05-0.104D-04-0.437D-04 0.203D-03-0.405D-03 0.144D-02
 Coeff-Com:  0.155D-02-0.513D-02-0.199D-01 0.102D+01
 Coeff:      0.620D-05-0.104D-04-0.437D-04 0.203D-03-0.405D-03 0.144D-02
 Coeff:      0.155D-02-0.513D-02-0.199D-01 0.102D+01
 Gap=     0.269 Goal=   None    Shift=    0.000
 RMSDP=5.35D-08 MaxDP=7.80D-07 DE=-1.68D-10 OVMax= 0.00D+00

 Cycle  11  Pass 1  IDiag  1:
 E= -862.159638295513     Delta-E=        0.000000000001 Rises=F Damp=F
 DIIS: error= 5.91D-08 at cycle  11 NSaved=  11.
 NSaved=11 IEnMin=10 EnMin= -862.159638295514     IErMin=11 ErrMin= 5.91D-08
 ErrMax= 5.91D-08  0.00D+00 EMaxC= 1.00D-01 BMatC= 8.07D-14 BMatP= 1.70D-13
 IDIUse=1 WtCom= 1.00D+00 WtEn= 0.00D+00
 Coeff-Com: -0.513D-05 0.955D-05 0.245D-04-0.319D-03 0.163D-03-0.719D-02
 Coeff-Com:  0.306D-02 0.291D-01-0.116D+00 0.768D-01 0.101D+01
 Coeff:     -0.513D-05 0.955D-05 0.245D-04-0.319D-03 0.163D-03-0.719D-02
 Coeff:      0.306D-02 0.291D-01-0.116D+00 0.768D-01 0.101D+01
 Gap=     0.269 Goal=   None    Shift=    0.000
 RMSDP=2.21D-08 MaxDP=2.36D-07 DE= 9.09D-13 OVMax= 0.00D+00

 Cycle  12  Pass 1  IDiag  1:
 E= -862.159638295512     Delta-E=        0.000000000001 Rises=F Damp=F
 DIIS: error= 3.13D-08 at cycle  12 NSaved=  12.
 NSaved=12 IEnMin=10 EnMin= -862.159638295514     IErMin=12 ErrMin= 3.13D-08
 ErrMax= 3.13D-08  0.00D+00 EMaxC= 1.00D-01 BMatC= 2.33D-14 BMatP= 8.07D-14
 IDIUse=1 WtCom= 1.00D+00 WtEn= 0.00D+00
 Coeff-Com:  0.185D-05-0.377D-05-0.498D-05 0.169D-03 0.360D-05 0.452D-02
 Coeff-Com: -0.157D-02-0.205D-01 0.837D-01-0.158D+00-0.120D+01 0.229D+01
 Coeff:      0.185D-05-0.377D-05-0.498D-05 0.169D-03 0.360D-05 0.452D-02
 Coeff:     -0.157D-02-0.205D-01 0.837D-01-0.158D+00-0.120D+01 0.229D+01
 Gap=     0.269 Goal=   None    Shift=    0.000
 RMSDP=2.96D-08 MaxDP=3.11D-07 DE= 7.96D-13 OVMax= 0.00D+00

 Cycle  13  Pass 1  IDiag  1:
 E= -862.159638295512     Delta-E=       -0.000000000000 Rises=F Damp=F
 DIIS: error= 7.80D-09 at cycle  13 NSaved=  13.
 NSaved=13 IEnMin=10 EnMin= -862.159638295514     IErMin=13 ErrMin= 7.80D-09
 ErrMax= 7.80D-09  0.00D+00 EMaxC= 1.00D-01 BMatC= 1.54D-15 BMatP= 2.33D-14
 IDIUse=1 WtCom= 1.00D+00 WtEn= 0.00D+00
 Coeff-Com: -0.194D-06 0.510D-06-0.116D-05-0.334D-04-0.249D-04-0.111D-02
 Coeff-Com:  0.541D-03 0.509D-02-0.219D-01 0.809D-01 0.292D+00-0.871D+00
 Coeff-Com:  0.152D+01
 Coeff:     -0.194D-06 0.510D-06-0.116D-05-0.334D-04-0.249D-04-0.111D-02
 Coeff:      0.541D-03 0.509D-02-0.219D-01 0.809D-01 0.292D+00-0.871D+00
 Coeff:      0.152D+01
 Gap=     0.269 Goal=   None    Shift=    0.000
 RMSDP=7.48D-09 MaxDP=7.33D-08 DE=-3.41D-13 OVMax= 0.00D+00

 SCF Done:  E(RHF) =  -862.159638296     A.U. after   13 cycles
            NFock= 13  Conv=0.75D-08     -V/T= 2.0109
 KE= 8.528433028365D+02 PE=-2.371289742172D+03 EE= 4.952307224995D+02
 Leave Link  502 at Wed Nov 19 18:18:15 2025, MaxMem=  2684354560 cpu:               0.3 elap:               0.7
 (Enter /gaussian/g16.c01/intel64-sandybridge/g16/l508.exe)
 QCSCF skips out because SCF is already converged.
 Leave Link  508 at Wed Nov 19 18:18:15 2025, MaxMem=  2684354560 cpu:               0.0 elap:               0.1
 (Enter /gaussian/g16.c01/intel64-sandybridge/g16/l601.exe)
 Copying SCF densities to generalized density rwf, IOpCl= 0 IROHF=0.

 **********************************************************************

            Population analysis using the SCF Density.

 **********************************************************************

 Orbital symmetries:
       Occupied  (A') (A') (A') (A') (A') (A') (A") (A") (A') (A')
                 (A') (A') (A') (A') (A') (A') (A') (A') (A") (A')
                 (A') (A') (A")
       Virtual   (A") (A") (A') (A') (A') (A') (A')
 The electronic state is 1-A'.
 Alpha  occ. eigenvalues --  -90.70315 -90.70313 -11.04707 -11.04662  -8.61382
 Alpha  occ. eigenvalues --   -8.61377  -6.24462  -6.24460  -6.24441  -6.24437
 Alpha  occ. eigenvalues --   -6.24057  -6.24055  -1.03001  -0.87517  -0.75305
 Alpha  occ. eigenvalues --   -0.70797  -0.54623  -0.46412  -0.37613  -0.36131
 Alpha  occ. eigenvalues --   -0.25272  -0.24574  -0.19336
 Alpha virt. eigenvalues --    0.07588   0.31835   0.44854   0.52239   0.65762
 Alpha virt. eigenvalues --    0.85785   0.92295
          Condensed to atoms (all electrons):
               1          2          3          4          5          6
     1  C    5.007595   0.385539   0.475832  -0.031271  -0.025421   0.338911
     2  H    0.385539   0.591357  -0.031239   0.002072  -0.002426  -0.019665
     3  C    0.475832  -0.031239   5.007653   0.385723   0.338816  -0.025421
     4  H   -0.031271   0.002072   0.385723   0.591010  -0.019639  -0.002423
     5  S   -0.025421  -0.002426   0.338816  -0.019639  15.631559   0.000263
     6  S    0.338911  -0.019665  -0.025421  -0.002423   0.000263  15.631525
 Mulliken charges:
               1
     1  C   -0.151186
     2  H    0.074362
     3  C   -0.151364
     4  H    0.074528
     5  S    0.076848
     6  S    0.076812
 Sum of Mulliken charges =   0.00000
 Mulliken charges with hydrogens summed into heavy atoms:
               1
     1  C   -0.076824
     3  C   -0.076835
     5  S    0.076848
     6  S    0.076812
 Electronic spatial extent (au):  <R**2>=            664.5893
 Charge=              0.0000 electrons
 Dipole moment (field-independent basis, Debye):
    X=              0.0003    Y=             -0.0008    Z=              0.0000  Tot=              0.0009
 Quadrupole moment (field-independent basis, Debye-Ang):
   XX=            -34.5624   YY=            -35.1883   ZZ=            -31.1346
   XY=              2.0384   XZ=              0.0000   YZ=             -0.0000
 Traceless Quadrupole moment (field-independent basis, Debye-Ang):
   XX=             -0.9340   YY=             -1.5599   ZZ=              2.4939
   XY=              2.0384   XZ=              0.0000   YZ=             -0.0000
 Octapole moment (field-independent basis, Debye-Ang**2):
  XXX=              0.0076  YYY=             -0.0003  ZZZ=              0.0000  XYY=              0.0026
  XXY=             -0.0028  XXZ=              0.0000  XZZ=              0.0007  YZZ=              0.0001
  YYZ=              0.0000  XYZ=              0.0000
 Hexadecapole moment (field-independent basis, Debye-Ang**3):
 XXXX=           -344.6637 YYYY=           -411.6491 ZZZZ=            -25.5036 XXXY=            150.6295
 XXXZ=              0.0000 YYYX=            159.4354 YYYZ=              0.0000 ZZZX=              0.0000
 ZZZY=             -0.0000 XXYY=           -120.0859 XXZZ=            -56.8165 YYZZ=            -64.9178
 XXYZ=             -0.0000 YYXZ=              0.0000 ZZXY=             45.7350
 N-N= 1.610560785406D+02 E-N=-2.371289742195D+03  KE= 8.528433028365D+02
 Symmetry A'   KE= 7.805517903285D+02
 Symmetry A"   KE= 7.229151250800D+01
 No NMR shielding tensors so no spin-rotation constants.
 Leave Link  601 at Wed Nov 19 18:18:15 2025, MaxMem=  2684354560 cpu:               0.1 elap:               0.1
 (Enter /gaussian/g16.c01/intel64-sandybridge/g16/l9999.exe)
 Unable to Open any file for archive entry.
 1\1\GINC-THIOTIMOLINE-LARGE01\SP\RHF\STO-3G\C2H2S2\LCRISCI_VB\19-Nov-2
 025\0\\#P hf/sto-3g scf=xqc\\External Calculation\\0,1\C,0,-0.38122776
 62,0.5595030819,0.\H,0,-1.4489983474,0.4764336871,0.\C,0,0.3822277662,
 -0.5595030819,0.\H,0,1.4489983474,-0.4764336871,0.\S,0,-0.3822277662,-
 2.166987993,0.\S,0,0.3822277662,2.166987993,0.\\Version=ES64L-G16RevC.
 01\State=1-A'\HF=-862.1596383\RMSD=7.482e-09\Dipole=0.000097,-0.000338
 3,0.\Quadrupole=0.5685719,-2.4227024,1.8541305,-0.3374582,0.,0.\PG=CS 
 [SG(C2H2S2)]\\@
 The archive entry for this job was punched.


          EVOLUTION
 IN THE BEGINNING GOD MADE MAN.
 HE WORKED THE DIRT WITH HIS HANDS.
 THEN GOD DECIDED TO GIVE MAN SCIENCE,
 MAN SHOULD BE USEFUL (LIKE AN APPLIANCE.)
 BUT SOON MAN'S KNOWLEDGE GREW TOO GREAT,
 TO THE HEADING SCIENCE HE COULDN'T RELATE
 SO GOD SAID "LETS HAVE DIFFERENT FIELDS,
 WE'LL DIVIDE THEM UP, SEE WHAT IT YIELDS."
 ENTER PHYSICS, CHEMISTRY, BIO
 THEY SPRANG UP AROUND THE NILE.
 BUT CHEMISTRY SURPASSED THE REST
 FAR AND AWAY IT WAS THE BEST.
 EXPERIMENT WAS GOD'S DECREE
 EXPERIMENT DID CHEMISTS WITH LOTS OF GLEE
 BUT SOON THEIR TESTS BEGAN TO BOG,
 THEY FOUND THEMSELVES DEEP IN A FOG.
 "GIVE US SOME HELP" THEY CRIED TO GOD.
 GOD LOOKED AROUND, THEN GAVE THE NOD.
 ENTER EINSTEIN, HEISENBERG, BOHR,
 REACTION PATHS WERE CLEAR ONCE MORE.
 WITH THEORISTS GOD SEND DIRECTION
 AND THEN HE STOPPED, HE'D MADE PERFECTION.
          -- THOMAS A. HOLME, 1981
 Job cpu time:       0 days  0 hours  0 minutes  1.5 seconds.
 Elapsed time:       0 days  0 hours  0 minutes  2.6 seconds.
 File lengths (MBytes):  RWF=      5 Int=      0 D2E=      0 Chk=      1 Scr=      1
 Normal termination of Gaussian 16 at Wed Nov 19 18:18:15 2025.
