External Calculation                                                    
SP        RHF                                                         STO-3G              
Number of atoms                            I                6
Info1-9                                    I   N=           9
          20          15           0           0           0         110
           1           1           2
Full Title                                 C   N=           2
External Calculation    
Route                                      C   N=           2
#P hf/sto-3g scf=xqc    
Charge                                     I                0
Multiplicity                               I                1
Number of electrons                        I               46
Number of alpha electrons                  I               23
Number of beta electrons                   I               23
Number of basis functions                  I               30
Number of independent functions            I               30
Number of point charges in /Mol/           I                0
Number of translation vectors              I                0
Atomic numbers                             I   N=           6
           6           1           6           1          16          16
Nuclear charges                            R   N=           6
  6.00000000E+00  1.00000000E+00  6.00000000E+00  1.00000000E+00  1.60000000E+01
  1.60000000E+01
Current cartesian coordinates              R   N=          18
  0.00000000E+00  1.27955221E+00 -1.23259516E-32  1.75573713E+00  2.28629041E+00
 -2.46519033E-32 -1.15415275E-03 -1.28033888E+00  1.31926201E-32 -1.75532979E+00
 -2.28601276E+00  2.46519033E-32  2.90342442E+00 -2.97680141E+00  0.00000000E+00
 -2.90301707E+00  2.97707906E+00 -4.93038066E-32
Number of symbols in /Mol/                 I                0
Int Atom Types                             I   N=           6
           0           0           0           0           0           0
Force Field                                I                0
Atom Types                                 C   N=           6
                                                            
            
MM charges                                 R   N=           6
  0.00000000E+00  0.00000000E+00  0.00000000E+00  0.00000000E+00  0.00000000E+00
  0.00000000E+00
Integer atomic weights                     I   N=           6
          12           1          12           1          32          32
Real atomic weights                        R   N=           6
  1.20000000E+01  1.00782504E+00  1.20000000E+01  1.00782504E+00  3.19720718E+01
  3.19720718E+01
Atom fragment info                         I   N=           6
           0           0           0           0           0           0
Atom residue num                           I   N=           6
           0           0           0           0           0           0
Nuclear spins                              I   N=           6
           0           1           0           1           0           0
Nuclear ZEff                               R   N=           6
 -3.60000000E+00 -1.00000000E+00 -3.60000000E+00 -1.00000000E+00 -1.36000000E+01
 -1.36000000E+01
Nuclear ZNuc                               R   N=           6
  6.00000000E+00  1.00000000E+00  6.00000000E+00  1.00000000E+00  1.60000000E+01
  1.60000000E+01
Nuclear QMom                               R   N=           6
  0.00000000E+00  0.00000000E+00  0.00000000E+00  0.00000000E+00  0.00000000E+00
  0.00000000E+00
Nuclear GFac                               R   N=           6
  0.00000000E+00  2.79284600E+00  0.00000000E+00  2.79284600E+00  0.00000000E+00
  0.00000000E+00
MicOpt                                     I   N=           6
          -1          -1          -1          -1          -1          -1
Number of residues                         I                0
Number of secondary structures             I                0
SymInf integers                            I   N=          26
           1           2           1           1           1           1
           1          -1           0           0           0           0
           0           0           0           0           0           0
           0           0           0           0           0           0
           0           0
RotTr to input orientation                 R   N=          12
 -8.26310628E-01 -5.63214654E-01 -1.22464680E-16 -5.63214654E-01  8.26310628E-01
  0.00000000E+00  1.01193867E-16  6.89739023E-17 -1.00000000E+00  2.46486016E-04
  0.00000000E+00  0.00000000E+00
Number of contracted shells                I               12
Number of primitive shells                 I               36
Pure/Cartesian d shells                    I                0
Pure/Cartesian f shells                    I                0
Highest angular momentum                   I                1
Largest degree of contraction              I                3
Shell types                                I   N=          12
           0          -1           0           0          -1           0
           0          -1          -1           0          -1          -1
Number of primitives per shell             I   N=          12
           3           3           3           3           3           3
           3           3           3           3           3           3
Shell to atom map                          I   N=          12
           1           1           2           3           3           4
           5           5           5           6           6           6
Primitive exponents                        R   N=          36
  7.16168373E+01  1.30450963E+01  3.53051216E+00  2.94124936E+00  6.83483096E-01
  2.22289916E-01  3.42525091E+00  6.23913730E-01  1.68855404E-01  7.16168373E+01
  1.30450963E+01  3.53051216E+00  2.94124936E+00  6.83483096E-01  2.22289916E-01
  3.42525091E+00  6.23913730E-01  1.68855404E-01  5.33125736E+02  9.71095183E+01
  2.62816254E+01  3.33297517E+01  7.74511752E+00  2.51895260E+00  2.02919427E+00
  5.66140052E-01  2.21583379E-01  5.33125736E+02  9.71095183E+01  2.62816254E+01
  3.33297517E+01  7.74511752E+00  2.51895260E+00  2.02919427E+00  5.66140052E-01
  2.21583379E-01
Contraction coefficients                   R   N=          36
  1.54328967E-01  5.35328142E-01  4.44634542E-01 -9.99672292E-02  3.99512826E-01
  7.00115469E-01  1.54328967E-01  5.35328142E-01  4.44634542E-01  1.54328967E-01
  5.35328142E-01  4.44634542E-01 -9.99672292E-02  3.99512826E-01  7.00115469E-01
  1.54328967E-01  5.35328142E-01  4.44634542E-01  1.54328967E-01  5.35328142E-01
  4.44634542E-01 -9.99672292E-02  3.99512826E-01  7.00115469E-01 -2.19620369E-01
  2.25595434E-01  9.00398426E-01  1.54328967E-01  5.35328142E-01  4.44634542E-01
 -9.99672292E-02  3.99512826E-01  7.00115469E-01 -2.19620369E-01  2.25595434E-01
  9.00398426E-01
P(S=P) Contraction coefficients            R   N=          36
  0.00000000E+00  0.00000000E+00  0.00000000E+00  1.55916275E-01  6.07683719E-01
  3.91957393E-01  0.00000000E+00  0.00000000E+00  0.00000000E+00  0.00000000E+00
  0.00000000E+00  0.00000000E+00  1.55916275E-01  6.07683719E-01  3.91957393E-01
  0.00000000E+00  0.00000000E+00  0.00000000E+00  0.00000000E+00  0.00000000E+00
  0.00000000E+00  1.55916275E-01  6.07683719E-01  3.91957393E-01  1.05876043E-02
  5.95167005E-01  4.62001012E-01  0.00000000E+00  0.00000000E+00  0.00000000E+00
  1.55916275E-01  6.07683719E-01  3.91957393E-01  1.05876043E-02  5.95167005E-01
  4.62001012E-01
Coordinates of each shell                  R   N=          36
  0.00000000E+00  1.27955221E+00  0.00000000E+00  0.00000000E+00  1.27955221E+00
  0.00000000E+00  1.75573713E+00  2.28629041E+00  0.00000000E+00 -1.15415275E-03
 -1.28033888E+00  0.00000000E+00 -1.15415275E-03 -1.28033888E+00  0.00000000E+00
 -1.75532979E+00 -2.28601276E+00  0.00000000E+00  2.90342442E+00 -2.97680141E+00
  0.00000000E+00  2.90342442E+00 -2.97680141E+00  0.00000000E+00  2.90342442E+00
 -2.97680141E+00  0.00000000E+00 -2.90301707E+00  2.97707906E+00  0.00000000E+00
 -2.90301707E+00  2.97707906E+00  0.00000000E+00 -2.90301707E+00  2.97707906E+00
  0.00000000E+00
Num ILSW                                   I              100
ILSW                                       I   N=         100
           0           0           0           0           2           0
           0           0           0           0           0          -1
           5           0           0           0           0           0
           0           0           0           0           0           0
           1           0           0           0           0           0
           0           0      100000           0          -1           0
           0           0           0           0           0           0
           0           0           0           1           0           0
           0 -2000000000           1           0           0           0
           0           0           4          52           0           0
           0           0           0           0           0           0
           0           0           0           6           0           1
           0           0           0           0           0           0
           0           0           0           0           0           0
           0           0           0           0           0           0
           0           0           0           0           0           0
           0           0           0           0
Num RLSW                                   I               52
RLSW                                       R   N=          52
  1.00000000E+00  1.00000000E+00  1.00000000E+00  1.00000000E+00  1.00000000E+00
  0.00000000E+00  0.00000000E+00  1.00000000E+00  0.00000000E+00  0.00000000E+00
  0.00000000E+00  0.00000000E+00  1.00000000E+00  0.00000000E+00  0.00000000E+00
  0.00000000E+00  0.00000000E+00  1.00000000E+00  0.00000000E+00  0.00000000E+00
  0.00000000E+00  0.00000000E+00  1.00000000E+00  0.00000000E+00  0.00000000E+00
  0.00000000E+00  0.00000000E+00  1.00000000E+00  0.00000000E+00  0.00000000E+00
  0.00000000E+00  0.00000000E+00  1.00000000E+00  0.00000000E+00  0.00000000E+00
  0.00000000E+00  0.00000000E+00  0.00000000E+00  1.00000000E+00  1.00000000E+00
  0.00000000E+00  1.00000000E+00  0.00000000E+00  0.00000000E+00  0.00000000E+00
  0.00000000E+00  0.00000000E+00  0.00000000E+00  0.00000000E+00  0.00000000E+00
  0.00000000E+00  0.00000000E+00
MxBond                                     I                3
NBond                                      I   N=           6
           3           1           3           1           1           1
IBond                                      I   N=          18
           2           3           6           1           0           0
           1           4           5           3           0           0
           3           0           0           1           0           0
RBond                                      R   N=          18
  1.00000000E+00  2.00000000E+00  1.00000000E+00  1.00000000E+00  0.00000000E+00
  0.00000000E+00  2.00000000E+00  1.00000000E+00  1.00000000E+00  1.00000000E+00
  0.00000000E+00  0.00000000E+00  1.00000000E+00  0.00000000E+00  0.00000000E+00
  1.00000000E+00  0.00000000E+00  0.00000000E+00
Virial Ratio                               R      2.010923853688083E+00
SCF Energy                                 R     -8.621596382955123E+02
Total Energy                               R     -8.621596382955123E+02
RMS Density                                R      7.482339243524433E-09
Job Status                                 I                1
Nuclear derivative order                   I                0
External E-field                           R   N=          35
  0.00000000E+00  0.00000000E+00  0.00000000E+00  0.00000000E+00  0.00000000E+00
  0.00000000E+00  0.00000000E+00  0.00000000E+00  0.00000000E+00  0.00000000E+00
  0.00000000E+00  0.00000000E+00  0.00000000E+00  0.00000000E+00  0.00000000E+00
  0.00000000E+00  0.00000000E+00  0.00000000E+00  0.00000000E+00  0.00000000E+00
  0.00000000E+00  0.00000000E+00  0.00000000E+00  0.00000000E+00  0.00000000E+00
  0.00000000E+00  0.00000000E+00  0.00000000E+00  0.00000000E+00  0.00000000E+00
  0.00000000E+00  0.00000000E+00  0.00000000E+00  0.00000000E+00  0.00000000E+00
IOpCl                                      I                0
IROHF                                      I                0
Alpha Orbital Energies                     R   N=          30
 -9.07031476E+01 -9.07031252E+01 -1.10470748E+01 -1.10466205E+01 -8.61382063E+00
 -8.61377325E+00 -6.24462354E+00 -6.24460055E+00 -6.24441017E+00 -6.24436696E+00
 -6.24057245E+00 -6.24054794E+00 -1.03001152E+00 -8.75172078E-01 -7.53049287E-01
 -7.07968588E-01 -5.46232997E-01 -4.64120915E-01 -3.76133825E-01 -3.61306887E-01
 -2.52717181E-01 -2.45737953E-01 -1.93362372E-01  7.58814991E-02  3.18353067E-01
  4.48535504E-01  5.22394820E-01  6.57621055E-01  8.57852270E-01  9.22946846E-01
Alpha MO coefficients                      R   N=         900
  1.94213359E-06 -3.62956413E-05 -1.77568907E-05 -1.79590107E-05  0.00000000E+00
  4.52342858E-05 -6.57434386E-05  4.71195685E-04  3.86886736E-04 -2.19432898E-04
  0.00000000E+00  9.97717879E-06  9.93755141E-01  1.71022976E-02 -1.35762856E-04
  7.84357011E-05  0.00000000E+00 -2.29249345E-03  2.66430465E-04 -1.56412043E-04
  0.00000000E+00 -2.85415215E-02 -4.92162920E-04 -4.18425559E-06  3.58306582E-06
  0.00000000E+00  6.99413594E-05  9.03184796E-06 -1.03681153E-05  0.00000000E+00
 -6.57658649E-05  4.70310577E-04 -3.88641636E-04  2.19101450E-04  0.00000000E+00
  1.25530204E-05 -1.82944091E-06 -9.28300374E-06  4.01015702E-05  5.39104835E-06
  0.00000000E+00  4.59111209E-05  2.85420690E-02  4.90231562E-04 -3.61434877E-06
  9.24363364E-07  0.00000000E+00 -6.17501901E-05  6.27621066E-06  1.38157183E-06
  0.00000000E+00  9.93755143E-01  1.71022747E-02  1.35780968E-04 -7.84844762E-05
  0.00000000E+00 -2.29257168E-03 -2.66566792E-04  1.56381847E-04  0.00000000E+00
  7.04761040E-01  1.92999636E-02  7.73942467E-04  1.81550531E-03  0.00000000E+00
 -4.93143908E-03  6.99106798E-01  1.90627793E-02 -7.75430597E-04 -1.85513893E-03
  0.00000000E+00 -4.89836812E-03 -5.44938789E-05  1.08799201E-04 -3.15418445E-04
  2.13470081E-04  0.00000000E+00 -2.80416867E-03  2.40631764E-03 -1.53471189E-03
  0.00000000E+00 -5.49425833E-05  1.09310216E-04  3.17976535E-04 -2.15185030E-04
  0.00000000E+00 -2.83025408E-03 -2.42736470E-03  1.54909032E-03  0.00000000E+00
 -6.98604422E-01 -3.00722224E-02 -6.10573691E-04  4.84289012E-03  0.00000000E+00
  4.97685007E-03  7.04261901E-01  3.02320233E-02 -6.25638515E-04  4.82706508E-03
  0.00000000E+00 -5.02393410E-03 -5.35558487E-05  8.01039233E-05 -3.27488812E-04
  1.83658253E-04  0.00000000E+00 -2.98350297E-03  2.58304702E-03 -1.51954623E-03
  0.00000000E+00  5.31453431E-05 -7.91113238E-05 -3.24925865E-04  1.82292901E-04
  0.00000000E+00  2.96365601E-03  2.56423923E-03 -1.51017438E-03  0.00000000E+00
 -6.03811850E-04  4.80634106E-03 -3.19109684E-03  2.12694235E-03  0.00000000E+00
 -5.20896015E-04  9.67127136E-04 -7.17124922E-03 -5.09084133E-03  3.10508804E-03
  0.00000000E+00  2.36421683E-04 -3.08566576E-01  8.79348658E-01 -7.91784945E-03
  4.56225454E-03  0.00000000E+00  4.20090878E-02 -4.60766215E-03  2.74419472E-03
  0.00000000E+00  1.99644725E-01 -5.68944282E-01 -5.12105583E-03  2.95097067E-03
  0.00000000E+00 -2.72329195E-02 -3.00741238E-03  1.82644953E-03  0.00000000E+00
  1.01572023E-03 -6.81407875E-03  5.32220658E-03 -2.85207412E-03  0.00000000E+00
 -5.82216672E-04  6.78948840E-04 -4.24156100E-03 -3.54741745E-03  1.72729695E-03
  0.00000000E+00 -7.44896499E-04 -1.99654377E-01  5.68973353E-01 -5.12784839E-03
  2.96499458E-03  0.00000000E+00  2.70600027E-02 -2.92188066E-03  1.65933353E-03
  0.00000000E+00 -3.08572525E-01  8.79366702E-01  7.92239872E-03 -4.58122108E-03
  0.00000000E+00  4.19035328E-02  4.55642749E-03 -2.64310090E-03  0.00000000E+00
  0.00000000E+00  0.00000000E+00  0.00000000E+00  0.00000000E+00 -8.03851069E-04
  0.00000000E+00  0.00000000E+00  0.00000000E+00  0.00000000E+00  0.00000000E+00
 -3.80417982E-03  0.00000000E+00  0.00000000E+00  0.00000000E+00  0.00000000E+00
  0.00000000E+00  9.50384580E-01  0.00000000E+00  0.00000000E+00  0.00000000E+00
  5.10104656E-02  0.00000000E+00  0.00000000E+00  0.00000000E+00  0.00000000E+00
  2.59297770E-01  0.00000000E+00  0.00000000E+00  0.00000000E+00  1.39370730E-02
  0.00000000E+00  0.00000000E+00  0.00000000E+00  0.00000000E+00 -3.94559238E-03
  0.00000000E+00  0.00000000E+00  0.00000000E+00  0.00000000E+00  0.00000000E+00
  1.31122789E-03  0.00000000E+00  0.00000000E+00  0.00000000E+00  0.00000000E+00
  0.00000000E+00 -2.59310682E-01  0.00000000E+00  0.00000000E+00  0.00000000E+00
 -1.38956168E-02  0.00000000E+00  0.00000000E+00  0.00000000E+00  0.00000000E+00
  9.50387848E-01  0.00000000E+00  0.00000000E+00  0.00000000E+00  5.10002215E-02
  7.23496984E-04 -7.54584430E-03  4.77339866E-03 -2.96680692E-03  0.00000000E+00
  5.08798849E-04 -1.16645312E-03  1.14609169E-02  7.68120983E-03 -4.54833763E-03
  0.00000000E+00 -2.98530033E-04 -4.13582911E-03  1.20578643E-02  7.13310501E-01
 -4.20425708E-01  0.00000000E+00 -6.06319541E-03  4.38087253E-02 -2.58215646E-02
  0.00000000E+00  2.65627282E-03 -7.74475150E-03  4.55715667E-01 -2.71728507E-01
  0.00000000E+00  3.94365158E-03  2.80245813E-02 -1.67344732E-02  0.00000000E+00
  1.21750941E-03 -1.10408883E-02  8.00648512E-03 -4.44744954E-03  0.00000000E+00
 -3.91146066E-04  8.03942914E-04 -6.87233276E-03 -5.28034619E-03  2.79763754E-03
  0.00000000E+00 -5.68741139E-04  2.63880789E-03 -7.69196220E-03 -4.60035117E-01
  2.64421526E-01  0.00000000E+00  3.75569259E-03 -2.81751412E-02  1.61365183E-02
  0.00000000E+00  4.12741125E-03 -1.20319129E-02  7.15727916E-01 -4.16337935E-01
  0.00000000E+00  5.95196823E-03  4.38920261E-02 -2.54789418E-02  0.00000000E+00
  4.82140208E-05  9.84928424E-04 -1.05616530E-03 -1.45009102E-03  0.00000000E+00
 -6.84351583E-04 -1.78309244E-06 -4.39818238E-04 -1.98832996E-03 -3.63944682E-03
  0.00000000E+00 -2.11580335E-04 -2.60349687E-05  7.72324279E-05  4.72790177E-01
  8.04952521E-01  0.00000000E+00  4.18148446E-05  2.41484496E-02  4.10968834E-02
  0.00000000E+00  2.29241106E-05 -7.15783134E-05  1.64266419E-01  2.71170006E-01
  0.00000000E+00 -1.14634814E-04  8.32669104E-03  1.39186463E-02  0.00000000E+00
 -3.49262230E-05 -2.00715280E-04 -1.69760660E-03 -3.47700999E-03  0.00000000E+00
  7.88861423E-04 -5.92303766E-05 -9.06338303E-04  1.96465636E-04  9.65824811E-04
  0.00000000E+00  1.02390121E-03 -8.70378075E-06  3.03181411E-05 -1.56122700E-01
 -2.75956528E-01  0.00000000E+00  1.12914765E-04 -8.05505604E-03 -1.39957041E-02
  0.00000000E+00  1.50954426E-05 -4.20490219E-05  4.70555348E-01  8.06267208E-01
  0.00000000E+00  3.60478311E-05  2.40843596E-02  4.11078403E-02  0.00000000E+00
 -1.66583276E-01  4.50755472E-01 -1.24943827E-02 -9.64453320E-02  0.00000000E+00
  1.03558460E-01 -1.66613420E-01  4.50805480E-01  1.22890258E-02  9.64322016E-02
  0.00000000E+00  1.03780991E-01  2.43048239E-02 -8.36229111E-02  2.49439542E-02
 -1.78753635E-02  0.00000000E+00  2.22002885E-01 -5.60457234E-02  3.99640594E-02
  0.00000000E+00  2.43249017E-02 -8.36938261E-02 -2.49567500E-02  1.79056974E-02
  0.00000000E+00  2.22167084E-01  5.60688026E-02 -4.00263713E-02  0.00000000E+00
 -8.97861735E-02  2.75722779E-01 -8.78297482E-02  1.21734376E-01  0.00000000E+00
  8.05986334E-02  8.98554067E-02 -2.75885427E-01 -8.76109874E-02  1.21571892E-01
  0.00000000E+00 -8.08125269E-02 -5.29795116E-02  1.80446740E-01 -3.35624225E-02
  1.74050802E-02  0.00000000E+00 -5.21297051E-01  7.78810033E-02 -4.05030461E-02
  0.00000000E+00  5.30215121E-02 -1.80592724E-01 -3.35869770E-02  1.74401948E-02
  0.00000000E+00  5.21677060E-01  7.79271821E-02 -4.05792365E-02  0.00000000E+00
  6.22107666E-02 -1.75102633E-01 -1.13409592E-01  1.90461952E-01  0.00000000E+00
 -6.96229505E-02  6.24855868E-02 -1.75903603E-01  1.14379284E-01 -1.90078918E-01
  0.00000000E+00 -7.06462969E-02  5.97403062E-02 -2.01066817E-01  6.51181513E-03
  3.38917502E-03  0.00000000E+00  6.28808629E-01 -1.32090961E-02 -1.15837231E-02
  0.00000000E+00  5.96027535E-02 -2.00605347E-01 -6.54804649E-03 -3.42608448E-03
  0.00000000E+00  6.27341934E-01  1.33147122E-02  1.16818736E-02  0.00000000E+00
  9.10549143E-02 -2.90477881E-01 -2.55613603E-01 -1.29865986E-01  0.00000000E+00
 -3.07921163E-01 -9.07386934E-02  2.89442362E-01 -2.55720611E-01 -1.31415881E-01
  0.00000000E+00  3.08299757E-01 -2.44497839E-02  8.18491960E-02  1.68437377E-02
  1.21203269E-02  0.00000000E+00 -2.64305534E-01 -4.78702863E-02 -3.36831711E-02
  0.00000000E+00  2.46438067E-02 -8.24990704E-02  1.68589000E-02  1.20408861E-02
  0.00000000E+00  2.66397550E-01 -4.79176117E-02 -3.34604178E-02  0.00000000E+00
 -7.71167223E-04  2.19671039E-02  1.96165496E-01  4.22585622E-01  0.00000000E+00
  3.43811129E-01 -5.90928074E-04  2.12090154E-02 -1.95798810E-01 -4.22257744E-01
  0.00000000E+00  3.43186432E-01 -8.98503993E-03  2.93203743E-02  3.10145642E-02
  2.30143495E-02  0.00000000E+00 -1.08021005E-01 -8.88226114E-02 -6.94294727E-02
  0.00000000E+00 -9.03910593E-03  2.94958736E-02 -3.11830429E-02 -2.30366297E-02
  0.00000000E+00 -1.08683495E-01  8.93000391E-02  6.95128990E-02  0.00000000E+00
  6.31662168E-02 -2.55847517E-01  3.20582043E-01 -9.61925143E-02  0.00000000E+00
  7.68097368E-02 -6.31776154E-02  2.55916656E-01  3.20505863E-01 -9.63490088E-02
  0.00000000E+00 -7.65830399E-02 -3.39301138E-02  1.09108587E-01  9.97519751E-02
 -8.04888681E-02  0.00000000E+00 -4.31715940E-01 -2.84058503E-01  2.35242381E-01
  0.00000000E+00  3.39363478E-02 -1.09125237E-01  9.97058034E-02 -8.05854433E-02
  0.00000000E+00  4.31834479E-01 -2.83899111E-01  2.35511719E-01  0.00000000E+00
  0.00000000E+00  0.00000000E+00  0.00000000E+00  0.00000000E+00  5.36981884E-01
  0.00000000E+00  0.00000000E+00  0.00000000E+00  0.00000000E+00  0.00000000E+00
  5.36906942E-01  0.00000000E+00  0.00000000E+00  0.00000000E+00  0.00000000E+00
  0.00000000E+00 -1.03233191E-01  0.00000000E+00  0.00000000E+00  0.00000000E+00
  3.23268675E-01  0.00000000E+00  0.00000000E+00  0.00000000E+00  0.00000000E+00
 -1.03299689E-01  0.00000000E+00  0.00000000E+00  0.00000000E+00  3.23467521E-01
  2.28302308E-02 -1.32725324E-01  3.40307954E-01 -1.95916568E-01  0.00000000E+00
  1.91187403E-01  2.28693023E-02 -1.32965027E-01 -3.40352400E-01  1.96024274E-01
  0.00000000E+00  1.90967778E-01  1.86174300E-02 -5.81129475E-02 -1.42849480E-01
  5.56782090E-02  0.00000000E+00  2.60408880E-01  4.28372553E-01 -1.60396835E-01
  0.00000000E+00  1.86158437E-02 -5.81047206E-02  1.42749340E-01 -5.58407042E-02
  0.00000000E+00  2.60425263E-01 -4.28045393E-01  1.60892751E-01  0.00000000E+00
  1.44994755E-02 -6.17518023E-02 -5.06292031E-02  4.65117229E-02  0.00000000E+00
 -9.40970278E-02 -1.44514533E-02  6.15549709E-02 -5.03430200E-02  4.61694486E-02
  0.00000000E+00  9.41154328E-02  9.11305544E-04 -2.73537333E-03 -1.24353728E-01
 -1.82319157E-01  0.00000000E+00  1.43440463E-02  4.06603077E-01  6.02305797E-01
  0.00000000E+00 -9.17321329E-04  2.75222871E-03 -1.24204800E-01 -1.81488719E-01
  0.00000000E+00 -1.44526806E-02  4.06082740E-01  5.99585736E-01  0.00000000E+00
 -1.46259733E-02  5.31266275E-02  2.03579237E-02 -1.13676119E-01  0.00000000E+00
 -9.60785345E-02 -1.46766600E-02  5.33927975E-02 -2.05905205E-02  1.13903003E-01
  0.00000000E+00 -9.56261926E-02  1.34155763E-03 -3.99114223E-03  8.53488821E-02
  2.01621707E-01  0.00000000E+00  2.12744515E-02 -2.86481501E-01 -6.63283370E-01
  0.00000000E+00  1.33847806E-03 -3.98157078E-03 -8.59142564E-02 -2.02214365E-01
  0.00000000E+00  2.12300710E-02  2.88336053E-01  6.65239514E-01  0.00000000E+00
  0.00000000E+00  0.00000000E+00  0.00000000E+00  0.00000000E+00 -2.97110954E-01
  0.00000000E+00  0.00000000E+00  0.00000000E+00  0.00000000E+00  0.00000000E+00
  2.97324275E-01  0.00000000E+00  0.00000000E+00  0.00000000E+00  0.00000000E+00
  0.00000000E+00 -2.00152295E-01  0.00000000E+00  0.00000000E+00  0.00000000E+00
  6.46403442E-01  0.00000000E+00  0.00000000E+00  0.00000000E+00  0.00000000E+00
  2.00117812E-01  0.00000000E+00  0.00000000E+00  0.00000000E+00 -6.46286798E-01
  0.00000000E+00  0.00000000E+00  0.00000000E+00  0.00000000E+00 -3.52565277E-01
  0.00000000E+00  0.00000000E+00  0.00000000E+00  0.00000000E+00  0.00000000E+00
 -3.52900741E-01  0.00000000E+00  0.00000000E+00  0.00000000E+00  0.00000000E+00
  0.00000000E+00 -2.00008122E-01  0.00000000E+00  0.00000000E+00  0.00000000E+00
  6.62008016E-01  0.00000000E+00  0.00000000E+00  0.00000000E+00  0.00000000E+00
 -1.99957689E-01  0.00000000E+00  0.00000000E+00  0.00000000E+00  6.61845637E-01
  0.00000000E+00  0.00000000E+00  0.00000000E+00  0.00000000E+00  7.56726892E-01
  0.00000000E+00  0.00000000E+00  0.00000000E+00  0.00000000E+00  0.00000000E+00
 -7.56520758E-01  0.00000000E+00  0.00000000E+00  0.00000000E+00  0.00000000E+00
  0.00000000E+00 -1.02757778E-01  0.00000000E+00  0.00000000E+00  0.00000000E+00
  3.53361378E-01  0.00000000E+00  0.00000000E+00  0.00000000E+00  0.00000000E+00
  1.02864864E-01  0.00000000E+00  0.00000000E+00  0.00000000E+00 -3.53739163E-01
  9.48148803E-02 -5.03199607E-01  4.64792614E-01 -1.45343470E-01  0.00000000E+00
 -3.92729583E-02 -9.52852848E-02  5.05778241E-01  4.66156761E-01 -1.47085392E-01
  0.00000000E+00  3.77425128E-02 -2.08810831E-02  6.22226221E-02 -1.68211611E-01
  1.08850808E-01  0.00000000E+00 -3.32865327E-01  6.18204072E-01 -4.00002793E-01
  0.00000000E+00  2.08034580E-02 -6.19872464E-02 -1.67417162E-01  1.08623743E-01
  0.00000000E+00  3.31679719E-01  6.15330628E-01 -3.99186092E-01  0.00000000E+00
 -1.07037753E-01  6.29684035E-01 -2.98908573E-01  4.33278308E-01  0.00000000E+00
 -3.52779874E-01 -1.06232094E-01  6.25202203E-01  2.97736067E-01 -4.32581162E-01
  0.00000000E+00 -3.51108531E-01 -1.85235041E-02  5.42913342E-02 -1.58061490E-01
  7.10568434E-02  0.00000000E+00 -3.06496447E-01  5.89996766E-01 -2.67268455E-01
  0.00000000E+00 -1.86339623E-02  5.46132541E-02  1.58842824E-01 -7.16567951E-02
  0.00000000E+00 -3.08352695E-01 -5.92956889E-01  2.69528731E-01  0.00000000E+00
  1.27813751E-01 -8.05457881E-01 -4.85064582E-01 -1.30196275E-01  0.00000000E+00
  9.09018022E-01 -1.27840602E-01  8.05878839E-01 -4.80258333E-01 -1.30331052E-01
  0.00000000E+00 -9.06550114E-01 -2.22726397E-03  7.35077091E-03 -1.91797742E-02
 -4.93853281E-04  0.00000000E+00 -2.85379493E-02  7.05959703E-02  2.80397297E-03
  0.00000000E+00  2.14210996E-03 -7.10851411E-03 -1.86240735E-02 -8.94862737E-04
  0.00000000E+00  2.70353156E-02  6.84435684E-02  4.36677191E-03  0.00000000E+00
  5.04681460E-02 -3.76780536E-01 -8.54074625E-01 -2.13473620E-01  0.00000000E+00
  8.16147823E-01  5.14799860E-02 -3.84213136E-01  8.56843790E-01  2.11456398E-01
  0.00000000E+00  8.21464584E-01 -8.00087502E-03  2.17719699E-02 -3.97262238E-02
  4.44306424E-02  0.00000000E+00 -1.52858567E-01  1.63132267E-01 -1.78562520E-01
  0.00000000E+00 -8.00911210E-03  2.17981899E-02  3.97232612E-02 -4.45212485E-02
  0.00000000E+00 -1.52985783E-01 -1.63125604E-01  1.78935695E-01  0.00000000E+00
  1.14331908E-01 -8.49071293E-01  4.94186517E-02  1.12475068E+00  0.00000000E+00
 -1.32648088E-01 -1.14229056E-01  8.48170497E-01  5.18957708E-02  1.12516581E+00
  0.00000000E+00  1.34878122E-01  1.84919881E-03 -5.04869063E-03  2.43321500E-02
  1.78136082E-02  0.00000000E+00  3.46421917E-02 -9.65199674E-02 -7.07188826E-02
  0.00000000E+00 -1.88032593E-03  5.13137922E-03  2.45265895E-02  1.76755926E-02
  0.00000000E+00 -3.52673265E-02 -9.73331132E-02 -7.01522967E-02  0.00000000E+00
Orthonormal basis                          R   N=         900
  1.14035282E-01  3.59629612E-01  1.58093766E-02 -1.32710868E-01  0.00000000E+00
  2.06630371E-01  1.14133163E-01  3.59858816E-01 -1.61929296E-02  1.32504549E-01
  0.00000000E+00  2.07179767E-01  9.95588868E-03  2.84065875E-02 -2.36130782E-02
  2.03786543E-02  0.00000000E+00  9.48227456E-02 -9.48248984E-02  8.22526144E-02
  0.00000000E+00  9.96136520E-03  2.84214271E-02  2.35998699E-02 -2.04115005E-02
  0.00000000E+00  9.48562679E-02  9.47648438E-02 -8.23792307E-02  0.00000000E+00
  1.01715355E-01  2.25342826E-01  1.93044962E-01  2.18408318E-01  0.00000000E+00
  3.25296083E-01 -1.01533043E-01 -2.24796894E-01  1.93257145E-01  2.18603578E-01
  0.00000000E+00 -3.25185500E-01 -1.30004248E-02 -2.81964463E-02  3.97124815E-02
  9.73144483E-03  0.00000000E+00 -6.28548763E-02  1.16458040E-01  2.93734361E-02
  0.00000000E+00  1.30822005E-02  2.83728084E-02  3.98460909E-02  9.63256003E-03
  0.00000000E+00  6.32284599E-02  1.16836071E-01  2.90880017E-02  0.00000000E+00
 -4.92913602E-02 -1.12399167E-01  3.44335519E-01 -1.08355349E-01  0.00000000E+00
  7.73139937E-02  4.93759657E-02  1.12596598E-01  3.44272789E-01 -1.07944910E-01
  0.00000000E+00 -7.72351650E-02  6.23735084E-02  1.23514898E-01 -7.36828585E-02
  5.93882499E-02  0.00000000E+00  2.20928703E-01 -1.84538272E-01  1.52098510E-01
  0.00000000E+00 -6.24099650E-02 -1.23584828E-01 -7.36773830E-02  5.94227015E-02
  0.00000000E+00 -2.21005475E-01 -1.84499181E-01  1.52166437E-01  0.00000000E+00
  3.30571356E-02  1.64879878E-02  6.71596257E-02 -3.93490077E-01  0.00000000E+00
 -8.98535371E-02  3.29141661E-02  1.62729529E-02 -6.73119778E-02  3.93661698E-01
  0.00000000E+00 -8.99416336E-02 -1.48967741E-01 -2.15688067E-01  1.04963184E-01
  1.78046476E-02  0.00000000E+00 -2.09477711E-01  1.89524591E-01  3.90895840E-02
  0.00000000E+00 -1.48881164E-01 -2.15561022E-01 -1.04889432E-01 -1.78171555E-02
  0.00000000E+00 -2.09318977E-01 -1.89376356E-01 -3.91216178E-02  0.00000000E+00
 -5.85156163E-03 -1.62750560E-02 -1.90770372E-01 -2.40631203E-01  0.00000000E+00
 -2.31061078E-01 -5.88430945E-03 -1.62628191E-02  1.90571950E-01  2.40585224E-01
  0.00000000E+00 -2.30847175E-01  2.45156569E-01  2.95309270E-01  6.53366595E-02
  7.20723951E-02  0.00000000E+00  1.62366571E-01  1.02825009E-01  1.09959451E-01
  0.00000000E+00  2.44977972E-01  2.95093897E-01 -6.54870066E-02 -7.22345433E-02
  0.00000000E+00  1.62242904E-01 -1.03057941E-01 -1.10208488E-01  0.00000000E+00
 -3.76281282E-02 -4.20488182E-02  7.90285291E-02 -3.60908666E-02  0.00000000E+00
  4.88726333E-03  3.76270465E-02  4.20574881E-02  7.91211931E-02 -3.59734264E-02
  0.00000000E+00 -4.97358474E-03 -3.36958732E-01 -3.80886999E-01 -1.22172240E-01
  8.50732543E-02  0.00000000E+00 -1.56691727E-01 -1.73887234E-01  1.21543760E-01
  0.00000000E+00  3.37116998E-01  3.81066266E-01 -1.22185267E-01  8.51200675E-02
  0.00000000E+00  1.56773038E-01 -1.73902340E-01  1.21607569E-01  0.00000000E+00
  1.10398690E-02  4.16027917E-03  2.60862119E-01 -1.80548775E-03  0.00000000E+00
  1.90426842E-01  1.10532541E-02  4.10762488E-03 -2.60826768E-01  1.89444233E-03
  0.00000000E+00  1.90252912E-01  1.66268824E-01  1.61727550E-01  2.26098003E-01
 -1.98453659E-01  0.00000000E+00  1.82256227E-02  2.69612547E-01 -2.38018508E-01
  0.00000000E+00  1.66272543E-01  1.61732144E-01 -2.25635017E-01  1.98900175E-01
  0.00000000E+00  1.82467018E-02 -2.69037692E-01  2.38557619E-01  0.00000000E+00
 -5.24544448E-02 -4.25997050E-02 -5.42257704E-02 -8.43276185E-03  0.00000000E+00
 -7.42051229E-02  5.22796080E-02  4.24470526E-02 -5.40882028E-02 -8.73594254E-03
  0.00000000E+00  7.41639216E-02  6.32285402E-03  4.90636322E-03  2.48934538E-01
  3.78117924E-01  0.00000000E+00 -9.48743892E-04  2.35489403E-01  3.59880442E-01
  0.00000000E+00 -6.34181022E-03 -4.92204738E-03  2.48844255E-01  3.76728280E-01
  0.00000000E+00  9.32142514E-04  2.35393091E-01  3.58566829E-01  0.00000000E+00
  5.10155643E-02  2.98458817E-02 -8.75882647E-02 -1.89173981E-01  0.00000000E+00
 -1.44970964E-01  5.11085124E-02  2.99508694E-02  8.73730049E-02  1.89169021E-01
  0.00000000E+00 -1.44610648E-01  1.08163755E-02  7.62121186E-03 -2.29267955E-01
 -3.74504881E-01  0.00000000E+00 -5.69589045E-03 -2.00853805E-01 -3.26931994E-01
  0.00000000E+00  1.08107954E-02  7.61724787E-03  2.30119276E-01  3.75387369E-01
  0.00000000E+00 -5.69354917E-03  2.01595901E-01  3.27702285E-01  0.00000000E+00
 -1.43018558E-01 -8.08207873E-02  1.31139218E-01 -6.79099081E-02  0.00000000E+00
  3.59535425E-03  1.43008715E-01  8.08049867E-02  1.31185068E-01 -6.78681683E-02
  0.00000000E+00 -3.62984496E-03 -2.63820483E-01 -1.17809884E-01  3.56139230E-01
 -2.37453989E-01  0.00000000E+00  2.65375845E-01  1.96817608E-01 -1.30612130E-01
  0.00000000E+00  2.63969476E-01  1.17877195E-01  3.56170749E-01 -2.37739511E-01
  0.00000000E+00 -2.65510623E-01  1.96841996E-01 -1.30773587E-01  0.00000000E+00
  8.09972668E-02  5.80249118E-02 -2.18758966E-01  9.31890200E-02  0.00000000E+00
 -8.88674353E-02  8.11507639E-02  5.81110901E-02  2.18849127E-01 -9.32477142E-02
  0.00000000E+00 -8.87498464E-02 -3.33581786E-01 -1.06148878E-01  2.85384564E-01
 -1.46987295E-01  0.00000000E+00  3.79040253E-01  1.14231420E-01 -6.00871072E-02
  0.00000000E+00 -3.33506444E-01 -1.06126385E-01 -2.85100752E-01  1.47170188E-01
  0.00000000E+00  3.78925984E-01 -1.14133573E-01  6.01647381E-02  0.00000000E+00
  6.39464559E-01  2.45757865E-02 -1.94133721E-02 -8.71251950E-02  0.00000000E+00
 -1.14205196E-01 -6.39230076E-01 -2.45765651E-02 -1.94911170E-02 -8.73185724E-02
  0.00000000E+00  1.14133399E-01 -1.62238729E-01 -1.05511249E-03  9.36891951E-03
  6.34300061E-02  0.00000000E+00  2.19732201E-01  2.32228437E-03 -3.65507838E-03
  0.00000000E+00  1.62240048E-01  1.05545864E-03  9.33112830E-03  6.33880841E-02
  0.00000000E+00 -2.19726618E-01  2.32723806E-03 -3.65721374E-03  0.00000000E+00
  6.63762748E-01 -4.65337954E-02 -3.63560803E-02  1.42431506E-01  0.00000000E+00
 -1.15482098E-01  6.63954470E-01 -4.65233923E-02  3.65046265E-02 -1.42430043E-01
  0.00000000E+00 -1.15412330E-01  1.15668856E-01 -1.17937388E-02  8.37385175E-02
  3.48638659E-02  0.00000000E+00 -1.66566248E-01 -1.22812801E-02 -6.90791130E-03
  0.00000000E+00  1.15509416E-01 -1.17781307E-02 -8.37118854E-02 -3.48784949E-02
  0.00000000E+00 -1.66347084E-01  1.22765317E-02  6.91005128E-03  0.00000000E+00
  1.88041637E-01 -7.26518383E-02  1.45513789E-01 -1.18181718E-01  0.00000000E+00
 -5.62905845E-02 -1.88456368E-01  7.28567530E-02  1.45761740E-01 -1.18260409E-01
  0.00000000E+00  5.62406783E-02  2.71203769E-01 -1.10191948E-01  4.22300786E-01
 -2.36794438E-01  0.00000000E+00 -3.48507620E-01 -2.27497496E-01  1.27552614E-01
  0.00000000E+00 -2.70954149E-01  1.10091640E-01  4.21720424E-01 -2.36764372E-01
  0.00000000E+00  3.48206836E-01 -2.27175000E-01  1.27531583E-01  0.00000000E+00
  1.77542503E-01 -1.06271962E-01  1.87886259E-01 -6.98380252E-02  0.00000000E+00
  1.59534035E-02  1.77348590E-01 -1.06205358E-01 -1.87793181E-01  6.97389901E-02
  0.00000000E+00  1.59706933E-02 -2.21527947E-01  1.05839093E-01 -4.56158966E-01
  2.60498431E-01  0.00000000E+00  2.74645280E-01  2.86044694E-01 -1.62850170E-01
  0.00000000E+00 -2.21811700E-01  1.05975770E-01  4.56480597E-01 -2.61122242E-01
  0.00000000E+00  2.75017096E-01 -2.86235500E-01  1.63236937E-01  0.00000000E+00
  4.07713912E-02 -3.54359254E-02 -2.21773017E-02  2.27850866E-02  0.00000000E+00
 -9.07541261E-02 -4.07617650E-02  3.54138256E-02 -2.21351976E-02  2.26951349E-02
  0.00000000E+00  9.06245379E-02 -2.83427279E-03  2.23442260E-03 -2.87860901E-01
 -4.92931104E-01  0.00000000E+00  2.87102395E-03  2.94225319E-01  5.04750687E-01
  0.00000000E+00  2.82682654E-03 -2.22935439E-03 -2.87883136E-01 -4.92154099E-01
  0.00000000E+00 -2.87675887E-03  2.94243711E-01  5.03957741E-01  0.00000000E+00
 -5.61522302E-02  4.64646915E-02  4.23369709E-03 -8.68103954E-02  0.00000000E+00
 -5.23457151E-02 -5.61652059E-02  4.64928795E-02 -4.23158600E-03  8.69339875E-02
  0.00000000E+00 -5.20955583E-02 -3.18371292E-03  2.68801695E-03  2.73024712E-01
  4.94671709E-01  0.00000000E+00  5.24002422E-03 -2.85889112E-01 -5.15003147E-01
  0.00000000E+00 -3.18267338E-03  2.68738197E-03 -2.73630371E-01 -4.95062742E-01
  0.00000000E+00  5.24244074E-03  2.86520860E-01  5.15408972E-01  0.00000000E+00
 -3.48739480E-02  5.17567480E-02 -1.12658817E-01  8.17885395E-02  0.00000000E+00
  3.99654181E-02  3.50038083E-02 -5.19641979E-02 -1.12876581E-01  8.19047588E-02
  0.00000000E+00 -3.98857071E-02 -5.11203962E-01  5.97872745E-01  1.64174928E-01
 -9.60991525E-02  0.00000000E+00 -2.09356460E-01 -2.58989172E-01  1.51453119E-01
  0.00000000E+00  5.10490518E-01 -5.97039176E-01  1.63864689E-01 -9.60587964E-02
  0.00000000E+00  2.09050649E-01 -2.58506803E-01  1.51392328E-01  0.00000000E+00
  3.67301207E-02 -7.09515169E-02  1.15546030E-01 -4.69862206E-02  0.00000000E+00
  3.49143035E-04  3.67037172E-02 -7.09047584E-02 -1.15455645E-01  4.69245263E-02
  0.00000000E+00  3.91319166E-04 -5.23213259E-01  6.21725406E-01  1.26047705E-01
 -7.05992435E-02  0.00000000E+00 -2.48052941E-01 -2.03127718E-01  1.14127080E-01
  0.00000000E+00 -5.23979329E-01  6.22636479E-01 -1.26167954E-01  7.07872832E-02
  0.00000000E+00 -2.48403570E-01  2.03327876E-01 -1.14432820E-01  0.00000000E+00
  5.90464513E-02 -1.18062830E-01  5.43550163E-01 -2.57230402E-01  0.00000000E+00
 -2.93907535E-01 -5.98408402E-02  1.20254174E-01  5.44440599E-01 -2.58471034E-01
  0.00000000E+00  2.92719353E-01 -1.34484815E-01  2.38920783E-01 -1.93077577E-01
  1.21345253E-01  0.00000000E+00 -5.01891342E-01  4.82400215E-01 -3.02052592E-01
  0.00000000E+00  1.34060190E-01 -2.38161648E-01 -1.92312480E-01  1.21143007E-01
  0.00000000E+00  5.00377172E-01  4.80527080E-01 -3.01560652E-01  0.00000000E+00
  1.33305719E-01 -4.39668782E-01  6.22151529E-01 -2.65456391E-01  0.00000000E+00
 -6.01732459E-02  1.33430668E-01 -4.40064036E-01 -6.18958766E-01  2.67487771E-01
  0.00000000E+00 -5.59841320E-02  9.31845159E-02 -1.82354088E-01  1.81184809E-01
 -1.01267858E-01  0.00000000E+00  5.04197658E-01 -5.13215701E-01  2.88628230E-01
  0.00000000E+00  9.34038926E-02 -1.82777104E-01 -1.81462553E-01  1.01755861E-01
  0.00000000E+00  5.05474076E-01  5.14045170E-01 -2.90023096E-01  0.00000000E+00
 -6.23225418E-02  1.77161437E-01  3.33498919E-01  8.26586056E-01  0.00000000E+00
 -7.77717527E-01  6.04215583E-02 -1.70108913E-01  3.30889762E-01  8.22426183E-01
  0.00000000E+00  7.70951783E-01  2.12053029E-02 -4.39096840E-02  5.89033728E-02
  2.43992471E-03  0.00000000E+00  1.26516075E-01 -1.73737501E-01 -7.10098575E-03
  0.00000000E+00 -2.15792366E-02  4.46820029E-02  5.99031537E-02  2.17059368E-03
  0.00000000E+00 -1.28773588E-01 -1.76677269E-01 -6.30047858E-03  0.00000000E+00
  1.45595889E-01 -6.68326912E-01 -6.21512068E-01 -3.51991571E-01  0.00000000E+00
  8.82141107E-01  1.45228041E-01 -6.66637431E-01  6.25725216E-01  3.61076591E-01
  0.00000000E+00  8.89507486E-01  2.95965014E-03 -7.83994894E-03  2.34200745E-02
  1.36735006E-02  0.00000000E+00  7.72226051E-03 -6.92192688E-02 -4.75187655E-02
  0.00000000E+00  2.98104015E-03 -7.88593565E-03 -2.33561771E-02 -1.33780209E-02
  0.00000000E+00  7.91079982E-03  6.90206284E-02  4.65614867E-02  0.00000000E+00
  2.43187831E-01 -1.31296763E+00 -8.42735254E-02  7.12307268E-01  0.00000000E+00
  3.60015952E-01 -2.43537038E-01  1.31506651E+00 -8.64644092E-02  7.11313325E-01
  0.00000000E+00 -3.63052397E-01 -1.15081023E-02  2.89422786E-02 -2.82233572E-02
  3.38681789E-02  0.00000000E+00 -1.18347104E-01  1.03348633E-01 -1.25394696E-01
  0.00000000E+00  1.15183887E-02 -2.89632039E-02 -2.81917541E-02  3.39571913E-02
  0.00000000E+00  1.18508033E-01  1.03252709E-01 -1.25734877E-01  0.00000000E+00
  0.00000000E+00  0.00000000E+00  0.00000000E+00  0.00000000E+00  4.14756265E-01
  0.00000000E+00  0.00000000E+00  0.00000000E+00  0.00000000E+00  0.00000000E+00
  4.14619801E-01  0.00000000E+00  0.00000000E+00  0.00000000E+00  0.00000000E+00
  0.00000000E+00  2.66296324E-01  0.00000000E+00  0.00000000E+00  0.00000000E+00
  3.55920109E-01  0.00000000E+00  0.00000000E+00  0.00000000E+00  0.00000000E+00
  2.66573767E-01  0.00000000E+00  0.00000000E+00  0.00000000E+00  3.56286692E-01
  0.00000000E+00  0.00000000E+00  0.00000000E+00  0.00000000E+00 -1.00461993E-01
  0.00000000E+00  0.00000000E+00  0.00000000E+00  0.00000000E+00  0.00000000E+00
  1.00608088E-01  0.00000000E+00  0.00000000E+00  0.00000000E+00  0.00000000E+00
  0.00000000E+00  4.28202522E-01  0.00000000E+00  0.00000000E+00  0.00000000E+00
  4.47756489E-01  0.00000000E+00  0.00000000E+00  0.00000000E+00  0.00000000E+00
 -4.27833814E-01  0.00000000E+00  0.00000000E+00  0.00000000E+00 -4.47369752E-01
  0.00000000E+00  0.00000000E+00  0.00000000E+00  0.00000000E+00  4.65228717E-01
  0.00000000E+00  0.00000000E+00  0.00000000E+00  0.00000000E+00  0.00000000E+00
  4.65345085E-01  0.00000000E+00  0.00000000E+00  0.00000000E+00  0.00000000E+00
  0.00000000E+00 -3.94979316E-01  0.00000000E+00  0.00000000E+00  0.00000000E+00
 -2.46155360E-01  0.00000000E+00  0.00000000E+00  0.00000000E+00  0.00000000E+00
 -3.95204759E-01  0.00000000E+00  0.00000000E+00  0.00000000E+00 -2.46299987E-01
  0.00000000E+00  0.00000000E+00  0.00000000E+00  0.00000000E+00 -5.68016658E-01
  0.00000000E+00  0.00000000E+00  0.00000000E+00  0.00000000E+00  0.00000000E+00
  5.68145272E-01  0.00000000E+00  0.00000000E+00  0.00000000E+00  0.00000000E+00
  0.00000000E+00 -4.44240511E-01  0.00000000E+00  0.00000000E+00  0.00000000E+00
  2.97278422E-01  0.00000000E+00  0.00000000E+00  0.00000000E+00  0.00000000E+00
  4.44534164E-01  0.00000000E+00  0.00000000E+00  0.00000000E+00 -2.97470305E-01
  0.00000000E+00  0.00000000E+00  0.00000000E+00  0.00000000E+00 -1.55622332E-01
  0.00000000E+00  0.00000000E+00  0.00000000E+00  0.00000000E+00  0.00000000E+00
 -1.56011107E-01  0.00000000E+00  0.00000000E+00  0.00000000E+00  0.00000000E+00
  0.00000000E+00 -5.56038549E-01  0.00000000E+00  0.00000000E+00  0.00000000E+00
  5.97587355E-01  0.00000000E+00  0.00000000E+00  0.00000000E+00  0.00000000E+00
 -5.55359455E-01  0.00000000E+00  0.00000000E+00  0.00000000E+00  5.96857990E-01
  0.00000000E+00  0.00000000E+00  0.00000000E+00  0.00000000E+00  5.72856156E-01
  0.00000000E+00  0.00000000E+00  0.00000000E+00  0.00000000E+00  0.00000000E+00
 -5.72576145E-01  0.00000000E+00  0.00000000E+00  0.00000000E+00  0.00000000E+00
  0.00000000E+00 -3.93630576E-01  0.00000000E+00  0.00000000E+00  0.00000000E+00
  5.04986646E-01  0.00000000E+00  0.00000000E+00  0.00000000E+00  0.00000000E+00
  3.94245765E-01  0.00000000E+00  0.00000000E+00  0.00000000E+00 -5.05779143E-01
Total SCF Density                          R   N=         465
  2.07529666E+00 -2.46971566E-01  9.71921105E-01  1.49315562E-02 -1.09108370E-01
  6.92483511E-01 -1.09866229E-02  9.08793737E-02 -3.44788307E-02  6.37289259E-01
  0.00000000E+00  0.00000000E+00  0.00000000E+00  0.00000000E+00  7.53281353E-01
 -1.09634366E-01  2.67052042E-01  4.76321339E-01  2.67111197E-01  0.00000000E+00
  5.91356564E-01  2.51046100E-02 -5.87367195E-02 -3.48829057E-03  1.15431860E-01
  0.00000000E+00  3.14398487E-02  2.07529910E+00 -5.87491314E-02  4.99511578E-02
  6.96928285E-03 -2.81574660E-01  0.00000000E+00 -1.23506952E-01 -2.46920694E-01
  9.71693140E-01  3.47242104E-03 -6.95109178E-03  2.11460338E-02 -7.50134100E-03
  0.00000000E+00 -7.21057778E-02 -1.49186091E-02  1.09288627E-01  6.92584409E-01
 -1.15463877E-01  2.81647575E-01 -7.53294124E-03 -4.63979350E-01 -4.92961366E-33
 -1.13746512E-01  1.09984180E-02 -9.08261282E-02 -3.45140466E-02  6.37353787E-01
  0.00000000E+00  0.00000000E+00  0.00000000E+00  0.00000000E+00  3.99937774E-01
  0.00000000E+00  0.00000000E+00  0.00000000E+00  0.00000000E+00  0.00000000E+00
  7.53373961E-01  3.14431973E-02 -1.23441962E-01  7.20815394E-02  1.13712276E-01
  0.00000000E+00  1.26344718E-01 -1.09717464E-01  2.66946208E-01 -4.76120273E-01
 -2.67129938E-01  0.00000000E+00  5.91009631E-01  9.26793329E-04 -2.25157694E-03
 -5.20857410E-03  2.74201424E-03  0.00000000E+00 -8.30368817E-04 -1.76989148E-03
  4.51131798E-04  1.02385372E-02 -5.65324803E-03  0.00000000E+00 -3.67901722E-03
  2.26521736E+00 -3.39762208E-03  8.46666258E-03  1.66113768E-02 -1.00810414E-02
  0.00000000E+00  3.78354162E-03  6.72510214E-03 -2.09406700E-03 -3.57855443E-02
  2.02058977E-02  0.00000000E+00  1.33900197E-02 -7.97313993E-01  2.40065584E+00
  1.50334853E-03  4.96832113E-03 -1.08785471E-02  1.67109252E-02  0.00000000E+00
 -2.22869603E-02 -3.79836776E-02  1.55298607E-01  1.71402996E-01 -1.16584756E-01
  0.00000000E+00 -6.86251413E-02 -9.60606591E-03  2.86202135E-02  2.04915922E+00
 -1.32103203E-02  5.88150206E-02  1.18726432E-02 -4.41189994E-02 -1.05812191E-34
  9.30575446E-03  2.13551334E-02 -8.93889087E-02 -1.09994393E-01  4.22597989E-02
  2.93091908E-33 -2.39791476E-02  5.42185008E-03 -1.61042864E-02  5.17513742E-02
  2.11117480E+00  0.00000000E+00  0.00000000E+00  0.00000000E+00  0.00000000E+00
  8.58450480E-03  0.00000000E+00  0.00000000E+00  0.00000000E+00  0.00000000E+00
  0.00000000E+00 -2.37784405E-01  0.00000000E+00  0.00000000E+00  0.00000000E+00
  0.00000000E+00  0.00000000E+00  2.04238183E+00  7.28285544E-03 -6.35190722E-03
 -6.39899017E-02  2.46421437E-02  0.00000000E+00 -1.07374339E-02  1.64526154E-02
 -1.78498950E-01 -3.89412667E-02  2.95808339E-02  0.00000000E+00 -3.13739694E-02
  1.53879695E-01 -5.48059497E-01 -1.34850689E-01  7.62738717E-02  0.00000000E+00
  2.11076369E+00 -1.91176903E-03 -2.81167666E-02  3.68757942E-02 -4.81349066E-02
  0.00000000E+00  6.99118254E-02  9.87994827E-02 -3.58455025E-01 -4.60669574E-01
  2.94935611E-01  0.00000000E+00  2.25539826E-01  3.06087206E-02 -9.18902101E-02
 -2.30530698E-01 -1.79451124E-01  0.00000000E+00  3.88325620E-01  1.06911088E+00
  4.57206753E-02 -1.88234400E-01 -4.76381964E-02  1.52475312E-01  4.54834996E-34
 -3.48481936E-02 -5.50389204E-02  2.05363464E-01  2.75720125E-01 -1.33934401E-01
 -9.01136414E-33  9.09692848E-02 -1.72425627E-02  5.15905329E-02 -1.79653951E-01
 -4.45581937E-01  2.72818541E-33 -2.18613304E-01  6.02835730E-01  1.79187397E+00
  0.00000000E+00  0.00000000E+00  0.00000000E+00  0.00000000E+00 -3.69005988E-02
  0.00000000E+00  0.00000000E+00  0.00000000E+00  0.00000000E+00  0.00000000E+00
  7.31088714E-01  0.00000000E+00  0.00000000E+00  0.00000000E+00  0.00000000E+00
  0.00000000E+00 -2.21336695E-01  0.00000000E+00  0.00000000E+00  0.00000000E+00
  1.05027040E+00 -1.77280572E-03  4.53927403E-04 -1.02481035E-02  5.66155364E-03
  0.00000000E+00 -3.68542883E-03  9.26239696E-04 -2.24692849E-03  5.20806460E-03
 -2.74306202E-03  0.00000000E+00 -8.28911563E-04  4.44326872E-05 -1.86910525E-04
  6.21357805E-04 -9.87412807E-04  0.00000000E+00 -9.10978760E-05 -1.67805669E-03
  3.05827303E-03  0.00000000E+00  2.26521674E+00  6.73687113E-03 -2.10659116E-03
  3.58204436E-02 -2.02365731E-02  0.00000000E+00  1.34108811E-02 -3.39648034E-03
  8.45305512E-03 -1.66089140E-02  1.00866592E-02  0.00000000E+00  3.77899109E-03
 -1.86937782E-04  7.44474922E-04 -2.19191456E-03  3.27142987E-03  0.00000000E+00
 -2.59825009E-04  6.04551840E-03 -1.02531255E-02  0.00000000E+00 -7.97312339E-01
  2.40065159E+00  3.79846664E-02 -1.55264715E-01  1.71304621E-01 -1.16616485E-01
  0.00000000E+00  6.86994002E-02 -1.49897772E-03 -5.01286581E-03 -1.08812774E-02
  1.66876294E-02  0.00000000E+00  2.22610549E-02 -6.20999877E-04  2.19059728E-03
 -5.09666733E-03  9.20967134E-03  0.00000000E+00 -5.46619987E-03  1.54918880E-02
 -3.05660451E-02  0.00000000E+00  9.60522070E-03 -2.86143987E-02  2.04923069E+00
 -2.13814478E-02  8.95149987E-02 -1.10097409E-01  4.23267864E-02  2.93075472E-33
  2.39779101E-02  1.32143705E-02 -5.88205811E-02  1.18823448E-02 -4.41703994E-02
 -1.05937183E-34 -9.29722373E-03  9.87290504E-04 -3.27118619E-03  9.21786541E-03
 -9.56019291E-03  7.24844885E-34  1.11297456E-02 -3.02864808E-02  3.24294775E-02
 -2.36618738E-33 -5.42907992E-03  1.61240541E-02  5.17805305E-02  2.11111321E+00
  0.00000000E+00  0.00000000E+00  0.00000000E+00  0.00000000E+00 -2.37771071E-01
  0.00000000E+00  0.00000000E+00  0.00000000E+00  0.00000000E+00  0.00000000E+00
  8.59464535E-03  0.00000000E+00  0.00000000E+00  0.00000000E+00  0.00000000E+00
  0.00000000E+00 -5.88064034E-02  0.00000000E+00  0.00000000E+00  0.00000000E+00
  1.91967926E-01  0.00000000E+00  0.00000000E+00  0.00000000E+00  0.00000000E+00
  2.04238072E+00  1.64527207E-02 -1.78646592E-01  3.88889188E-02 -2.96270682E-02
  0.00000000E+00 -3.14442354E-02  7.26511340E-03 -6.26269788E-03  6.39723729E-02
 -2.46306186E-02  0.00000000E+00 -1.07222493E-02 -9.14523426E-05 -2.58194416E-04
  5.46837917E-03 -1.11332903E-02  0.00000000E+00 -1.04004708E-02 -1.25364459E-02
  3.21329529E-02  0.00000000E+00  1.53871131E-01 -5.48032280E-01  1.34867794E-01
 -7.63926874E-02  0.00000000E+00  2.11075068E+00 -9.87947404E-02  3.58271753E-01
 -4.60385635E-01  2.94939602E-01  0.00000000E+00 -2.25811490E-01  1.88895203E-03
  2.82784235E-02  3.68779552E-02 -4.80399747E-02  0.00000000E+00 -6.98321317E-02
  1.67694527E-03 -6.04130623E-03  1.54911166E-02 -3.02609792E-02  0.00000000E+00
  1.25307145E-02 -4.61904253E-02  9.90851272E-02  0.00000000E+00 -3.06068501E-02
  9.18761877E-02 -2.30757653E-01 -1.79565465E-01  0.00000000E+00 -3.88334982E-01
  1.06986058E+00  5.51002876E-02 -2.05615450E-01  2.75964727E-01 -1.34074705E-01
 -9.01033613E-33 -9.10019447E-02 -4.57285601E-02  1.88224639E-01 -4.76565358E-02
  1.52637954E-01  4.55343880E-34  3.48124278E-02 -3.05738312E-03  1.02505465E-02
 -3.05917803E-02  3.24295760E-02 -2.36618529E-33 -3.21166865E-02  9.91649793E-02
 -1.08570087E-01  7.72079951E-33  1.72663686E-02 -5.16575411E-02 -1.79767372E-01
 -4.45361397E-01  2.72807210E-33  2.18941316E-01  6.03232722E-01  1.79112727E+00
  0.00000000E+00  0.00000000E+00  0.00000000E+00  0.00000000E+00  7.31005312E-01
  0.00000000E+00  0.00000000E+00  0.00000000E+00  0.00000000E+00  0.00000000E+00
 -3.69418844E-02  0.00000000E+00  0.00000000E+00  0.00000000E+00  0.00000000E+00
  0.00000000E+00  1.91967757E-01  0.00000000E+00  0.00000000E+00  0.00000000E+00
 -6.26385673E-01  0.00000000E+00  0.00000000E+00  0.00000000E+00  0.00000000E+00
 -2.21327503E-01  0.00000000E+00  0.00000000E+00  0.00000000E+00  1.05022625E+00
Mulliken Charges                           R   N=           6
 -1.51185645E-01  7.43620398E-02 -1.51363764E-01  7.45283492E-02  7.68475166E-02
  7.68115029E-02
ONIOM Charges                              I   N=          16
           0           0           0           0           0           0
           0           0           0           0           0           0
           0           0           0           0
ONIOM Multiplicities                       I   N=          16
           1           0           0           0           0           0
           0           0           0           0           0           0
           0           0           0           0
Atom Layers                                I   N=           6
           1           1           1           1           1           1
Atom Modifiers                             I   N=           6
           0           0           0           0           0           0
Int Atom Modified Types                    I   N=           6
           0           0           0           0           0           0
Force Field                                I                0
Atom Modified Types                        C   N=           6
                                                            
            
Link Atoms                                 I   N=           6
           0           0           0           0           0           0
Atom Modified MM Charges                   R   N=           6
  0.00000000E+00  0.00000000E+00  0.00000000E+00  0.00000000E+00  0.00000000E+00
  0.00000000E+00
Link Distances                             R   N=          24
  0.00000000E+00  0.00000000E+00  0.00000000E+00  0.00000000E+00  0.00000000E+00
  0.00000000E+00  0.00000000E+00  0.00000000E+00  0.00000000E+00  0.00000000E+00
  0.00000000E+00  0.00000000E+00  0.00000000E+00  0.00000000E+00  0.00000000E+00
  0.00000000E+00  0.00000000E+00  0.00000000E+00  0.00000000E+00  0.00000000E+00
  0.00000000E+00  0.00000000E+00  0.00000000E+00  0.00000000E+00
Cartesian Gradient                         R   N=          18
 -0.00000000E+00  0.00000000E+00  0.00000000E+00 -0.00000000E+00  0.00000000E+00
  0.00000000E+00 -0.00000000E+00  0.00000000E+00  0.00000000E+00 -0.00000000E+00
  0.00000000E+00  0.00000000E+00 -0.00000000E+00  0.00000000E+00  0.00000000E+00
 -0.00000000E+00  0.00000000E+00  0.00000000E+00
Nonadiabatic coupling                      R   N=          18
 -0.00000000E+00  0.00000000E+00  0.00000000E+00 -0.00000000E+00  0.00000000E+00
  0.00000000E+00 -0.00000000E+00  0.00000000E+00  0.00000000E+00 -0.00000000E+00
  0.00000000E+00  0.00000000E+00 -0.00000000E+00  0.00000000E+00  0.00000000E+00
 -0.00000000E+00  0.00000000E+00  0.00000000E+00
Dipole Moment                              R   N=           3
  1.10338115E-04 -3.34155170E-04  2.92049220E-33
Quadrupole Moment                          R   N=           6
 -6.94391990E-01 -1.15973849E+00  1.85413048E+00  1.51547743E+00  1.23259516E-32
  0.00000000E+00
QEq coupling tensors                       R   N=          36
  6.30660687E-03 -3.49376167E-02 -4.97856525E-02  0.00000000E+00  0.00000000E+00
  4.34790456E-02 -2.17133369E-01 -2.32722734E-01  3.87912246E-02  6.16297582E-33
  6.16297582E-33  1.78342144E-01  6.23440871E-03 -3.51065707E-02 -4.97770649E-02
  1.15555797E-33  0.00000000E+00  4.35426562E-02 -2.18564677E-01 -2.34202568E-01
  3.90806738E-02 -3.08148791E-33  0.00000000E+00  1.79484003E-01 -1.04185884E+00
  2.97448811E+00  2.51961441E+00 -2.46519033E-32  0.00000000E+00 -1.47775558E+00
 -1.03792086E+00  2.97615609E+00  2.51590020E+00  0.00000000E+00  0.00000000E+00
 -1.47797934E+00
ClPar MaxAn                                I              200
ClPar NIntPar                              I                4
ClPar NRealPar                             I               16
ClPar NBits                                I               30
ClPar LenBitVec                            I                1
ClPar Read BitMap                          I   N=         200
           0           0           0           0           0           0
           0           0           0           0           0           0
           0           0           0           0           0           0
           0           0           0           0           0           0
           0           0           0           0           0           0
           0           0           0           0           0           0
           0           0           0           0           0           0
           0           0           0           0           0           0
           0           0           0           0           0           0
           0           0           0           0           0           0
           0           0           0           0           0           0
           0           0           0           0           0           0
           0           0           0           0           0           0
           0           0           0           0           0           0
           0           0           0           0           0           0
           0           0           0           0           0           0
           0           0           0           0           0           0
           0           0           0           0           0           0
           0           0           0           0           0           0
           0           0           0           0           0           0
           0           0           0           0           0           0
           0           0           0           0           0           0
           0           0           0           0           0           0
           0           0           0           0           0           0
           0           0           0           0           0           0
           0           0           0           0           0           0
           0           0           0           0           0           0
           0           0           0           0           0           0
           0           0           0           0           0           0
           0           0           0           0           0           0
           0           0           0           0           0           0
           0           0           0           0           0           0
           0           0           0           0           0           0
           0           0
ClPar Default BitMap                       I   N=         200
        2016        2016        2016        2016        2016        2016
        2016        2016        2016        2016        2016        2016
        2016        2016        2016        2016        2016        2016
        2016        2016        2016        2016        2016        2016
        2016        2016        2016        2016        2016        2016
        2016        2016        2016        2016        2016        2016
        2016        2016        2016        2016        2016        2016
        2016        2016        2016        2016        2016        2016
        2016        2016        2016        2016        2016        2016
        2016        2016        2016        2016        2016        2016
        2016        2016        2016        2016        2016        2016
        2016        2016        2016        2016        2016        2016
        2016        2016        2016        2016        2016        2016
        2016        2016        2016        2016        2016        2016
        2016        2016         480         480         480         480
         480         480         480         480         480         480
         480         480         480         480         480         480
         480         480         480         480         480         480
         480         480         480         480         480         480
         480         480         480         480         480         480
         480         480         480         480         480         480
         480         480         480         480         480         480
         480         480         480         480         480         480
         480         480         480         480         480         480
         480         480         480         480         480         480
         480         480         480         480         480         480
         480         480         480         480         480         480
         480         480         480         480         480         480
         480         480         480         480         480         480
         480         480         480         480         480         480
         480         480         480         480         480         480
         480         480         480         480         480         480
         480         480         480         480         480         480
         480         480
ClPar Int Params                           I   N=         800
           0           0           0           0           0           0
           0           0           0           0           0           0
           0           0           0           0           0           0
           0           0           0           0           0           0
           0           0           0           0           0           0
           0           0           0           0           0           0
           0           0           0           0           0           0
           0           0           0           0           0           0
           0           0           0           0           0           0
           0           0           0           0           0           0
           0           0           0           0           0           0
           0           0           0           0           0           0
           0           0           0           0           0           0
           0           0           0           0           0           0
           0           0           0           0           0           0
           0           0           0           0           0           0
           0           0           0           0           0           0
           0           0           0           0           0           0
           0           0           0           0           0           0
           0           0           0           0           0           0
           0           0           0           0           0           0
           0           0           0           0           0           0
           0           0           0           0           0           0
           0           0           0           0           0           0
           0           0           0           0           0           0
           0           0           0           0           0           0
           0           0           0           0           0           0
           0           0           0           0           0           0
           0           0           0           0           0           0
           0           0           0           0           0           0
           0           0           0           0           0           0
           0           0           0           0           0           0
           0           0           0           0           0           0
           0           0           0           0           0           0
           0           0           0           0           0           0
           0           0           0           0           0           0
           0           0           0           0           0           0
           0           0           0           0           0           0
           0           0           0           0           0           0
           0           0           0           0           0           0
           0           0           0           0           0           0
           0           0           0           0           0           0
           0           0           0           0           0           0
           0           0           0           0           0           0
           0           0           0           0           0           0
           0           0           0           0           0           0
           0           0           0           0           0           0
           0           0           0           0           0           0
           0           0           0           0           0           0
           0           0           0           0           0           0
           0           0           0           0           0           0
           0           0           0           0           0           0
           0           0           0           0           0           0
           0           0           0           0           0           0
           0           0           0           0           0           0
           0           0           0           0           0           0
           0           0           0           0           0           0
           0           0           0           0           0           0
           0           0           0           0           0           0
           0           0           0           0           0           0
           0           0           0           0           0           0
           0           0           0           0           0           0
           0           0           0           0           0           0
           0           0           0           0           0           0
           0           0           0           0           0           0
           0           0           0           0           0           0
           0           0           0           0           0           0
           0           0           0           0           0           0
           0           0           0           0           0           0
           0           0           0           0           0           0
           0           0           0           0           0           0
           0           0           0           0           0           0
           0           0           0           0           0           0
           0           0           0           0           0           0
           0           0           0           0           0           0
           0           0           0           0           0           0
           0           0           0           0           0           0
           0           0           0           0           0           0
           0           0           0           0           0           0
           0           0           0           0           0           0
           0           0           0           0           0           0
           0           0           0           0           0           0
           0           0           0           0           0           0
           0           0           0           0           0           0
           0           0           0           0           0           0
           0           0           0           0           0           0
           0           0           0           0           0           0
           0           0           0           0           0           0
           0           0           0           0           0           0
           0           0           0           0           0           0
           0           0           0           0           0           0
           0           0           0           0           0           0
           0           0           0           0           0           0
           0           0           0           0           0           0
           0           0           0           0           0           0
           0           0           0           0           0           0
           0           0           0           0           0           0
           0           0           0           0           0           0
           0           0           0           0           0           0
           0           0           0           0           0           0
           0           0           0           0           0           0
           0           0           0           0           0           0
           0           0           0           0           0           0
           0           0           0           0           0           0
           0           0           0           0           0           0
           0           0           0           0           0           0
           0           0           0           0           0           0
           0           0           0           0           0           0
           0           0           0           0           0           0
           0           0           0           0           0           0
           0           0           0           0           0           0
           0           0           0           0           0           0
           0           0           0           0           0           0
           0           0           0           0           0           0
           0           0           0           0           0           0
           0           0           0           0           0           0
           0           0           0           0           0           0
           0           0           0           0           0           0
           0           0           0           0           0           0
           0           0           0           0           0           0
           0           0           0           0           0           0
           0           0           0           0           0           0
           0           0           0           0           0           0
           0           0           0           0           0           0
           0           0           0           0           0           0
           0           0           0           0           0           0
           0           0           0           0           0           0
           0           0           0           0           0           0
           0           0           0           0           0           0
           0           0           0           0           0           0
           0           0           0           0           0           0
           0           0           0           0           0           0
           0           0           0           0           0           0
           0           0
ClPar Real Params                          R   N=        3200
  0.00000000E+00  0.00000000E+00  0.00000000E+00  0.00000000E+00  0.00000000E+00
  0.00000000E+00  0.00000000E+00  0.00000000E+00  0.00000000E+00  0.00000000E+00
  0.00000000E+00  0.00000000E+00  0.00000000E+00  0.00000000E+00  0.00000000E+00
  0.00000000E+00  0.00000000E+00  0.00000000E+00  0.00000000E+00  0.00000000E+00
  0.00000000E+00  0.00000000E+00  0.00000000E+00  0.00000000E+00  0.00000000E+00
  0.00000000E+00  0.00000000E+00  0.00000000E+00  0.00000000E+00  0.00000000E+00
  0.00000000E+00  0.00000000E+00  0.00000000E+00  0.00000000E+00  0.00000000E+00
  0.00000000E+00  0.00000000E+00  0.00000000E+00  0.00000000E+00  0.00000000E+00
  0.00000000E+00  0.00000000E+00  0.00000000E+00  0.00000000E+00  0.00000000E+00
  0.00000000E+00  0.00000000E+00  0.00000000E+00  0.00000000E+00  0.00000000E+00
  0.00000000E+00  0.00000000E+00  0.00000000E+00  0.00000000E+00  0.00000000E+00
  0.00000000E+00  0.00000000E+00  0.00000000E+00  0.00000000E+00  0.00000000E+00
  0.00000000E+00  0.00000000E+00  0.00000000E+00  0.00000000E+00  0.00000000E+00
  0.00000000E+00  0.00000000E+00  0.00000000E+00  0.00000000E+00  0.00000000E+00
  0.00000000E+00  0.00000000E+00  0.00000000E+00  0.00000000E+00  0.00000000E+00
  0.00000000E+00  0.00000000E+00  0.00000000E+00  0.00000000E+00  0.00000000E+00
  0.00000000E+00  0.00000000E+00  0.00000000E+00  0.00000000E+00  0.00000000E+00
  0.00000000E+00  0.00000000E+00  0.00000000E+00  0.00000000E+00  0.00000000E+00
  0.00000000E+00  0.00000000E+00  0.00000000E+00  0.00000000E+00  0.00000000E+00
  0.00000000E+00  0.00000000E+00  0.00000000E+00  0.00000000E+00  0.00000000E+00
  0.00000000E+00  0.00000000E+00  0.00000000E+00  0.00000000E+00  0.00000000E+00
  0.00000000E+00  0.00000000E+00  0.00000000E+00  0.00000000E+00  0.00000000E+00
  0.00000000E+00  0.00000000E+00  0.00000000E+00  0.00000000E+00  0.00000000E+00
  0.00000000E+00  0.00000000E+00  0.00000000E+00  0.00000000E+00  0.00000000E+00
  0.00000000E+00  0.00000000E+00  0.00000000E+00  0.00000000E+00  0.00000000E+00
  0.00000000E+00  0.00000000E+00  0.00000000E+00  0.00000000E+00  0.00000000E+00
  0.00000000E+00  0.00000000E+00  0.00000000E+00  0.00000000E+00  0.00000000E+00
  0.00000000E+00  0.00000000E+00  0.00000000E+00  0.00000000E+00  0.00000000E+00
  0.00000000E+00  0.00000000E+00  0.00000000E+00  0.00000000E+00  0.00000000E+00
  0.00000000E+00  0.00000000E+00  0.00000000E+00  0.00000000E+00  0.00000000E+00
  0.00000000E+00  0.00000000E+00  0.00000000E+00  0.00000000E+00  0.00000000E+00
  0.00000000E+00  0.00000000E+00  0.00000000E+00  0.00000000E+00  0.00000000E+00
  0.00000000E+00  0.00000000E+00  0.00000000E+00  0.00000000E+00  0.00000000E+00
  0.00000000E+00  0.00000000E+00  0.00000000E+00  0.00000000E+00  0.00000000E+00
  0.00000000E+00  0.00000000E+00  0.00000000E+00  0.00000000E+00  0.00000000E+00
  0.00000000E+00  0.00000000E+00  0.00000000E+00  0.00000000E+00  0.00000000E+00
  0.00000000E+00  0.00000000E+00  0.00000000E+00  0.00000000E+00  0.00000000E+00
  0.00000000E+00  0.00000000E+00  0.00000000E+00  0.00000000E+00  0.00000000E+00
  0.00000000E+00  0.00000000E+00  0.00000000E+00  0.00000000E+00  0.00000000E+00
  0.00000000E+00  0.00000000E+00  0.00000000E+00  0.00000000E+00  0.00000000E+00
  2.26000000E-01  4.43000000E-01  1.01000000E-01  1.47000000E-01  1.92000000E-01
  2.40000000E-01  2.75000000E-01  3.03000000E-01  3.25000000E-01  4.13000000E-01
  9.60000000E-02  1.35000000E-01  1.73000000E-01  2.11000000E-01  2.48000000E-01
  2.86000000E-01  3.23000000E-01  3.60000000E-01  8.20000000E-02  1.04000000E-01
  1.17000000E-01  1.23000000E-01  1.29000000E-01  1.34000000E-01  1.40000000E-01
  1.44000000E-01  1.48000000E-01  1.52000000E-01  1.55000000E-01  1.76000000E-01
  1.98000000E-01  2.19000000E-01  2.39000000E-01  2.60000000E-01  2.80000000E-01
  3.00000000E-01  7.90000000E-02  9.90000000E-02  1.19000000E-01  1.26000000E-01
  1.33000000E-01  1.40000000E-01  1.47000000E-01  1.53000000E-01  1.58000000E-01
  1.63000000E-01  1.57000000E-01  1.70000000E-01  1.87000000E-01  2.03000000E-01
  2.19000000E-01  2.34000000E-01  2.50000000E-01  2.65000000E-01  7.40000000E-02
  9.20000000E-02  1.05000000E-01  1.06000000E-01  1.07000000E-01  1.08000000E-01
  1.09000000E-01  1.10000000E-01  1.11000000E-01  1.12000000E-01  1.13000000E-01
  1.14000000E-01  1.15000000E-01  1.16000000E-01  1.17000000E-01  1.17000000E-01
  1.26000000E-01  1.36000000E-01  1.46000000E-01  1.55000000E-01  1.65000000E-01
  1.73000000E-01  1.82000000E-01  1.90000000E-01  1.62000000E-01  1.78000000E-01
  1.10000000E-01  1.35000000E-01  1.59000000E-01  1.83000000E-01  2.07000000E-01
  2.31000000E-01  6.90000000E-02  9.40000000E-02  1.02000000E-01  1.03000000E-01
  1.05000000E-01  1.07000000E-01  1.09000000E-01  1.11000000E-01  1.13000000E-01
  1.15000000E-01  1.17000000E-01  1.19000000E-01  1.20000000E-01  1.22000000E-01
  1.24000000E-01  1.26000000E-01  1.28000000E-01  1.28000000E-01  1.28000000E-01
  1.28000000E-01  1.28000000E-01  1.28000000E-01  1.28000000E-01  1.28000000E-01
  1.28000000E-01  1.28000000E-01  1.28000000E-01  1.28000000E-01  1.28000000E-01
  1.28000000E-01  1.28000000E-01  1.28000000E-01  1.28000000E-01  1.28000000E-01
  1.28000000E-01  1.28000000E-01  1.28000000E-01  1.28000000E-01  1.28000000E-01
  1.28000000E-01  1.28000000E-01  1.28000000E-01  1.28000000E-01  1.28000000E-01
  1.28000000E-01  1.28000000E-01  1.28000000E-01  1.28000000E-01  1.28000000E-01
  1.28000000E-01  1.28000000E-01  1.28000000E-01  1.28000000E-01  1.28000000E-01
  1.28000000E-01  1.28000000E-01  1.28000000E-01  1.28000000E-01  1.28000000E-01
  1.28000000E-01  1.28000000E-01  1.28000000E-01  1.28000000E-01  1.28000000E-01
  1.28000000E-01  1.28000000E-01  1.28000000E-01  1.28000000E-01  1.28000000E-01
  1.28000000E-01  1.28000000E-01  1.28000000E-01  1.28000000E-01  1.28000000E-01
  1.28000000E-01  1.28000000E-01  1.28000000E-01  1.28000000E-01  1.28000000E-01
  1.28000000E-01  1.28000000E-01  1.28000000E-01  1.28000000E-01  1.28000000E-01
  1.28000000E-01  1.28000000E-01  1.28000000E-01  1.28000000E-01  1.28000000E-01
  1.28000000E-01  1.28000000E-01  1.28000000E-01  1.28000000E-01  1.28000000E-01
  1.28000000E-01  1.28000000E-01  1.28000000E-01  1.28000000E-01  1.28000000E-01
  1.28000000E-01  1.28000000E-01  1.28000000E-01  1.28000000E-01  1.28000000E-01
  1.28000000E-01  1.28000000E-01  1.28000000E-01  1.28000000E-01  1.28000000E-01
  1.28000000E-01  1.28000000E-01  1.28000000E-01  1.28000000E-01  1.28000000E-01
  5.47000000E-01  5.92000000E-01  5.99000000E-01  6.68000000E-01  6.98000000E-01
  7.18000000E-01  7.26000000E-01  7.36000000E-01  7.43000000E-01  7.45000000E-01
  6.07000000E-01  6.66000000E-01  6.93000000E-01  7.09000000E-01  7.20000000E-01
  7.29000000E-01  7.35000000E-01  7.40000000E-01  6.08000000E-01  7.34000000E-01
  7.46000000E-01  7.55000000E-01  7.61000000E-01  7.65000000E-01  7.67000000E-01
  7.60000000E-01  7.49000000E-01  7.33000000E-01  7.08000000E-01  6.48000000E-01
  6.88000000E-01  7.09000000E-01  7.22000000E-01  7.31000000E-01  7.38000000E-01
  7.44000000E-01  6.09000000E-01  7.30000000E-01  7.41000000E-01  7.52000000E-01
  7.58000000E-01  7.63000000E-01  7.66000000E-01  7.58000000E-01  7.48000000E-01
  7.33000000E-01  7.01000000E-01  6.45000000E-01  6.86000000E-01  7.08000000E-01
  7.22000000E-01  7.31000000E-01  7.38000000E-01  7.44000000E-01  6.08000000E-01
  7.28000000E-01  7.32000000E-01  7.32000000E-01  7.32000000E-01  7.32000000E-01
  7.32000000E-01  7.32000000E-01  7.32000000E-01  7.32000000E-01  7.32000000E-01
  7.31000000E-01  7.31000000E-01  7.31000000E-01  7.31000000E-01  7.46000000E-01
  7.37000000E-01  7.46000000E-01  7.51000000E-01  7.55000000E-01  7.58000000E-01
  7.47000000E-01  7.32000000E-01  7.11000000E-01  7.41000000E-01  7.07000000E-01
  7.47000000E-01  7.43000000E-01  7.42000000E-01  7.42000000E-01  7.43000000E-01
  7.44000000E-01  6.05000000E-01  7.24000000E-01  7.26000000E-01  7.26000000E-01
  7.27000000E-01  7.27000000E-01  7.27000000E-01  7.28000000E-01  7.28000000E-01
  7.28000000E-01  7.28000000E-01  7.28000000E-01  7.29000000E-01  7.29000000E-01
  7.29000000E-01  7.29000000E-01  7.29000000E-01  7.29000000E-01  7.29000000E-01
  7.29000000E-01  7.29000000E-01  7.29000000E-01  7.29000000E-01  7.29000000E-01
  7.29000000E-01  7.29000000E-01  7.29000000E-01  7.29000000E-01  7.29000000E-01
  7.29000000E-01  7.29000000E-01  7.29000000E-01  7.29000000E-01  7.29000000E-01
  7.29000000E-01  7.29000000E-01  7.29000000E-01  7.29000000E-01  7.29000000E-01
  7.29000000E-01  7.29000000E-01  7.29000000E-01  7.29000000E-01  7.29000000E-01
  7.29000000E-01  7.29000000E-01  7.29000000E-01  7.29000000E-01  7.29000000E-01
  7.29000000E-01  7.29000000E-01  7.29000000E-01  7.29000000E-01  7.29000000E-01
  7.29000000E-01  7.29000000E-01  7.29000000E-01  7.29000000E-01  7.29000000E-01
  7.29000000E-01  7.29000000E-01  7.29000000E-01  7.29000000E-01  7.29000000E-01
  7.29000000E-01  7.29000000E-01  7.29000000E-01  7.29000000E-01  7.29000000E-01
  7.29000000E-01  7.29000000E-01  7.29000000E-01  7.29000000E-01  7.29000000E-01
  7.29000000E-01  7.29000000E-01  7.29000000E-01  7.29000000E-01  7.29000000E-01
  7.29000000E-01  7.29000000E-01  7.29000000E-01  7.29000000E-01  7.29000000E-01
  7.29000000E-01  7.29000000E-01  7.29000000E-01  7.29000000E-01  7.29000000E-01
  7.29000000E-01  7.29000000E-01  7.29000000E-01  7.29000000E-01  7.29000000E-01
  7.29000000E-01  7.29000000E-01  7.29000000E-01  7.29000000E-01  7.29000000E-01
  7.29000000E-01  7.29000000E-01  7.29000000E-01  7.29000000E-01  7.29000000E-01
  7.29000000E-01  7.29000000E-01  7.29000000E-01  7.29000000E-01  7.29000000E-01
  7.29000000E-01  7.29000000E-01  7.29000000E-01  7.29000000E-01  7.29000000E-01
  1.00000000E+00  1.70400000E+00  3.23000000E-01  3.89000000E-01  4.67000000E-01
  5.67000000E-01  6.36000000E-01  6.64000000E-01  6.96000000E-01  8.79000000E-01
  3.07000000E-01  3.48000000E-01  4.00000000E-01  4.54000000E-01  5.09000000E-01
  5.65000000E-01  6.21000000E-01  6.77000000E-01  2.56000000E-01  3.50000000E-01
  3.64000000E-01  3.62000000E-01  3.62000000E-01  3.62000000E-01  3.62000000E-01
  3.65000000E-01  3.69000000E-01  3.75000000E-01  3.86000000E-01  4.46000000E-01
  4.55000000E-01  4.74000000E-01  4.96000000E-01  5.20000000E-01  5.45000000E-01
  5.70000000E-01  2.45000000E-01  3.22000000E-01  3.55000000E-01  3.59000000E-01
  3.64000000E-01  3.70000000E-01  3.76000000E-01  3.85000000E-01  3.95000000E-01
  4.08000000E-01  3.76000000E-01  4.23000000E-01  4.22000000E-01  4.32000000E-01
  4.45000000E-01  4.59000000E-01  4.75000000E-01  4.91000000E-01  2.28000000E-01
  2.92000000E-01  2.89000000E-01  2.92000000E-01  2.95000000E-01  2.98000000E-01
  3.00000000E-01  3.03000000E-01  3.06000000E-01  3.09000000E-01  3.12000000E-01
  3.15000000E-01  3.18000000E-01  3.21000000E-01  3.24000000E-01  3.61000000E-01
  3.69000000E-01  3.70000000E-01  3.72000000E-01  3.75000000E-01  3.78000000E-01
  3.85000000E-01  3.94000000E-01  4.07000000E-01  5.26000000E-01  6.21000000E-01
  3.36000000E-01  3.54000000E-01  3.71000000E-01  3.86000000E-01  4.02000000E-01
  4.17000000E-01  2.09000000E-01  2.94000000E-01  2.65000000E-01  2.72000000E-01
  2.78000000E-01  2.84000000E-01  2.91000000E-01  2.97000000E-01  3.03000000E-01
  3.10000000E-01  3.16000000E-01  3.22000000E-01  3.29000000E-01  3.35000000E-01
  3.41000000E-01  3.48000000E-01  3.54000000E-01  3.54000000E-01  3.54000000E-01
  3.54000000E-01  3.54000000E-01  3.54000000E-01  3.54000000E-01  3.54000000E-01
  3.54000000E-01  3.54000000E-01  3.54000000E-01  3.54000000E-01  3.54000000E-01
  3.54000000E-01  3.54000000E-01  3.54000000E-01  3.54000000E-01  3.54000000E-01
  3.54000000E-01  3.54000000E-01  3.54000000E-01  3.54000000E-01  3.54000000E-01
  3.54000000E-01  3.54000000E-01  3.54000000E-01  3.54000000E-01  3.54000000E-01
  3.54000000E-01  3.54000000E-01  3.54000000E-01  3.54000000E-01  3.54000000E-01
  3.54000000E-01  3.54000000E-01  3.54000000E-01  3.54000000E-01  3.54000000E-01
  3.54000000E-01  3.54000000E-01  3.54000000E-01  3.54000000E-01  3.54000000E-01
  3.54000000E-01  3.54000000E-01  3.54000000E-01  3.54000000E-01  3.54000000E-01
  3.54000000E-01  3.54000000E-01  3.54000000E-01  3.54000000E-01  3.54000000E-01
  3.54000000E-01  3.54000000E-01  3.54000000E-01  3.54000000E-01  3.54000000E-01
  3.54000000E-01  3.54000000E-01  3.54000000E-01  3.54000000E-01  3.54000000E-01
  3.54000000E-01  3.54000000E-01  3.54000000E-01  3.54000000E-01  3.54000000E-01
  3.54000000E-01  3.54000000E-01  3.54000000E-01  3.54000000E-01  3.54000000E-01
  3.54000000E-01  3.54000000E-01  3.54000000E-01  3.54000000E-01  3.54000000E-01
  3.54000000E-01  3.54000000E-01  3.54000000E-01  3.54000000E-01  3.54000000E-01
  3.54000000E-01  3.54000000E-01  3.54000000E-01  3.54000000E-01  3.54000000E-01
  3.54000000E-01  3.54000000E-01  3.54000000E-01  3.54000000E-01  3.54000000E-01
  3.54000000E-01  3.54000000E-01  3.54000000E-01  3.54000000E-01  3.54000000E-01
  2.74000000E-01  2.96000000E-01  5.80000000E-02  4.40000000E-02  3.90000000E-02
  3.90000000E-02  3.60000000E-02  3.20000000E-02  2.90000000E-02  3.30000000E-02
  5.50000000E-02  3.90000000E-02  3.30000000E-02  3.00000000E-02  2.80000000E-02
  2.60000000E-02  2.50000000E-02  2.50000000E-02  4.50000000E-02  4.40000000E-02
  3.30000000E-02  2.50000000E-02  2.10000000E-02  1.80000000E-02  1.50000000E-02
  1.80000000E-02  2.10000000E-02  2.50000000E-02  3.30000000E-02  5.00000000E-02
  3.80000000E-02  3.10000000E-02  2.70000000E-02  2.40000000E-02  2.20000000E-02
  2.10000000E-02  4.30000000E-02  4.00000000E-02  3.20000000E-02  2.50000000E-02
  2.10000000E-02  1.80000000E-02  1.60000000E-02  1.90000000E-02  2.20000000E-02
  2.80000000E-02  3.10000000E-02  4.70000000E-02  3.40000000E-02  2.80000000E-02
  2.40000000E-02  2.10000000E-02  1.90000000E-02  1.80000000E-02  3.90000000E-02
  3.60000000E-02  2.50000000E-02  2.50000000E-02  2.50000000E-02  2.60000000E-02
  2.60000000E-02  2.60000000E-02  2.70000000E-02  2.70000000E-02  2.70000000E-02
  2.70000000E-02  2.80000000E-02  2.80000000E-02  2.80000000E-02  3.30000000E-02
  3.30000000E-02  2.60000000E-02  2.10000000E-02  1.80000000E-02  1.60000000E-02
  1.80000000E-02  2.20000000E-02  2.60000000E-02  4.90000000E-02  8.20000000E-02
  3.00000000E-02  2.40000000E-02  2.10000000E-02  1.80000000E-02  1.60000000E-02
  1.50000000E-02  3.50000000E-02  3.60000000E-02  2.20000000E-02  2.30000000E-02
  2.40000000E-02  2.40000000E-02  2.50000000E-02  2.50000000E-02  2.60000000E-02
  2.70000000E-02  2.70000000E-02  2.80000000E-02  2.80000000E-02  2.90000000E-02
  3.00000000E-02  3.00000000E-02  3.10000000E-02  3.10000000E-02  3.10000000E-02
  3.10000000E-02  3.10000000E-02  3.10000000E-02  3.10000000E-02  3.10000000E-02
  3.10000000E-02  3.10000000E-02  3.10000000E-02  3.10000000E-02  3.10000000E-02
  3.10000000E-02  3.10000000E-02  3.10000000E-02  3.10000000E-02  3.10000000E-02
  3.10000000E-02  3.10000000E-02  3.10000000E-02  3.10000000E-02  3.10000000E-02
  3.10000000E-02  3.10000000E-02  3.10000000E-02  3.10000000E-02  3.10000000E-02
  3.10000000E-02  3.10000000E-02  3.10000000E-02  3.10000000E-02  3.10000000E-02
  3.10000000E-02  3.10000000E-02  3.10000000E-02  3.10000000E-02  3.10000000E-02
  3.10000000E-02  3.10000000E-02  3.10000000E-02  3.10000000E-02  3.10000000E-02
  3.10000000E-02  3.10000000E-02  3.10000000E-02  3.10000000E-02  3.10000000E-02
  3.10000000E-02  3.10000000E-02  3.10000000E-02  3.10000000E-02  3.10000000E-02
  3.10000000E-02  3.10000000E-02  3.10000000E-02  3.10000000E-02  3.10000000E-02
  3.10000000E-02  3.10000000E-02  3.10000000E-02  3.10000000E-02  3.10000000E-02
  3.10000000E-02  3.10000000E-02  3.10000000E-02  3.10000000E-02  3.10000000E-02
  3.10000000E-02  3.10000000E-02  3.10000000E-02  3.10000000E-02  3.10000000E-02
  3.10000000E-02  3.10000000E-02  3.10000000E-02  3.10000000E-02  3.10000000E-02
  3.10000000E-02  3.10000000E-02  3.10000000E-02  3.10000000E-02  3.10000000E-02
  3.10000000E-02  3.10000000E-02  3.10000000E-02  3.10000000E-02  3.10000000E-02
  3.10000000E-02  3.10000000E-02  3.10000000E-02  3.10000000E-02  3.10000000E-02
  3.10000000E-02  3.10000000E-02  3.10000000E-02  3.10000000E-02  3.10000000E-02
 -5.92770000E-01 -9.17860000E-01 -2.48668000E+00 -8.36430000E-01 -3.18470000E-01
 -4.55790000E-01 -5.70730000E-01 -6.77940000E-01 -7.69860000E-01 -8.51140000E-01
 -1.51908000E+00 -3.18830000E-01 -2.17900000E-01 -3.01260000E-01 -3.72750000E-01
 -4.15890000E-01 -4.45930000E-01 -5.91320000E-01 -9.56370000E-01 -2.88450000E-01
 -4.87320000E-01 -6.34280000E-01 -7.17490000E-01 -7.91980000E-01 -8.68490000E-01
 -9.17520000E-01 -9.54890000E-01 -9.88460000E-01 -1.50055000E+00 -2.92560000E-01
 -2.14960000E-01 -2.91180000E-01 -3.42080000E-01 -3.84480000E-01 -4.34940000E-01
 -5.24310000E-01 -8.10070000E-01 -2.58460000E-01 -4.35550000E-01 -5.32740000E-01
 -6.08450000E-01 -6.10260000E-01 -7.58920000E-01 -8.90130000E-01 -8.45780000E-01
 -8.69340000E-01 -1.38234000E+00 -2.64850000E-01 -1.97280000E-01 -2.65040000E-01
 -2.94470000E-01 -3.16570000E-01 -3.63590000E-01 -4.57840000E-01 -8.61830000E-01
 -1.33004000E+00 -6.82880000E-01 -6.25540000E-01 -6.35430000E-01 -8.79690000E-01
 -9.02690000E-01 -9.59650000E-01 -1.01869000E+00 -6.81170000E-01 -7.96500000E-01
 -9.04950000E-01 -8.34790000E-01 -9.01560000E-01 -9.74130000E-01 -1.03326000E+00
 -7.15490000E-01 -7.83960000E-01 -8.28380000E-01 -5.61040000E-01 -1.03841000E+00
 -8.62500000E-01 -9.59300000E-01 -1.01755000E+00 -7.64900000E-01 -1.29467000E+00
 -1.92740000E-01 -2.56010000E-01 -3.19820000E-01 -1.94660000E-01 -2.60090000E-01
 -4.27990000E-01  0.00000000E+00  0.00000000E+00  0.00000000E+00  0.00000000E+00
  0.00000000E+00  0.00000000E+00  0.00000000E+00  0.00000000E+00  0.00000000E+00
  0.00000000E+00  0.00000000E+00  0.00000000E+00  0.00000000E+00  0.00000000E+00
  0.00000000E+00  0.00000000E+00  0.00000000E+00  0.00000000E+00  0.00000000E+00
  0.00000000E+00  0.00000000E+00  0.00000000E+00  0.00000000E+00  0.00000000E+00
  0.00000000E+00  0.00000000E+00  0.00000000E+00  0.00000000E+00  0.00000000E+00
  0.00000000E+00  0.00000000E+00  0.00000000E+00  0.00000000E+00  0.00000000E+00
  0.00000000E+00  0.00000000E+00  0.00000000E+00  0.00000000E+00  0.00000000E+00
  0.00000000E+00  0.00000000E+00  0.00000000E+00  0.00000000E+00  0.00000000E+00
  0.00000000E+00  0.00000000E+00  0.00000000E+00  0.00000000E+00  0.00000000E+00
  0.00000000E+00  0.00000000E+00  0.00000000E+00  0.00000000E+00  0.00000000E+00
  0.00000000E+00  0.00000000E+00  0.00000000E+00  0.00000000E+00  0.00000000E+00
  0.00000000E+00  0.00000000E+00  0.00000000E+00  0.00000000E+00  0.00000000E+00
  0.00000000E+00  0.00000000E+00  0.00000000E+00  0.00000000E+00  0.00000000E+00
  0.00000000E+00  0.00000000E+00  0.00000000E+00  0.00000000E+00  0.00000000E+00
  0.00000000E+00  0.00000000E+00  0.00000000E+00  0.00000000E+00  0.00000000E+00
  0.00000000E+00  0.00000000E+00  0.00000000E+00  0.00000000E+00  0.00000000E+00
  0.00000000E+00  0.00000000E+00  0.00000000E+00  0.00000000E+00  0.00000000E+00
  0.00000000E+00  0.00000000E+00  0.00000000E+00  0.00000000E+00  0.00000000E+00
  0.00000000E+00  0.00000000E+00  0.00000000E+00  0.00000000E+00  0.00000000E+00
  0.00000000E+00  0.00000000E+00  0.00000000E+00  0.00000000E+00  0.00000000E+00
  0.00000000E+00  0.00000000E+00  0.00000000E+00  0.00000000E+00  0.00000000E+00
  0.00000000E+00  0.00000000E+00  0.00000000E+00  0.00000000E+00  0.00000000E+00
  1.90440000E+00  1.36430000E+00  4.84000000E-01  7.31600000E+00  9.24030000E+00
  8.78200000E+00  5.61290000E+00  4.83340000E+00  3.24870000E+00  2.71090000E+00
  2.01130000E+00  1.50282000E+01  1.46788000E+01  2.13546000E+01  2.38290000E+01
  1.98022000E+01  1.50468000E+01  1.09745000E+01  1.27219000E+01  1.51949000E+01
  1.57342000E+01  2.79222000E+01  1.61366000E+01  2.21252000E+01  2.45676000E+01
  1.96016000E+01  1.79818000E+01  1.72396000E+01  5.01500000E+00  1.92898000E+01
  2.34477000E+01  2.23993000E+01  2.96586000E+01  2.60081000E+01  2.15580000E+01
  1.69594000E+01  1.56479000E+01  1.86897000E+01  1.93530000E+01  3.43444000E+01
  1.98480000E+01  2.72140000E+01  3.02182000E+01  2.41099000E+01  2.21176000E+01
  2.12047000E+01  7.56690000E+00  2.37264000E+01  2.93879000E+01  3.01278000E+01
  4.19382000E+01  3.85203000E+01  3.39511000E+01  2.75774000E+01  1.56460000E+01
  1.04460000E+01  2.01830000E+01  4.99540000E+01  4.76430000E+01  1.18690000E+01
  1.08670000E+01  9.96100000E+00  9.18700000E+00  3.67980000E+01  1.34070000E+01
  9.38200000E+00  9.81700000E+00  8.90800000E+00  8.40700000E+00  8.05800000E+00
  1.29600000E+01  2.67920000E+01  2.49300000E+01  3.45630000E+01  1.11860000E+01
  1.09440000E+01  1.01270000E+01  9.40400000E+00  1.36660000E+01  7.81000000E+00
  6.93600000E+01  5.86630000E+01  4.79690000E+01  4.52740000E+01  3.92290000E+01
  3.30660000E+01  0.00000000E+00  0.00000000E+00  0.00000000E+00  0.00000000E+00
  0.00000000E+00  0.00000000E+00  0.00000000E+00  0.00000000E+00  0.00000000E+00
  0.00000000E+00  0.00000000E+00  0.00000000E+00  0.00000000E+00  0.00000000E+00
  0.00000000E+00  0.00000000E+00  0.00000000E+00  0.00000000E+00  0.00000000E+00
  0.00000000E+00  0.00000000E+00  0.00000000E+00  0.00000000E+00  0.00000000E+00
  0.00000000E+00  0.00000000E+00  0.00000000E+00  0.00000000E+00  0.00000000E+00
  0.00000000E+00  0.00000000E+00  0.00000000E+00  0.00000000E+00  0.00000000E+00
  0.00000000E+00  0.00000000E+00  0.00000000E+00  0.00000000E+00  0.00000000E+00
  0.00000000E+00  0.00000000E+00  0.00000000E+00  0.00000000E+00  0.00000000E+00
  0.00000000E+00  0.00000000E+00  0.00000000E+00  0.00000000E+00  0.00000000E+00
  0.00000000E+00  0.00000000E+00  0.00000000E+00  0.00000000E+00  0.00000000E+00
  0.00000000E+00  0.00000000E+00  0.00000000E+00  0.00000000E+00  0.00000000E+00
  0.00000000E+00  0.00000000E+00  0.00000000E+00  0.00000000E+00  0.00000000E+00
  0.00000000E+00  0.00000000E+00  0.00000000E+00  0.00000000E+00  0.00000000E+00
  0.00000000E+00  0.00000000E+00  0.00000000E+00  0.00000000E+00  0.00000000E+00
  0.00000000E+00  0.00000000E+00  0.00000000E+00  0.00000000E+00  0.00000000E+00
  0.00000000E+00  0.00000000E+00  0.00000000E+00  0.00000000E+00  0.00000000E+00
  0.00000000E+00  0.00000000E+00  0.00000000E+00  0.00000000E+00  0.00000000E+00
  0.00000000E+00  0.00000000E+00  0.00000000E+00  0.00000000E+00  0.00000000E+00
  0.00000000E+00  0.00000000E+00  0.00000000E+00  0.00000000E+00  0.00000000E+00
  0.00000000E+00  0.00000000E+00  0.00000000E+00  0.00000000E+00  0.00000000E+00
  0.00000000E+00  0.00000000E+00  0.00000000E+00  0.00000000E+00  0.00000000E+00
  0.00000000E+00  0.00000000E+00  0.00000000E+00  0.00000000E+00  0.00000000E+00
  0.00000000E+00  0.00000000E+00  0.00000000E+00  0.00000000E+00  0.00000000E+00
  0.00000000E+00  0.00000000E+00  0.00000000E+00  0.00000000E+00  0.00000000E+00
  0.00000000E+00  0.00000000E+00  0.00000000E+00  0.00000000E+00  0.00000000E+00
  0.00000000E+00  0.00000000E+00  0.00000000E+00  0.00000000E+00  0.00000000E+00
  0.00000000E+00  0.00000000E+00  0.00000000E+00  0.00000000E+00  0.00000000E+00
  0.00000000E+00  0.00000000E+00  0.00000000E+00  0.00000000E+00  0.00000000E+00
  0.00000000E+00  0.00000000E+00  0.00000000E+00  0.00000000E+00  0.00000000E+00
  0.00000000E+00  0.00000000E+00  0.00000000E+00  0.00000000E+00  0.00000000E+00
  0.00000000E+00  0.00000000E+00  0.00000000E+00  0.00000000E+00  0.00000000E+00
  0.00000000E+00  0.00000000E+00  0.00000000E+00  0.00000000E+00  0.00000000E+00
  0.00000000E+00  0.00000000E+00  0.00000000E+00  0.00000000E+00  0.00000000E+00
  0.00000000E+00  0.00000000E+00  0.00000000E+00  0.00000000E+00  0.00000000E+00
  0.00000000E+00  0.00000000E+00  0.00000000E+00  0.00000000E+00  0.00000000E+00
  0.00000000E+00  0.00000000E+00  0.00000000E+00  0.00000000E+00  0.00000000E+00
  0.00000000E+00  0.00000000E+00  0.00000000E+00  0.00000000E+00  0.00000000E+00
  0.00000000E+00  0.00000000E+00  0.00000000E+00  0.00000000E+00  0.00000000E+00
  0.00000000E+00  0.00000000E+00  0.00000000E+00  0.00000000E+00  0.00000000E+00
  0.00000000E+00  0.00000000E+00  0.00000000E+00  0.00000000E+00  0.00000000E+00
  0.00000000E+00  0.00000000E+00  0.00000000E+00  0.00000000E+00  0.00000000E+00
  0.00000000E+00  0.00000000E+00  0.00000000E+00  0.00000000E+00  0.00000000E+00
  0.00000000E+00  0.00000000E+00  0.00000000E+00  0.00000000E+00  0.00000000E+00
  0.00000000E+00  0.00000000E+00  0.00000000E+00  0.00000000E+00  0.00000000E+00
  0.00000000E+00  0.00000000E+00  0.00000000E+00  0.00000000E+00  0.00000000E+00
  0.00000000E+00  0.00000000E+00  0.00000000E+00  0.00000000E+00  0.00000000E+00
  0.00000000E+00  0.00000000E+00  0.00000000E+00  0.00000000E+00  0.00000000E+00
  0.00000000E+00  0.00000000E+00  0.00000000E+00  0.00000000E+00  0.00000000E+00
  0.00000000E+00  0.00000000E+00  0.00000000E+00  0.00000000E+00  0.00000000E+00
  0.00000000E+00  0.00000000E+00  0.00000000E+00  0.00000000E+00  0.00000000E+00
  0.00000000E+00  0.00000000E+00  0.00000000E+00  0.00000000E+00  0.00000000E+00
  0.00000000E+00  0.00000000E+00  0.00000000E+00  0.00000000E+00  0.00000000E+00
  0.00000000E+00  0.00000000E+00  0.00000000E+00  0.00000000E+00  0.00000000E+00
  0.00000000E+00  0.00000000E+00  0.00000000E+00  0.00000000E+00  0.00000000E+00
  0.00000000E+00  0.00000000E+00  0.00000000E+00  0.00000000E+00  0.00000000E+00
  0.00000000E+00  0.00000000E+00  0.00000000E+00  0.00000000E+00  0.00000000E+00
  0.00000000E+00  0.00000000E+00  0.00000000E+00  0.00000000E+00  0.00000000E+00
  0.00000000E+00  0.00000000E+00  0.00000000E+00  0.00000000E+00  0.00000000E+00
  0.00000000E+00  0.00000000E+00  0.00000000E+00  0.00000000E+00  0.00000000E+00
  0.00000000E+00  0.00000000E+00  0.00000000E+00  0.00000000E+00  0.00000000E+00
  0.00000000E+00  0.00000000E+00  0.00000000E+00  0.00000000E+00  0.00000000E+00
  0.00000000E+00  0.00000000E+00  0.00000000E+00  0.00000000E+00  0.00000000E+00
  0.00000000E+00  0.00000000E+00  0.00000000E+00  0.00000000E+00  0.00000000E+00
  0.00000000E+00  0.00000000E+00  0.00000000E+00  0.00000000E+00  0.00000000E+00
  0.00000000E+00  0.00000000E+00  0.00000000E+00  0.00000000E+00  0.00000000E+00
  0.00000000E+00  0.00000000E+00  0.00000000E+00  0.00000000E+00  0.00000000E+00
  0.00000000E+00  0.00000000E+00  0.00000000E+00  0.00000000E+00  0.00000000E+00
  0.00000000E+00  0.00000000E+00  0.00000000E+00  0.00000000E+00  0.00000000E+00
  0.00000000E+00  0.00000000E+00  0.00000000E+00  0.00000000E+00  0.00000000E+00
  0.00000000E+00  0.00000000E+00  0.00000000E+00  0.00000000E+00  0.00000000E+00
  0.00000000E+00  0.00000000E+00  0.00000000E+00  0.00000000E+00  0.00000000E+00
  0.00000000E+00  0.00000000E+00  0.00000000E+00  0.00000000E+00  0.00000000E+00
  0.00000000E+00  0.00000000E+00  0.00000000E+00  0.00000000E+00  0.00000000E+00
  0.00000000E+00  0.00000000E+00  0.00000000E+00  0.00000000E+00  0.00000000E+00
  0.00000000E+00  0.00000000E+00  0.00000000E+00  0.00000000E+00  0.00000000E+00
  0.00000000E+00  0.00000000E+00  0.00000000E+00  0.00000000E+00  0.00000000E+00
  0.00000000E+00  0.00000000E+00  0.00000000E+00  0.00000000E+00  0.00000000E+00
  0.00000000E+00  0.00000000E+00  0.00000000E+00  0.00000000E+00  0.00000000E+00
  0.00000000E+00  0.00000000E+00  0.00000000E+00  0.00000000E+00  0.00000000E+00
  0.00000000E+00  0.00000000E+00  0.00000000E+00  0.00000000E+00  0.00000000E+00
  0.00000000E+00  0.00000000E+00  0.00000000E+00  0.00000000E+00  0.00000000E+00
  0.00000000E+00  0.00000000E+00  0.00000000E+00  0.00000000E+00  0.00000000E+00
  0.00000000E+00  0.00000000E+00  0.00000000E+00  0.00000000E+00  0.00000000E+00
  0.00000000E+00  0.00000000E+00  0.00000000E+00  0.00000000E+00  0.00000000E+00
  0.00000000E+00  0.00000000E+00  0.00000000E+00  0.00000000E+00  0.00000000E+00
  0.00000000E+00  0.00000000E+00  0.00000000E+00  0.00000000E+00  0.00000000E+00
  0.00000000E+00  0.00000000E+00  0.00000000E+00  0.00000000E+00  0.00000000E+00
  0.00000000E+00  0.00000000E+00  0.00000000E+00  0.00000000E+00  0.00000000E+00
  0.00000000E+00  0.00000000E+00  0.00000000E+00  0.00000000E+00  0.00000000E+00
  0.00000000E+00  0.00000000E+00  0.00000000E+00  0.00000000E+00  0.00000000E+00
  0.00000000E+00  0.00000000E+00  0.00000000E+00  0.00000000E+00  0.00000000E+00
  0.00000000E+00  0.00000000E+00  0.00000000E+00  0.00000000E+00  0.00000000E+00
  0.00000000E+00  0.00000000E+00  0.00000000E+00  0.00000000E+00  0.00000000E+00
  0.00000000E+00  0.00000000E+00  0.00000000E+00  0.00000000E+00  0.00000000E+00
  0.00000000E+00  0.00000000E+00  0.00000000E+00  0.00000000E+00  0.00000000E+00
  0.00000000E+00  0.00000000E+00  0.00000000E+00  0.00000000E+00  0.00000000E+00
  0.00000000E+00  0.00000000E+00  0.00000000E+00  0.00000000E+00  0.00000000E+00
  0.00000000E+00  0.00000000E+00  0.00000000E+00  0.00000000E+00  0.00000000E+00
  0.00000000E+00  0.00000000E+00  0.00000000E+00  0.00000000E+00  0.00000000E+00
  0.00000000E+00  0.00000000E+00  0.00000000E+00  0.00000000E+00  0.00000000E+00
  0.00000000E+00  0.00000000E+00  0.00000000E+00  0.00000000E+00  0.00000000E+00
  0.00000000E+00  0.00000000E+00  0.00000000E+00  0.00000000E+00  0.00000000E+00
  0.00000000E+00  0.00000000E+00  0.00000000E+00  0.00000000E+00  0.00000000E+00
  0.00000000E+00  0.00000000E+00  0.00000000E+00  0.00000000E+00  0.00000000E+00
  0.00000000E+00  0.00000000E+00  0.00000000E+00  0.00000000E+00  0.00000000E+00
  0.00000000E+00  0.00000000E+00  0.00000000E+00  0.00000000E+00  0.00000000E+00
  0.00000000E+00  0.00000000E+00  0.00000000E+00  0.00000000E+00  0.00000000E+00
  0.00000000E+00  0.00000000E+00  0.00000000E+00  0.00000000E+00  0.00000000E+00
  0.00000000E+00  0.00000000E+00  0.00000000E+00  0.00000000E+00  0.00000000E+00
  0.00000000E+00  0.00000000E+00  0.00000000E+00  0.00000000E+00  0.00000000E+00
  0.00000000E+00  0.00000000E+00  0.00000000E+00  0.00000000E+00  0.00000000E+00
  0.00000000E+00  0.00000000E+00  0.00000000E+00  0.00000000E+00  0.00000000E+00
  0.00000000E+00  0.00000000E+00  0.00000000E+00  0.00000000E+00  0.00000000E+00
  0.00000000E+00  0.00000000E+00  0.00000000E+00  0.00000000E+00  0.00000000E+00
  0.00000000E+00  0.00000000E+00  0.00000000E+00  0.00000000E+00  0.00000000E+00
  0.00000000E+00  0.00000000E+00  0.00000000E+00  0.00000000E+00  0.00000000E+00
  0.00000000E+00  0.00000000E+00  0.00000000E+00  0.00000000E+00  0.00000000E+00
  0.00000000E+00  0.00000000E+00  0.00000000E+00  0.00000000E+00  0.00000000E+00
  0.00000000E+00  0.00000000E+00  0.00000000E+00  0.00000000E+00  0.00000000E+00
  0.00000000E+00  0.00000000E+00  0.00000000E+00  0.00000000E+00  0.00000000E+00
  0.00000000E+00  0.00000000E+00  0.00000000E+00  0.00000000E+00  0.00000000E+00
  0.00000000E+00  0.00000000E+00  0.00000000E+00  0.00000000E+00  0.00000000E+00
  0.00000000E+00  0.00000000E+00  0.00000000E+00  0.00000000E+00  0.00000000E+00
  0.00000000E+00  0.00000000E+00  0.00000000E+00  0.00000000E+00  0.00000000E+00
  0.00000000E+00  0.00000000E+00  0.00000000E+00  0.00000000E+00  0.00000000E+00
  0.00000000E+00  0.00000000E+00  0.00000000E+00  0.00000000E+00  0.00000000E+00
  0.00000000E+00  0.00000000E+00  0.00000000E+00  0.00000000E+00  0.00000000E+00
  0.00000000E+00  0.00000000E+00  0.00000000E+00  0.00000000E+00  0.00000000E+00
  0.00000000E+00  0.00000000E+00  0.00000000E+00  0.00000000E+00  0.00000000E+00
  0.00000000E+00  0.00000000E+00  0.00000000E+00  0.00000000E+00  0.00000000E+00
  0.00000000E+00  0.00000000E+00  0.00000000E+00  0.00000000E+00  0.00000000E+00
  0.00000000E+00  0.00000000E+00  0.00000000E+00  0.00000000E+00  0.00000000E+00
  0.00000000E+00  0.00000000E+00  0.00000000E+00  0.00000000E+00  0.00000000E+00
  0.00000000E+00  0.00000000E+00  0.00000000E+00  0.00000000E+00  0.00000000E+00
  0.00000000E+00  0.00000000E+00  0.00000000E+00  0.00000000E+00  0.00000000E+00
  0.00000000E+00  0.00000000E+00  0.00000000E+00  0.00000000E+00  0.00000000E+00
  0.00000000E+00  0.00000000E+00  0.00000000E+00  0.00000000E+00  0.00000000E+00
  0.00000000E+00  0.00000000E+00  0.00000000E+00  0.00000000E+00  0.00000000E+00
  0.00000000E+00  0.00000000E+00  0.00000000E+00  0.00000000E+00  0.00000000E+00
  0.00000000E+00  0.00000000E+00  0.00000000E+00  0.00000000E+00  0.00000000E+00
  0.00000000E+00  0.00000000E+00  0.00000000E+00  0.00000000E+00  0.00000000E+00
  0.00000000E+00  0.00000000E+00  0.00000000E+00  0.00000000E+00  0.00000000E+00
  0.00000000E+00  0.00000000E+00  0.00000000E+00  0.00000000E+00  0.00000000E+00
  0.00000000E+00  0.00000000E+00  0.00000000E+00  0.00000000E+00  0.00000000E+00
  0.00000000E+00  0.00000000E+00  0.00000000E+00  0.00000000E+00  0.00000000E+00
  0.00000000E+00  0.00000000E+00  0.00000000E+00  0.00000000E+00  0.00000000E+00
  0.00000000E+00  0.00000000E+00  0.00000000E+00  0.00000000E+00  0.00000000E+00
  0.00000000E+00  0.00000000E+00  0.00000000E+00  0.00000000E+00  0.00000000E+00
  0.00000000E+00  0.00000000E+00  0.00000000E+00  0.00000000E+00  0.00000000E+00
  0.00000000E+00  0.00000000E+00  0.00000000E+00  0.00000000E+00  0.00000000E+00
  0.00000000E+00  0.00000000E+00  0.00000000E+00  0.00000000E+00  0.00000000E+00
  0.00000000E+00  0.00000000E+00  0.00000000E+00  0.00000000E+00  0.00000000E+00
  0.00000000E+00  0.00000000E+00  0.00000000E+00  0.00000000E+00  0.00000000E+00
  0.00000000E+00  0.00000000E+00  0.00000000E+00  0.00000000E+00  0.00000000E+00
  0.00000000E+00  0.00000000E+00  0.00000000E+00  0.00000000E+00  0.00000000E+00
  0.00000000E+00  0.00000000E+00  0.00000000E+00  0.00000000E+00  0.00000000E+00
  0.00000000E+00  0.00000000E+00  0.00000000E+00  0.00000000E+00  0.00000000E+00
  0.00000000E+00  0.00000000E+00  0.00000000E+00  0.00000000E+00  0.00000000E+00
  0.00000000E+00  0.00000000E+00  0.00000000E+00  0.00000000E+00  0.00000000E+00
  0.00000000E+00  0.00000000E+00  0.00000000E+00  0.00000000E+00  0.00000000E+00
  0.00000000E+00  0.00000000E+00  0.00000000E+00  0.00000000E+00  0.00000000E+00
  0.00000000E+00  0.00000000E+00  0.00000000E+00  0.00000000E+00  0.00000000E+00
  0.00000000E+00  0.00000000E+00  0.00000000E+00  0.00000000E+00  0.00000000E+00
  0.00000000E+00  0.00000000E+00  0.00000000E+00  0.00000000E+00  0.00000000E+00
  0.00000000E+00  0.00000000E+00  0.00000000E+00  0.00000000E+00  0.00000000E+00
  0.00000000E+00  0.00000000E+00  0.00000000E+00  0.00000000E+00  0.00000000E+00
  0.00000000E+00  0.00000000E+00  0.00000000E+00  0.00000000E+00  0.00000000E+00
  0.00000000E+00  0.00000000E+00  0.00000000E+00  0.00000000E+00  0.00000000E+00
  0.00000000E+00  0.00000000E+00  0.00000000E+00  0.00000000E+00  0.00000000E+00
  0.00000000E+00  0.00000000E+00  0.00000000E+00  0.00000000E+00  0.00000000E+00
  0.00000000E+00  0.00000000E+00  0.00000000E+00  0.00000000E+00  0.00000000E+00
  0.00000000E+00  0.00000000E+00  0.00000000E+00  0.00000000E+00  0.00000000E+00
  0.00000000E+00  0.00000000E+00  0.00000000E+00  0.00000000E+00  0.00000000E+00
  0.00000000E+00  0.00000000E+00  0.00000000E+00  0.00000000E+00  0.00000000E+00
  0.00000000E+00  0.00000000E+00  0.00000000E+00  0.00000000E+00  0.00000000E+00
  0.00000000E+00  0.00000000E+00  0.00000000E+00  0.00000000E+00  0.00000000E+00
  0.00000000E+00  0.00000000E+00  0.00000000E+00  0.00000000E+00  0.00000000E+00
  0.00000000E+00  0.00000000E+00  0.00000000E+00  0.00000000E+00  0.00000000E+00
  0.00000000E+00  0.00000000E+00  0.00000000E+00  0.00000000E+00  0.00000000E+00
  0.00000000E+00  0.00000000E+00  0.00000000E+00  0.00000000E+00  0.00000000E+00
  0.00000000E+00  0.00000000E+00  0.00000000E+00  0.00000000E+00  0.00000000E+00
  0.00000000E+00  0.00000000E+00  0.00000000E+00  0.00000000E+00  0.00000000E+00
  0.00000000E+00  0.00000000E+00  0.00000000E+00  0.00000000E+00  0.00000000E+00
  0.00000000E+00  0.00000000E+00  0.00000000E+00  0.00000000E+00  0.00000000E+00
  0.00000000E+00  0.00000000E+00  0.00000000E+00  0.00000000E+00  0.00000000E+00
  0.00000000E+00  0.00000000E+00  0.00000000E+00  0.00000000E+00  0.00000000E+00
  0.00000000E+00  0.00000000E+00  0.00000000E+00  0.00000000E+00  0.00000000E+00
  0.00000000E+00  0.00000000E+00  0.00000000E+00  0.00000000E+00  0.00000000E+00
  0.00000000E+00  0.00000000E+00  0.00000000E+00  0.00000000E+00  0.00000000E+00
  0.00000000E+00  0.00000000E+00  0.00000000E+00  0.00000000E+00  0.00000000E+00
  0.00000000E+00  0.00000000E+00  0.00000000E+00  0.00000000E+00  0.00000000E+00
  0.00000000E+00  0.00000000E+00  0.00000000E+00  0.00000000E+00  0.00000000E+00
  0.00000000E+00  0.00000000E+00  0.00000000E+00  0.00000000E+00  0.00000000E+00
  0.00000000E+00  0.00000000E+00  0.00000000E+00  0.00000000E+00  0.00000000E+00
  0.00000000E+00  0.00000000E+00  0.00000000E+00  0.00000000E+00  0.00000000E+00
  0.00000000E+00  0.00000000E+00  0.00000000E+00  0.00000000E+00  0.00000000E+00
  0.00000000E+00  0.00000000E+00  0.00000000E+00  0.00000000E+00  0.00000000E+00
  0.00000000E+00  0.00000000E+00  0.00000000E+00  0.00000000E+00  0.00000000E+00
  0.00000000E+00  0.00000000E+00  0.00000000E+00  0.00000000E+00  0.00000000E+00
  0.00000000E+00  0.00000000E+00  0.00000000E+00  0.00000000E+00  0.00000000E+00
  0.00000000E+00  0.00000000E+00  0.00000000E+00  0.00000000E+00  0.00000000E+00
  0.00000000E+00  0.00000000E+00  0.00000000E+00  0.00000000E+00  0.00000000E+00
  0.00000000E+00  0.00000000E+00  0.00000000E+00  0.00000000E+00  0.00000000E+00
  0.00000000E+00  0.00000000E+00  0.00000000E+00  0.00000000E+00  0.00000000E+00
  0.00000000E+00  0.00000000E+00  0.00000000E+00  0.00000000E+00  0.00000000E+00
  0.00000000E+00  0.00000000E+00  0.00000000E+00  0.00000000E+00  0.00000000E+00
  0.00000000E+00  0.00000000E+00  0.00000000E+00  0.00000000E+00  0.00000000E+00
  0.00000000E+00  0.00000000E+00  0.00000000E+00  0.00000000E+00  0.00000000E+00
  0.00000000E+00  0.00000000E+00  0.00000000E+00  0.00000000E+00  0.00000000E+00
  0.00000000E+00  0.00000000E+00  0.00000000E+00  0.00000000E+00  0.00000000E+00
  0.00000000E+00  0.00000000E+00  0.00000000E+00  0.00000000E+00  0.00000000E+00
  0.00000000E+00  0.00000000E+00  0.00000000E+00  0.00000000E+00  0.00000000E+00
  0.00000000E+00  0.00000000E+00  0.00000000E+00  0.00000000E+00  0.00000000E+00
  0.00000000E+00  0.00000000E+00  0.00000000E+00  0.00000000E+00  0.00000000E+00
  0.00000000E+00  0.00000000E+00  0.00000000E+00  0.00000000E+00  0.00000000E+00
  0.00000000E+00  0.00000000E+00  0.00000000E+00  0.00000000E+00  0.00000000E+00
  0.00000000E+00  0.00000000E+00  0.00000000E+00  0.00000000E+00  0.00000000E+00
  0.00000000E+00  0.00000000E+00  0.00000000E+00  0.00000000E+00  0.00000000E+00
  0.00000000E+00  0.00000000E+00  0.00000000E+00  0.00000000E+00  0.00000000E+00
  0.00000000E+00  0.00000000E+00  0.00000000E+00  0.00000000E+00  0.00000000E+00
  0.00000000E+00  0.00000000E+00  0.00000000E+00  0.00000000E+00  0.00000000E+00
  0.00000000E+00  0.00000000E+00  0.00000000E+00  0.00000000E+00  0.00000000E+00
  0.00000000E+00  0.00000000E+00  0.00000000E+00  0.00000000E+00  0.00000000E+00
  0.00000000E+00  0.00000000E+00  0.00000000E+00  0.00000000E+00  0.00000000E+00
  0.00000000E+00  0.00000000E+00  0.00000000E+00  0.00000000E+00  0.00000000E+00
  0.00000000E+00  0.00000000E+00  0.00000000E+00  0.00000000E+00  0.00000000E+00
  0.00000000E+00  0.00000000E+00  0.00000000E+00  0.00000000E+00  0.00000000E+00
  0.00000000E+00  0.00000000E+00  0.00000000E+00  0.00000000E+00  0.00000000E+00
  0.00000000E+00  0.00000000E+00  0.00000000E+00  0.00000000E+00  0.00000000E+00
  0.00000000E+00  0.00000000E+00  0.00000000E+00  0.00000000E+00  0.00000000E+00
  0.00000000E+00  0.00000000E+00  0.00000000E+00  0.00000000E+00  0.00000000E+00
  0.00000000E+00  0.00000000E+00  0.00000000E+00  0.00000000E+00  0.00000000E+00
  0.00000000E+00  0.00000000E+00  0.00000000E+00  0.00000000E+00  0.00000000E+00
  0.00000000E+00  0.00000000E+00  0.00000000E+00  0.00000000E+00  0.00000000E+00
  0.00000000E+00  0.00000000E+00  0.00000000E+00  0.00000000E+00  0.00000000E+00
  0.00000000E+00  0.00000000E+00  0.00000000E+00  0.00000000E+00  0.00000000E+00
  0.00000000E+00  0.00000000E+00  0.00000000E+00  0.00000000E+00  0.00000000E+00
  0.00000000E+00  0.00000000E+00  0.00000000E+00  0.00000000E+00  0.00000000E+00
  0.00000000E+00  0.00000000E+00  0.00000000E+00  0.00000000E+00  0.00000000E+00
  0.00000000E+00  0.00000000E+00  0.00000000E+00  0.00000000E+00  0.00000000E+00
  0.00000000E+00  0.00000000E+00  0.00000000E+00  0.00000000E+00  0.00000000E+00
  0.00000000E+00  0.00000000E+00  0.00000000E+00  0.00000000E+00  0.00000000E+00
  0.00000000E+00  0.00000000E+00  0.00000000E+00  0.00000000E+00  0.00000000E+00
  0.00000000E+00  0.00000000E+00  0.00000000E+00  0.00000000E+00  0.00000000E+00
  0.00000000E+00  0.00000000E+00  0.00000000E+00  0.00000000E+00  0.00000000E+00
  0.00000000E+00  0.00000000E+00  0.00000000E+00  0.00000000E+00  0.00000000E+00
  0.00000000E+00  0.00000000E+00  0.00000000E+00  0.00000000E+00  0.00000000E+00
  0.00000000E+00  0.00000000E+00  0.00000000E+00  0.00000000E+00  0.00000000E+00
  0.00000000E+00  0.00000000E+00  0.00000000E+00  0.00000000E+00  0.00000000E+00
  0.00000000E+00  0.00000000E+00  0.00000000E+00  0.00000000E+00  0.00000000E+00
  0.00000000E+00  0.00000000E+00  0.00000000E+00  0.00000000E+00  0.00000000E+00
  0.00000000E+00  0.00000000E+00  0.00000000E+00  0.00000000E+00  0.00000000E+00
  0.00000000E+00  0.00000000E+00  0.00000000E+00  0.00000000E+00  0.00000000E+00
  0.00000000E+00  0.00000000E+00  0.00000000E+00  0.00000000E+00  0.00000000E+00
  0.00000000E+00  0.00000000E+00  0.00000000E+00  0.00000000E+00  0.00000000E+00
  0.00000000E+00  0.00000000E+00  0.00000000E+00  0.00000000E+00  0.00000000E+00
  0.00000000E+00  0.00000000E+00  0.00000000E+00  0.00000000E+00  0.00000000E+00
  0.00000000E+00  0.00000000E+00  0.00000000E+00  0.00000000E+00  0.00000000E+00
  0.00000000E+00  0.00000000E+00  0.00000000E+00  0.00000000E+00  0.00000000E+00
  0.00000000E+00  0.00000000E+00  0.00000000E+00  0.00000000E+00  0.00000000E+00
  0.00000000E+00  0.00000000E+00  0.00000000E+00  0.00000000E+00  0.00000000E+00
  0.00000000E+00  0.00000000E+00  0.00000000E+00  0.00000000E+00  0.00000000E+00
  0.00000000E+00  0.00000000E+00  0.00000000E+00  0.00000000E+00  0.00000000E+00
  0.00000000E+00  0.00000000E+00  0.00000000E+00  0.00000000E+00  0.00000000E+00
  0.00000000E+00  0.00000000E+00  0.00000000E+00  0.00000000E+00  0.00000000E+00
  0.00000000E+00  0.00000000E+00  0.00000000E+00  0.00000000E+00  0.00000000E+00
  0.00000000E+00  0.00000000E+00  0.00000000E+00  0.00000000E+00  0.00000000E+00
  0.00000000E+00  0.00000000E+00  0.00000000E+00  0.00000000E+00  0.00000000E+00
  0.00000000E+00  0.00000000E+00  0.00000000E+00  0.00000000E+00  0.00000000E+00
  0.00000000E+00  0.00000000E+00  0.00000000E+00  0.00000000E+00  0.00000000E+00
  0.00000000E+00  0.00000000E+00  0.00000000E+00  0.00000000E+00  0.00000000E+00
  0.00000000E+00  0.00000000E+00  0.00000000E+00  0.00000000E+00  0.00000000E+00
  0.00000000E+00  0.00000000E+00  0.00000000E+00  0.00000000E+00  0.00000000E+00
  0.00000000E+00  0.00000000E+00  0.00000000E+00  0.00000000E+00  0.00000000E+00
  0.00000000E+00  0.00000000E+00  0.00000000E+00  0.00000000E+00  0.00000000E+00
  0.00000000E+00  0.00000000E+00  0.00000000E+00  0.00000000E+00  0.00000000E+00
  0.00000000E+00  0.00000000E+00  0.00000000E+00  0.00000000E+00  0.00000000E+00
  0.00000000E+00  0.00000000E+00  0.00000000E+00  0.00000000E+00  0.00000000E+00
  0.00000000E+00  0.00000000E+00  0.00000000E+00  0.00000000E+00  0.00000000E+00
  0.00000000E+00  0.00000000E+00  0.00000000E+00  0.00000000E+00  0.00000000E+00
  0.00000000E+00  0.00000000E+00  0.00000000E+00  0.00000000E+00  0.00000000E+00
  0.00000000E+00  0.00000000E+00  0.00000000E+00  0.00000000E+00  0.00000000E+00
  0.00000000E+00  0.00000000E+00  0.00000000E+00  0.00000000E+00  0.00000000E+00
  0.00000000E+00  0.00000000E+00  0.00000000E+00  0.00000000E+00  0.00000000E+00
  0.00000000E+00  0.00000000E+00  0.00000000E+00  0.00000000E+00  0.00000000E+00
  0.00000000E+00  0.00000000E+00  0.00000000E+00  0.00000000E+00  0.00000000E+00
  0.00000000E+00  0.00000000E+00  0.00000000E+00  0.00000000E+00  0.00000000E+00
  0.00000000E+00  0.00000000E+00  0.00000000E+00  0.00000000E+00  0.00000000E+00
  0.00000000E+00  0.00000000E+00  0.00000000E+00  0.00000000E+00  0.00000000E+00
  0.00000000E+00  0.00000000E+00  0.00000000E+00  0.00000000E+00  0.00000000E+00
  0.00000000E+00  0.00000000E+00  0.00000000E+00  0.00000000E+00  0.00000000E+00
  0.00000000E+00  0.00000000E+00  0.00000000E+00  0.00000000E+00  0.00000000E+00
  0.00000000E+00  0.00000000E+00  0.00000000E+00  0.00000000E+00  0.00000000E+00
  0.00000000E+00  0.00000000E+00  0.00000000E+00  0.00000000E+00  0.00000000E+00
  0.00000000E+00  0.00000000E+00  0.00000000E+00  0.00000000E+00  0.00000000E+00
  0.00000000E+00  0.00000000E+00  0.00000000E+00  0.00000000E+00  0.00000000E+00
  0.00000000E+00  0.00000000E+00  0.00000000E+00  0.00000000E+00  0.00000000E+00
  0.00000000E+00  0.00000000E+00  0.00000000E+00  0.00000000E+00  0.00000000E+00
  0.00000000E+00  0.00000000E+00  0.00000000E+00  0.00000000E+00  0.00000000E+00
  0.00000000E+00  0.00000000E+00  0.00000000E+00  0.00000000E+00  0.00000000E+00
  0.00000000E+00  0.00000000E+00  0.00000000E+00  0.00000000E+00  0.00000000E+00
  0.00000000E+00  0.00000000E+00  0.00000000E+00  0.00000000E+00  0.00000000E+00
  0.00000000E+00  0.00000000E+00  0.00000000E+00  0.00000000E+00  0.00000000E+00
  0.00000000E+00  0.00000000E+00  0.00000000E+00  0.00000000E+00  0.00000000E+00
  0.00000000E+00  0.00000000E+00  0.00000000E+00  0.00000000E+00  0.00000000E+00
  0.00000000E+00  0.00000000E+00  0.00000000E+00  0.00000000E+00  0.00000000E+00
  0.00000000E+00  0.00000000E+00  0.00000000E+00  0.00000000E+00  0.00000000E+00
  0.00000000E+00  0.00000000E+00  0.00000000E+00  0.00000000E+00  0.00000000E+00
  0.00000000E+00  0.00000000E+00  0.00000000E+00  0.00000000E+00  0.00000000E+00
  0.00000000E+00  0.00000000E+00  0.00000000E+00  0.00000000E+00  0.00000000E+00
  0.00000000E+00  0.00000000E+00  0.00000000E+00  0.00000000E+00  0.00000000E+00
  0.00000000E+00  0.00000000E+00  0.00000000E+00  0.00000000E+00  0.00000000E+00
  0.00000000E+00  0.00000000E+00  0.00000000E+00  0.00000000E+00  0.00000000E+00
  0.00000000E+00  0.00000000E+00  0.00000000E+00  0.00000000E+00  0.00000000E+00
  0.00000000E+00  0.00000000E+00  0.00000000E+00  0.00000000E+00  0.00000000E+00
  0.00000000E+00  0.00000000E+00  0.00000000E+00  0.00000000E+00  0.00000000E+00
  0.00000000E+00  0.00000000E+00  0.00000000E+00  0.00000000E+00  0.00000000E+00
  0.00000000E+00  0.00000000E+00  0.00000000E+00  0.00000000E+00  0.00000000E+00
  0.00000000E+00  0.00000000E+00  0.00000000E+00  0.00000000E+00  0.00000000E+00
  0.00000000E+00  0.00000000E+00  0.00000000E+00  0.00000000E+00  0.00000000E+00
  0.00000000E+00  0.00000000E+00  0.00000000E+00  0.00000000E+00  0.00000000E+00
  0.00000000E+00  0.00000000E+00  0.00000000E+00  0.00000000E+00  0.00000000E+00
  0.00000000E+00  0.00000000E+00  0.00000000E+00  0.00000000E+00  0.00000000E+00
  0.00000000E+00  0.00000000E+00  0.00000000E+00  0.00000000E+00  0.00000000E+00
  0.00000000E+00  0.00000000E+00  0.00000000E+00  0.00000000E+00  0.00000000E+00
  0.00000000E+00  0.00000000E+00  0.00000000E+00  0.00000000E+00  0.00000000E+00
  0.00000000E+00  0.00000000E+00  0.00000000E+00  0.00000000E+00  0.00000000E+00
  0.00000000E+00  0.00000000E+00  0.00000000E+00  0.00000000E+00  0.00000000E+00
  0.00000000E+00  0.00000000E+00  0.00000000E+00  0.00000000E+00  0.00000000E+00
  0.00000000E+00  0.00000000E+00  0.00000000E+00  0.00000000E+00  0.00000000E+00
  0.00000000E+00  0.00000000E+00  0.00000000E+00  0.00000000E+00  0.00000000E+00
  0.00000000E+00  0.00000000E+00  0.00000000E+00  0.00000000E+00  0.00000000E+00
  0.00000000E+00  0.00000000E+00  0.00000000E+00  0.00000000E+00  0.00000000E+00
  0.00000000E+00  0.00000000E+00  0.00000000E+00  0.00000000E+00  0.00000000E+00
  0.00000000E+00  0.00000000E+00  0.00000000E+00  0.00000000E+00  0.00000000E+00
  0.00000000E+00  0.00000000E+00  0.00000000E+00  0.00000000E+00  0.00000000E+00
  0.00000000E+00  0.00000000E+00  0.00000000E+00  0.00000000E+00  0.00000000E+00
  0.00000000E+00  0.00000000E+00  0.00000000E+00  0.00000000E+00  0.00000000E+00
  0.00000000E+00  0.00000000E+00  0.00000000E+00  0.00000000E+00  0.00000000E+00
  0.00000000E+00  0.00000000E+00  0.00000000E+00  0.00000000E+00  0.00000000E+00
  0.00000000E+00  0.00000000E+00  0.00000000E+00  0.00000000E+00  0.00000000E+00
  0.00000000E+00  0.00000000E+00  0.00000000E+00  0.00000000E+00  0.00000000E+00
  0.00000000E+00  0.00000000E+00  0.00000000E+00  0.00000000E+00  0.00000000E+00
  0.00000000E+00  0.00000000E+00  0.00000000E+00  0.00000000E+00  0.00000000E+00
  0.00000000E+00  0.00000000E+00  0.00000000E+00  0.00000000E+00  0.00000000E+00
  0.00000000E+00  0.00000000E+00  0.00000000E+00  0.00000000E+00  0.00000000E+00
  0.00000000E+00  0.00000000E+00  0.00000000E+00  0.00000000E+00  0.00000000E+00
  0.00000000E+00  0.00000000E+00  0.00000000E+00  0.00000000E+00  0.00000000E+00
  0.00000000E+00  0.00000000E+00  0.00000000E+00  0.00000000E+00  0.00000000E+00
  0.00000000E+00  0.00000000E+00  0.00000000E+00  0.00000000E+00  0.00000000E+00
  0.00000000E+00  0.00000000E+00  0.00000000E+00  0.00000000E+00  0.00000000E+00
  0.00000000E+00  0.00000000E+00  0.00000000E+00  0.00000000E+00  0.00000000E+00
  0.00000000E+00  0.00000000E+00  0.00000000E+00  0.00000000E+00  0.00000000E+00
  0.00000000E+00  0.00000000E+00  0.00000000E+00  0.00000000E+00  0.00000000E+00
  0.00000000E+00  0.00000000E+00  0.00000000E+00  0.00000000E+00  0.00000000E+00
  0.00000000E+00  0.00000000E+00  0.00000000E+00  0.00000000E+00  0.00000000E+00
  0.00000000E+00  0.00000000E+00  0.00000000E+00  0.00000000E+00  0.00000000E+00
  0.00000000E+00  0.00000000E+00  0.00000000E+00  0.00000000E+00  0.00000000E+00
  0.00000000E+00  0.00000000E+00  0.00000000E+00  0.00000000E+00  0.00000000E+00
  0.00000000E+00  0.00000000E+00  0.00000000E+00  0.00000000E+00  0.00000000E+00
  0.00000000E+00  0.00000000E+00  0.00000000E+00  0.00000000E+00  0.00000000E+00
  0.00000000E+00  0.00000000E+00  0.00000000E+00  0.00000000E+00  0.00000000E+00
  0.00000000E+00  0.00000000E+00  0.00000000E+00  0.00000000E+00  0.00000000E+00
  0.00000000E+00  0.00000000E+00  0.00000000E+00  0.00000000E+00  0.00000000E+00
  0.00000000E+00  0.00000000E+00  0.00000000E+00  0.00000000E+00  0.00000000E+00
  0.00000000E+00  0.00000000E+00  0.00000000E+00  0.00000000E+00  0.00000000E+00
  0.00000000E+00  0.00000000E+00  0.00000000E+00  0.00000000E+00  0.00000000E+00
  0.00000000E+00  0.00000000E+00  0.00000000E+00  0.00000000E+00  0.00000000E+00
  0.00000000E+00  0.00000000E+00  0.00000000E+00  0.00000000E+00  0.00000000E+00
  0.00000000E+00  0.00000000E+00  0.00000000E+00  0.00000000E+00  0.00000000E+00
  0.00000000E+00  0.00000000E+00  0.00000000E+00  0.00000000E+00  0.00000000E+00
  0.00000000E+00  0.00000000E+00  0.00000000E+00  0.00000000E+00  0.00000000E+00
  0.00000000E+00  0.00000000E+00  0.00000000E+00  0.00000000E+00  0.00000000E+00
  0.00000000E+00  0.00000000E+00  0.00000000E+00  0.00000000E+00  0.00000000E+00
  0.00000000E+00  0.00000000E+00  0.00000000E+00  0.00000000E+00  0.00000000E+00
  0.00000000E+00  0.00000000E+00  0.00000000E+00  0.00000000E+00  0.00000000E+00
  0.00000000E+00  0.00000000E+00  0.00000000E+00  0.00000000E+00  0.00000000E+00
  0.00000000E+00  0.00000000E+00  0.00000000E+00  0.00000000E+00  0.00000000E+00
  0.00000000E+00  0.00000000E+00  0.00000000E+00  0.00000000E+00  0.00000000E+00
  0.00000000E+00  0.00000000E+00  0.00000000E+00  0.00000000E+00  0.00000000E+00
  0.00000000E+00  0.00000000E+00  0.00000000E+00  0.00000000E+00  0.00000000E+00
  0.00000000E+00  0.00000000E+00  0.00000000E+00  0.00000000E+00  0.00000000E+00
Gaussian Version                           C   N=           2
ES64L-G16RevC.01        
