%chk=test_parall.chk
%nprocs=1
#p force output=pickett External="CentralExt gau $PGAU/test_pr.dat $EGAU/test_en.dat 7 55 read parall 2" 

title

0 1
C                  0.89897871    0.06465583    0.00000000
H                  1.95118499   -0.12966850    0.00000000
C                  0.44073778    1.34003118    0.00000000
H                  1.13351711    2.15548002    0.00000000
Cl                -0.24054615   -1.27664320    0.00000000
N                 -1.00481664    1.60700011    0.00000000




--link1--
%chk=test_parall.chk
%nprocs=1
#p force hf/sto-3g

title

0 1
C                  0.89897871    0.06465583    0.00000000
H                  1.95118499   -0.12966850    0.00000000
C                  0.44073778    1.34003118    0.00000000
H                  1.13351711    2.15548002    0.00000000
Cl                -0.24054615   -1.27664320    0.00000000
N                 -1.00481664    1.60700011    0.00000000




