%chk=test_parall.chk
%nprocs=1
#p force output=pickett External="CentralExt gau $PGAU/test_pr.dat $EGAU/test_en.dat 7 55 read parall 2" 

title

0 1
 N                  0.00000000   -0.00000000   -0.10000001
 H                  0.00000000   -0.94280900    0.23333324
 H                 -0.81649655    0.47140450    0.23333324
 H                  0.81649655    0.47140450    0.23333324



--link1--
%chk=test_parall.chk
%nprocs=1
#p force hf/sto-3g

title

0 1
 N                  0.00000000   -0.00000000   -0.10000001
 H                  0.00000000   -0.94280900    0.23333324
 H                 -0.81649655    0.47140450    0.23333324
 H                  0.81649655    0.47140450    0.23333324



