%nprocs=32
%mem=3200GB
%chk=GauExternal.chk
#P revdsdpbep86d4/gen force

Title

0 1
O 2.037731155648006 -1.6120352717929365 0.35919426152753636
H -0.7680383389188828 -0.32293866040595687 0.12623913715945426
C -0.013598796814095218 -0.5318517537083788 0.9484508689838262
H -0.1788793500867294 0.5210820430974216 1.2987944025544604
H 0.9370425693613968 1.3098239641914224 -0.7215869794082848
C 1.3402771646283156 -0.623992159347261 0.30256302234429516
C 1.778992955282414 0.6320963081807736 -0.4374455056818283
H -0.1843360517939194 -1.3746062698758887 1.615199280840352
H 2.459845460255658 1.143962536492213 0.2461436583934526
H 2.3801391040826827 0.3257368860444667 -1.2910492163912504

@/home/barone/lcrisci_vb/ACTUAL_PROJECTS/Project_Emilio/Imid-H2O-complexes/FINAL_HL_Imid-H2O/3F12red.gbs



