External Calculation                                                    
SP        RHF                                                         STO-3G              
Number of atoms                            I                6
Info1-9                                    I   N=           9
          20          15           0           0           0         110
           1           1           2
Full Title                                 C   N=           2
External Calculation    
Route                                      C   N=           2
#P hf/sto-3g scf=xqc    
Charge                                     I                0
Multiplicity                               I                1
Number of electrons                        I               46
Number of alpha electrons                  I               23
Number of beta electrons                   I               23
Number of basis functions                  I               30
Number of independent functions            I               30
Number of point charges in /Mol/           I                0
Number of translation vectors              I                0
Atomic numbers                             I   N=           6
           6           1           6           1          16          16
Nuclear charges                            R   N=           6
  6.00000000E+00  1.00000000E+00  6.00000000E+00  1.00000000E+00  1.60000000E+01
  1.60000000E+01
Current cartesian coordinates              R   N=          18
  7.22305795E-01  1.05665029E+00 -2.46519033E-32  2.73821003E+00  8.99671889E-01
 -1.23259516E-32 -7.22305795E-01 -1.05796489E+00  2.46519033E-32 -2.73821003E+00
 -9.00986481E-01  1.23259516E-32  7.22305795E-01 -4.09378139E+00  1.97215226E-31
 -7.22305795E-01  4.09435653E+00 -1.97215226E-31
Number of symbols in /Mol/                 I                0
Int Atom Types                             I   N=           6
           0           0           0           0           0           0
Force Field                                I                0
Atom Types                                 C   N=           6
                                                            
            
MM charges                                 R   N=           6
  0.00000000E+00  0.00000000E+00  0.00000000E+00  0.00000000E+00  0.00000000E+00
  0.00000000E+00
Integer atomic weights                     I   N=           6
          12           1          12           1          32          32
Real atomic weights                        R   N=           6
  1.20000000E+01  1.00782504E+00  1.20000000E+01  1.00782504E+00  3.19720718E+01
  3.19720718E+01
Atom fragment info                         I   N=           6
           0           0           0           0           0           0
Atom residue num                           I   N=           6
           0           0           0           0           0           0
Nuclear spins                              I   N=           6
           0           1           0           1           0           0
Nuclear ZEff                               R   N=           6
 -3.60000000E+00 -1.00000000E+00 -3.60000000E+00 -1.00000000E+00 -1.36000000E+01
 -1.36000000E+01
Nuclear ZNuc                               R   N=           6
  6.00000000E+00  1.00000000E+00  6.00000000E+00  1.00000000E+00  1.60000000E+01
  1.60000000E+01
Nuclear QMom                               R   N=           6
  0.00000000E+00  0.00000000E+00  0.00000000E+00  0.00000000E+00  0.00000000E+00
  0.00000000E+00
Nuclear GFac                               R   N=           6
  0.00000000E+00  2.79284600E+00  0.00000000E+00  2.79284600E+00  0.00000000E+00
  0.00000000E+00
MicOpt                                     I   N=           6
          -1          -1          -1          -1          -1          -1
Number of residues                         I                0
Number of secondary structures             I                0
SymInf integers                            I   N=          26
           1           2           1           1           1           1
           1          -1           0           0           0           0
           0           0           0           0           0           0
           0           0           0           0           0           0
           0           0
RotTr to input orientation                 R   N=          12
 -1.00000000E+00 -1.14423775E-17  1.85416741E-17 -1.14423775E-17  1.00000000E+00
 -1.21052898E-16 -1.85416741E-17 -1.21052898E-16 -1.00000000E+00  0.00000000E+00
  6.57296043E-04  0.00000000E+00
Number of contracted shells                I               12
Number of primitive shells                 I               36
Pure/Cartesian d shells                    I                0
Pure/Cartesian f shells                    I                0
Highest angular momentum                   I                1
Largest degree of contraction              I                3
Shell types                                I   N=          12
           0          -1           0           0          -1           0
           0          -1          -1           0          -1          -1
Number of primitives per shell             I   N=          12
           3           3           3           3           3           3
           3           3           3           3           3           3
Shell to atom map                          I   N=          12
           1           1           2           3           3           4
           5           5           5           6           6           6
Primitive exponents                        R   N=          36
  7.16168373E+01  1.30450963E+01  3.53051216E+00  2.94124936E+00  6.83483096E-01
  2.22289916E-01  3.42525091E+00  6.23913730E-01  1.68855404E-01  7.16168373E+01
  1.30450963E+01  3.53051216E+00  2.94124936E+00  6.83483096E-01  2.22289916E-01
  3.42525091E+00  6.23913730E-01  1.68855404E-01  5.33125736E+02  9.71095183E+01
  2.62816254E+01  3.33297517E+01  7.74511752E+00  2.51895260E+00  2.02919427E+00
  5.66140052E-01  2.21583379E-01  5.33125736E+02  9.71095183E+01  2.62816254E+01
  3.33297517E+01  7.74511752E+00  2.51895260E+00  2.02919427E+00  5.66140052E-01
  2.21583379E-01
Contraction coefficients                   R   N=          36
  1.54328967E-01  5.35328142E-01  4.44634542E-01 -9.99672292E-02  3.99512826E-01
  7.00115469E-01  1.54328967E-01  5.35328142E-01  4.44634542E-01  1.54328967E-01
  5.35328142E-01  4.44634542E-01 -9.99672292E-02  3.99512826E-01  7.00115469E-01
  1.54328967E-01  5.35328142E-01  4.44634542E-01  1.54328967E-01  5.35328142E-01
  4.44634542E-01 -9.99672292E-02  3.99512826E-01  7.00115469E-01 -2.19620369E-01
  2.25595434E-01  9.00398426E-01  1.54328967E-01  5.35328142E-01  4.44634542E-01
 -9.99672292E-02  3.99512826E-01  7.00115469E-01 -2.19620369E-01  2.25595434E-01
  9.00398426E-01
P(S=P) Contraction coefficients            R   N=          36
  0.00000000E+00  0.00000000E+00  0.00000000E+00  1.55916275E-01  6.07683719E-01
  3.91957393E-01  0.00000000E+00  0.00000000E+00  0.00000000E+00  0.00000000E+00
  0.00000000E+00  0.00000000E+00  1.55916275E-01  6.07683719E-01  3.91957393E-01
  0.00000000E+00  0.00000000E+00  0.00000000E+00  0.00000000E+00  0.00000000E+00
  0.00000000E+00  1.55916275E-01  6.07683719E-01  3.91957393E-01  1.05876043E-02
  5.95167005E-01  4.62001012E-01  0.00000000E+00  0.00000000E+00  0.00000000E+00
  1.55916275E-01  6.07683719E-01  3.91957393E-01  1.05876043E-02  5.95167005E-01
  4.62001012E-01
Coordinates of each shell                  R   N=          36
  7.22305795E-01  1.05665029E+00 -9.68555557E-33  7.22305795E-01  1.05665029E+00
 -9.68555557E-33  2.73821003E+00  8.99671889E-01  1.56732947E-33 -7.22305795E-01
 -1.05796489E+00  9.70175917E-33 -7.22305795E-01 -1.05796489E+00  9.70175917E-33
 -2.73821003E+00 -9.00986481E-01 -1.55112587E-33  7.22305795E-01 -4.09378139E+00
  5.37984163E-32  7.22305795E-01 -4.09378139E+00  5.37984163E-32  7.22305795E-01
 -4.09378139E+00  5.37984163E-32 -7.22305795E-01  4.09435653E+00 -5.38055054E-32
 -7.22305795E-01  4.09435653E+00 -5.38055054E-32 -7.22305795E-01  4.09435653E+00
 -5.38055054E-32
Num ILSW                                   I              100
ILSW                                       I   N=         100
           0           0           0           0           2           0
           0           0           0           0           0          -1
           5           0           0           0           0           0
           0           0           0           0           0           0
           1           0           0           0           0           0
           0           0      100000           0          -1           0
           0           0           0           0           0           0
           0           0           0           1           0           0
           0 -2000000000           1           0           0           0
           0           0           4          52           0           0
           0           0           0           0           0           0
           0           0           0           6           0           1
           0           0           0           0           0           0
           0           0           0           0           0           0
           0           0           0           0           0           0
           0           0           0           0           0           0
           0           0           0           0
Num RLSW                                   I               52
RLSW                                       R   N=          52
  1.00000000E+00  1.00000000E+00  1.00000000E+00  1.00000000E+00  1.00000000E+00
  0.00000000E+00  0.00000000E+00  1.00000000E+00  0.00000000E+00  0.00000000E+00
  0.00000000E+00  0.00000000E+00  1.00000000E+00  0.00000000E+00  0.00000000E+00
  0.00000000E+00  0.00000000E+00  1.00000000E+00  0.00000000E+00  0.00000000E+00
  0.00000000E+00  0.00000000E+00  1.00000000E+00  0.00000000E+00  0.00000000E+00
  0.00000000E+00  0.00000000E+00  1.00000000E+00  0.00000000E+00  0.00000000E+00
  0.00000000E+00  0.00000000E+00  1.00000000E+00  0.00000000E+00  0.00000000E+00
  0.00000000E+00  0.00000000E+00  0.00000000E+00  1.00000000E+00  1.00000000E+00
  0.00000000E+00  1.00000000E+00  0.00000000E+00  0.00000000E+00  0.00000000E+00
  0.00000000E+00  0.00000000E+00  0.00000000E+00  0.00000000E+00  0.00000000E+00
  0.00000000E+00  0.00000000E+00
MxBond                                     I                3
NBond                                      I   N=           6
           3           1           3           1           1           1
IBond                                      I   N=          18
           2           3           6           1           0           0
           1           4           5           3           0           0
           3           0           0           1           0           0
RBond                                      R   N=          18
  1.00000000E+00  2.00000000E+00  1.00000000E+00  1.00000000E+00  0.00000000E+00
  0.00000000E+00  2.00000000E+00  1.00000000E+00  1.00000000E+00  1.00000000E+00
  0.00000000E+00  0.00000000E+00  1.00000000E+00  0.00000000E+00  0.00000000E+00
  1.00000000E+00  0.00000000E+00  0.00000000E+00
Virial Ratio                               R      2.010923604523808E+00
SCF Energy                                 R     -8.621597651775921E+02
Total Energy                               R     -8.621597651775921E+02
RMS Density                                R      6.615476416653007E-09
Job Status                                 I                1
Nuclear derivative order                   I                0
External E-field                           R   N=          35
  0.00000000E+00  0.00000000E+00  0.00000000E+00  0.00000000E+00  0.00000000E+00
  0.00000000E+00  0.00000000E+00  0.00000000E+00  0.00000000E+00  0.00000000E+00
  0.00000000E+00  0.00000000E+00  0.00000000E+00  0.00000000E+00  0.00000000E+00
  0.00000000E+00  0.00000000E+00  0.00000000E+00  0.00000000E+00  0.00000000E+00
  0.00000000E+00  0.00000000E+00  0.00000000E+00  0.00000000E+00  0.00000000E+00
  0.00000000E+00  0.00000000E+00  0.00000000E+00  0.00000000E+00  0.00000000E+00
  0.00000000E+00  0.00000000E+00  0.00000000E+00  0.00000000E+00  0.00000000E+00
IOpCl                                      I                0
IROHF                                      I                0
Alpha Orbital Energies                     R   N=          30
 -9.07031502E+01 -9.07030298E+01 -1.10470899E+01 -1.10466390E+01 -8.61381497E+00
 -8.61369708E+00 -6.24462625E+00 -6.24451592E+00 -6.24440743E+00 -6.24428882E+00
 -6.24057461E+00 -6.24046452E+00 -1.02997976E+00 -8.75251696E-01 -7.52928201E-01
 -7.08196744E-01 -5.46451104E-01 -4.64078078E-01 -3.76064167E-01 -3.61367581E-01
 -2.52699398E-01 -2.45684379E-01 -1.93445860E-01  7.60397966E-02  3.18146042E-01
  4.48867550E-01  5.22529698E-01  6.58002897E-01  8.58261433E-01  9.22135938E-01
Alpha MO coefficients                      R   N=         900
  3.91698297E-07 -2.54040772E-05 -2.92866312E-05  4.39752815E-06  0.00000000E+00
  4.55851234E-05 -6.58196554E-05  4.71709222E-04  1.97178803E-04 -3.99931976E-04
  0.00000000E+00  1.10397810E-05  9.94150457E-01  1.71091386E-02 -6.81679233E-05
  1.41450675E-04  0.00000000E+00 -2.29396060E-03  1.32533577E-04 -2.79890548E-04
  0.00000000E+00 -5.36108812E-03 -9.32373848E-05  1.44729536E-07  2.02847032E-06
  0.00000000E+00  1.65064431E-05 -1.44985616E-06 -7.18259330E-06  0.00000000E+00
 -6.57690947E-05  4.70617529E-04 -1.97201185E-04  3.99585668E-04  0.00000000E+00
  1.15305051E-05 -3.06545661E-07 -2.03006216E-05  3.14408955E-05 -8.75503898E-06
  0.00000000E+00  4.56493946E-05  5.36163874E-03  9.12979423E-05 -8.80745412E-07
 -5.03232645E-07  0.00000000E+00 -8.23823751E-06  2.88529527E-06  4.16248579E-06
  0.00000000E+00  9.94150478E-01  1.71090906E-02  6.80553037E-05 -1.41285474E-04
  0.00000000E+00 -2.29326959E-03 -1.32186328E-04  2.79218415E-04  0.00000000E+00
  6.85702034E-01  1.84889266E-02  1.72914899E-03  1.18073671E-03  0.00000000E+00
 -4.80193691E-03  7.17810626E-01  1.98742845E-02 -1.62524234E-03 -9.86451208E-04
  0.00000000E+00 -5.03098397E-03 -5.59880665E-05  1.10758956E-04 -1.45059710E-04
  3.63273666E-04  0.00000000E+00 -2.88922737E-03  1.16037271E-03 -2.69913036E-03
  0.00000000E+00 -5.34841306E-05  1.07292828E-04  1.37276143E-04 -3.47671956E-04
  0.00000000E+00 -2.74775740E-03 -1.10000615E-03  2.57205983E-03  0.00000000E+00
  7.17321177E-01  3.05735671E-02 -2.17008161E-03 -4.31131475E-03  0.00000000E+00
 -5.11507585E-03 -6.85188081E-01 -2.97001772E-02 -2.25031638E-03 -4.35612675E-03
  0.00000000E+00  4.88936079E-03  5.21044517E-05 -7.67647063E-05  1.63646337E-04
 -3.26584330E-04  0.00000000E+00  2.91182696E-03 -1.25078960E-03  2.64125348E-03
  0.00000000E+00 -5.45732291E-05  8.21120536E-05  1.69861200E-04 -3.42766023E-04
  0.00000000E+00 -3.03577727E-03 -1.29997261E-03  2.75915852E-03  0.00000000E+00
 -1.76625554E-04  1.88803009E-03 -2.84982933E-04  1.28004287E-03  0.00000000E+00
 -7.02564979E-04  1.15132234E-03 -8.25360248E-03 -3.01779268E-03  6.32733295E-03
  0.00000000E+00 -6.10645901E-05 -3.61017326E-01  1.02882265E+00 -4.65356007E-03
  9.63852581E-03  0.00000000E+00  4.91150297E-02 -2.65893800E-03  5.65085019E-03
  0.00000000E+00  6.88461527E-02 -1.96195974E-01 -8.89046869E-04  1.82623966E-03
  0.00000000E+00 -9.46159235E-03 -4.93005888E-04  1.17933467E-03  0.00000000E+00
  1.16837451E-03 -8.11502937E-03  3.12910145E-03 -6.29366140E-03  0.00000000E+00
 -3.43771839E-04  2.65393933E-04 -1.23377186E-03 -8.88316925E-04  1.12827129E-03
  0.00000000E+00 -7.78870338E-04 -6.88572487E-02  1.96229481E-01 -8.84620356E-04
  1.84991331E-03  0.00000000E+00  9.26327685E-03 -5.21076375E-04  9.66404990E-04
  0.00000000E+00 -3.61019916E-01  1.02883014E+00  4.64661087E-03 -9.63716520E-03
  0.00000000E+00  4.90667562E-02  2.65760101E-03 -5.59963927E-03  0.00000000E+00
  0.00000000E+00  0.00000000E+00  0.00000000E+00  0.00000000E+00  4.72562284E-05
  0.00000000E+00  0.00000000E+00  0.00000000E+00  0.00000000E+00  0.00000000E+00
 -4.00099743E-03  0.00000000E+00  0.00000000E+00  0.00000000E+00  0.00000000E+00
  0.00000000E+00  9.83720091E-01  0.00000000E+00  0.00000000E+00  0.00000000E+00
  5.27972614E-02  0.00000000E+00  0.00000000E+00  0.00000000E+00  0.00000000E+00
  5.25848003E-02  0.00000000E+00  0.00000000E+00  0.00000000E+00  2.84399939E-03
  0.00000000E+00  0.00000000E+00  0.00000000E+00  0.00000000E+00 -4.02321970E-03
  0.00000000E+00  0.00000000E+00  0.00000000E+00  0.00000000E+00  0.00000000E+00
  4.76406212E-04  0.00000000E+00  0.00000000E+00  0.00000000E+00  0.00000000E+00
  0.00000000E+00 -5.25981680E-02  0.00000000E+00  0.00000000E+00  0.00000000E+00
 -2.80106714E-03  0.00000000E+00  0.00000000E+00  0.00000000E+00  0.00000000E+00
  9.83721225E-01  0.00000000E+00  0.00000000E+00  0.00000000E+00  5.27931250E-02
 -1.91164068E-04  2.64357045E-03 -4.94118855E-04  1.54387453E-03  0.00000000E+00
 -6.21021288E-04  1.38662486E-03 -1.32527537E-02 -4.57767099E-03  9.51040847E-03
  0.00000000E+00  5.35655267E-05  4.84172485E-03 -1.41149849E-02 -4.15044744E-01
  8.75977717E-01  0.00000000E+00  7.06363589E-03 -2.54945504E-02  5.37630242E-02
  0.00000000E+00 -8.36612851E-04  2.44011355E-03 -6.68719789E-02  1.51756784E-01
  0.00000000E+00 -1.31063661E-03 -4.11044796E-03  9.41791107E-03  0.00000000E+00
 -1.40373067E-03  1.30997427E-02 -4.67440037E-03  9.53476434E-03  0.00000000E+00
  1.62218770E-04 -2.85758857E-04  1.86395734E-03  1.08886798E-03 -1.71524548E-03
  0.00000000E+00  6.39216527E-04 -8.18314405E-04  2.38444532E-03  7.55944914E-02
 -1.47660446E-01  0.00000000E+00 -1.09669678E-03  4.63668515E-03 -8.95155284E-03
  0.00000000E+00 -4.83409106E-03  1.40926933E-02 -4.16351511E-01  8.75366451E-01
  0.00000000E+00 -7.01081214E-03 -2.55663301E-02  5.36752262E-02  0.00000000E+00
  5.62837793E-05  9.99229237E-04 -7.70498048E-04 -8.78715392E-05  0.00000000E+00
 -8.64688245E-04  1.31489006E-05 -1.89279557E-04 -3.75392343E-03 -2.00223739E-03
  0.00000000E+00 -4.68232227E-04 -2.32662809E-05  6.78484864E-05  8.88663148E-01
  4.21671226E-01  0.00000000E+00  1.14357926E-05  4.53852822E-02  2.14915972E-02
  0.00000000E+00  1.89535457E-05 -6.03636127E-05  6.24145435E-02  2.40466614E-02
  0.00000000E+00 -1.19671335E-04  3.17447763E-03  1.33928169E-03  0.00000000E+00
 -2.10270943E-05  5.60408781E-05 -3.67935863E-03 -2.00541202E-03  0.00000000E+00
  5.89326118E-04 -5.78335783E-05 -9.86690357E-04 -2.66798307E-04  1.85355711E-04
  0.00000000E+00  9.35002732E-04 -1.45495041E-05  4.75757409E-05 -5.82253026E-02
 -3.29088832E-02  0.00000000E+00  1.21210070E-04 -2.98803803E-03 -1.55994866E-03
  0.00000000E+00  2.07182913E-05 -5.97258185E-05  8.88468010E-01  4.22088839E-01
  0.00000000E+00  4.63358356E-06  4.53757393E-02  2.14970951E-02  0.00000000E+00
 -1.66479147E-01  4.50523448E-01 -6.44462827E-02 -7.26269336E-02  0.00000000E+00
  1.03728915E-01 -1.66624577E-01  4.50926734E-01  6.45655293E-02  7.23444831E-02
  0.00000000E+00  1.03787205E-01  2.43788884E-02 -8.38825877E-02  1.05811062E-02
 -2.89027274E-02  0.00000000E+00  2.22629386E-01 -2.38740393E-02  6.47502585E-02
  0.00000000E+00  2.42924262E-02 -8.35809069E-02 -1.05361992E-02  2.88051942E-02
  0.00000000E+00  2.21879643E-01  2.37815975E-02 -6.45513157E-02  0.00000000E+00
  9.00462334E-02 -2.76450247E-01  3.89917448E-03 -1.49653640E-01  0.00000000E+00
 -8.10035783E-02 -8.97198355E-02  2.75486052E-01  3.86003132E-03 -1.50181676E-01
  0.00000000E+00  8.06875102E-02  5.29979711E-02 -1.80516420E-01  1.79704709E-02
 -3.33119990E-02  0.00000000E+00  5.21397351E-01 -4.16250693E-02  7.73731912E-02
  0.00000000E+00 -5.29734774E-02  1.80428180E-01  1.79405200E-02 -3.33115480E-02
  0.00000000E+00 -5.21199333E-01 -4.15646671E-02  7.73942030E-02  0.00000000E+00
  6.23870585E-02 -1.75690454E-01  1.28954662E-02  2.21297511E-01  0.00000000E+00
 -7.03739549E-02  6.24176642E-02 -1.75841973E-01 -1.28706817E-02 -2.21246234E-01
  0.00000000E+00 -7.04397627E-02  5.96278309E-02 -2.00687406E-01  7.31343699E-03
 -8.17606188E-04  0.00000000E+00  6.27648846E-01 -1.75093512E-02 -2.25155460E-03
  0.00000000E+00  5.97088079E-02 -2.00959016E-01 -7.30684531E-03  8.38679422E-04
  0.00000000E+00  6.28502167E-01  1.74933877E-02  2.19998831E-03  0.00000000E+00
  9.08641469E-02 -2.89759116E-01 -2.84722325E-01  3.61750778E-02  0.00000000E+00
 -3.08006885E-01 -9.09185965E-02  2.89950984E-01 -2.84812067E-01  3.62204917E-02
  0.00000000E+00  3.08107216E-01 -2.45769625E-02  8.22773674E-02  2.07255314E-02
  5.34296484E-04  0.00000000E+00 -2.65639606E-01 -5.84707070E-02 -8.73320906E-04
  0.00000000E+00  2.45668984E-02 -8.22441118E-02  2.06816007E-02  5.24681224E-04
  0.00000000E+00  2.65525423E-01 -5.83507026E-02 -8.48508745E-04  0.00000000E+00
  6.62369492E-04 -2.13572012E-02 -4.00043112E-01 -2.38449777E-01  0.00000000E+00
 -3.43508977E-01  6.08173225E-04 -2.11536041E-02  4.00084914E-01  2.38422584E-01
  0.00000000E+00 -3.43390817E-01  8.95448054E-03 -2.92215731E-02 -3.86199951E-02
 -1.67731344E-03  0.00000000E+00  1.07639281E-01  1.12578765E-01  7.70293844E-03
  0.00000000E+00  8.97422521E-03 -2.92867982E-02  3.85734588E-02  1.60010777E-03
  0.00000000E+00  1.07867055E-01 -1.12445774E-01 -7.48176639E-03  0.00000000E+00
 -6.31299142E-02  2.55728424E-01 -2.10562255E-01  2.59822664E-01  0.00000000E+00
 -7.66626308E-02  6.31440126E-02 -2.55829223E-01 -2.10645982E-01  2.60354175E-01
  0.00000000E+00  7.67477352E-02  3.39653858E-02 -1.09213484E-01 -3.71739251E-02
  1.22852180E-01  0.00000000E+00  4.32268019E-01  1.02436212E-01 -3.54798587E-01
  0.00000000E+00 -3.39079756E-02  1.09038106E-01 -3.70285276E-02  1.22608440E-01
  0.00000000E+00 -4.31423709E-01  1.02036356E-01 -3.54134170E-01  0.00000000E+00
  0.00000000E+00  0.00000000E+00  0.00000000E+00  0.00000000E+00  5.36624731E-01
  0.00000000E+00  0.00000000E+00  0.00000000E+00  0.00000000E+00  0.00000000E+00
  5.37089518E-01  0.00000000E+00  0.00000000E+00  0.00000000E+00  0.00000000E+00
  0.00000000E+00 -1.03450159E-01  0.00000000E+00  0.00000000E+00  0.00000000E+00
  3.23935630E-01  0.00000000E+00  0.00000000E+00  0.00000000E+00  0.00000000E+00
 -1.03221520E-01  0.00000000E+00  0.00000000E+00  0.00000000E+00  3.23236842E-01
  2.29078988E-02 -1.33079814E-01  1.70652404E-01 -3.54063987E-01  0.00000000E+00
  1.90793369E-01  2.27771464E-02 -1.32502581E-01 -1.70344092E-01  3.53600620E-01
  0.00000000E+00  1.90758366E-01  1.86048285E-02 -5.80657194E-02 -8.68325036E-02
  1.26264487E-01  0.00000000E+00  2.60324073E-01  2.64098087E-01 -3.73147346E-01
  0.00000000E+00  1.86436844E-02 -5.81973151E-02  8.67437313E-02 -1.26506406E-01
  0.00000000E+00  2.60742322E-01 -2.63817528E-01  3.73915017E-01  0.00000000E+00
  1.45297859E-02 -6.17768051E-02 -1.54366521E-02  6.71786853E-02  0.00000000E+00
 -9.38276627E-02 -1.44332854E-02  6.14517712E-02 -1.57187704E-02  6.63227840E-02
  0.00000000E+00  9.44053594E-02  9.09412023E-04 -2.72910614E-03 -2.05542861E-01
 -8.07638287E-02  0.00000000E+00  1.43235611E-02  6.75553174E-01  2.69180680E-01
  0.00000000E+00 -9.22627002E-04  2.76916465E-03 -2.04686128E-01 -8.00177596E-02
  0.00000000E+00 -1.45229802E-02  6.72695821E-01  2.66756209E-01  0.00000000E+00
 -1.46333800E-02  5.31998364E-02 -4.71493895E-02 -1.05699728E-01  0.00000000E+00
 -9.58404484E-02 -1.46899084E-02  5.34619844E-02  4.71267294E-02  1.05918366E-01
  0.00000000E+00 -9.55286757E-02  1.34244259E-03 -3.99215645E-03  1.83832949E-01
  1.18586841E-01  0.00000000E+00  2.13082226E-02 -6.09495325E-01 -3.86897950E-01
  0.00000000E+00  1.34201363E-03 -3.99207724E-03 -1.84906451E-01 -1.18995391E-01
  0.00000000E+00  2.12864355E-02  6.13016824E-01  3.88246983E-01  0.00000000E+00
  0.00000000E+00  0.00000000E+00  0.00000000E+00  0.00000000E+00  2.97795841E-01
  0.00000000E+00  0.00000000E+00  0.00000000E+00  0.00000000E+00  0.00000000E+00
 -2.97093681E-01  0.00000000E+00  0.00000000E+00  0.00000000E+00  0.00000000E+00
  0.00000000E+00  2.00018659E-01  0.00000000E+00  0.00000000E+00  0.00000000E+00
 -6.45954618E-01  0.00000000E+00  0.00000000E+00  0.00000000E+00  0.00000000E+00
 -2.00175863E-01  0.00000000E+00  0.00000000E+00  0.00000000E+00  6.46467894E-01
  0.00000000E+00  0.00000000E+00  0.00000000E+00  0.00000000E+00 -3.53170584E-01
  0.00000000E+00  0.00000000E+00  0.00000000E+00  0.00000000E+00  0.00000000E+00
 -3.52806612E-01  0.00000000E+00  0.00000000E+00  0.00000000E+00  0.00000000E+00
  0.00000000E+00 -1.99938360E-01  0.00000000E+00  0.00000000E+00  0.00000000E+00
  6.61801393E-01  0.00000000E+00  0.00000000E+00  0.00000000E+00  0.00000000E+00
 -1.99959609E-01  0.00000000E+00  0.00000000E+00  0.00000000E+00  6.61855757E-01
  0.00000000E+00  0.00000000E+00  0.00000000E+00  0.00000000E+00 -7.56327412E-01
  0.00000000E+00  0.00000000E+00  0.00000000E+00  0.00000000E+00  0.00000000E+00
  7.56482963E-01  0.00000000E+00  0.00000000E+00  0.00000000E+00  0.00000000E+00
  0.00000000E+00  1.02953486E-01  0.00000000E+00  0.00000000E+00  0.00000000E+00
 -3.54043887E-01  0.00000000E+00  0.00000000E+00  0.00000000E+00  0.00000000E+00
 -1.02819106E-01  0.00000000E+00  0.00000000E+00  0.00000000E+00  3.53556300E-01
 -9.53977883E-02  5.06499491E-01 -3.02215974E-01  3.85385207E-01  0.00000000E+00
  3.69928427E-02  9.46952036E-02 -5.02601350E-01 -3.01864282E-01  3.81499897E-01
  0.00000000E+00 -3.91119432E-02  2.07907128E-02 -6.19413560E-02  7.71964644E-02
 -1.83771608E-01  0.00000000E+00  3.31579533E-01 -2.83805876E-01  6.75501945E-01
  0.00000000E+00 -2.09130732E-02  6.23151471E-02  7.78356407E-02 -1.84893873E-01
  0.00000000E+00 -3.33410976E-01 -2.86098250E-01  6.79522661E-01  0.00000000E+00
 -1.06289541E-01  6.25526432E-01 -1.71657054E-03  5.24305393E-01  0.00000000E+00
 -3.51990803E-01 -1.06978510E-01  6.29414499E-01  4.29909815E-03 -5.27493110E-01
  0.00000000E+00 -3.51359709E-01 -1.86693840E-02  5.47081484E-02 -9.11547774E-02
  1.48854661E-01  0.00000000E+00 -3.09046726E-01  3.39169237E-01 -5.57434799E-01
  0.00000000E+00 -1.84995942E-02  5.42209352E-02  9.05082682E-02 -1.47524743E-01
  0.00000000E+00 -3.06105394E-01 -3.36694880E-01  5.52354801E-01  0.00000000E+00
 -1.27977109E-01  8.07017348E-01  4.71323340E-01 -1.65980788E-01  0.00000000E+00
 -9.07876019E-01  1.28027062E-01 -8.07333757E-01  4.71379645E-01 -1.65785822E-01
  0.00000000E+00  9.08089185E-01  2.17555203E-03 -7.20264768E-03  1.59588070E-02
 -1.00026364E-02  0.00000000E+00  2.76336590E-02 -5.92691217E-02  3.59345736E-02
  0.00000000E+00 -2.16720895E-03  7.17899140E-03  1.59022678E-02 -9.96385885E-03
  0.00000000E+00 -2.74924897E-02 -5.90490377E-02  3.57836151E-02  0.00000000E+00
  5.11111958E-02 -3.81721357E-01 -8.26371298E-01  3.06066877E-01  0.00000000E+00
  8.19552271E-01  5.09896938E-02 -3.80868111E-01  8.26820733E-01 -3.06127237E-01
  0.00000000E+00  8.19528872E-01 -8.00590460E-03  2.17779932E-02 -7.79728215E-03
  5.91167344E-02  0.00000000E+00 -1.53058600E-01  3.42299329E-02 -2.39627424E-01
  0.00000000E+00 -7.98742646E-03  2.17349580E-02  7.75940799E-03 -5.89872407E-02
  0.00000000E+00 -1.52610043E-01 -3.40548042E-02  2.39037975E-01  0.00000000E+00
  1.14053766E-01 -8.46216439E-01  6.76774898E-01  8.99743496E-01  0.00000000E+00
 -1.35675769E-01 -1.14069269E-01  8.46314198E-01  6.76507149E-01  8.99867725E-01
  0.00000000E+00  1.35431576E-01  1.85852549E-03 -5.07706833E-03  3.01902318E-02
  9.91597246E-04  0.00000000E+00  3.48004865E-02 -1.19803689E-01 -3.97787134E-03
  0.00000000E+00 -1.85646921E-03  5.07130089E-03  3.01601161E-02  9.74973017E-04
  0.00000000E+00 -3.47498882E-02 -1.19658342E-01 -3.91672409E-03  0.00000000E+00
Orthonormal basis                          R   N=         900
  1.14029882E-01  3.59614628E-01 -6.14049876E-02 -1.18558145E-01  0.00000000E+00
  2.06941383E-01  1.14099606E-01  3.59807354E-01  6.15318718E-02  1.18257696E-01
  0.00000000E+00  2.06978234E-01  9.99132631E-03  2.85046779E-02 -8.05328578E-03
  3.02185180E-02  0.00000000E+00  9.50929492E-02 -3.20930712E-02  1.21665715E-01
  0.00000000E+00  9.95272649E-03  2.83970687E-02  8.02018075E-03 -3.01301923E-02
  0.00000000E+00  9.47871070E-02  3.19708725E-02 -1.21337438E-01  0.00000000E+00
  1.01695134E-01  2.25278799E-01  2.82421685E-01  7.17192809E-02  0.00000000E+00
  3.25267007E-01 -1.01634973E-01 -2.25134772E-01  2.82480562E-01  7.19252505E-02
  0.00000000E+00 -3.25186705E-01 -1.30558172E-02 -2.83207612E-02  3.83669379E-02
 -1.44039884E-02  0.00000000E+00 -6.31214222E-02  1.12996755E-01 -4.15450831E-02
  0.00000000E+00  1.30432295E-02  2.82945316E-02  3.82950350E-02 -1.44256994E-02
  0.00000000E+00  6.30834365E-02  1.12794017E-01 -4.16162930E-02  0.00000000E+00
  4.93497962E-02  1.12575892E-01 -2.23660096E-01  2.83023822E-01  0.00000000E+00
 -7.72181334E-02 -4.91317360E-02 -1.12084976E-01 -2.23675844E-01  2.83525468E-01
  0.00000000E+00  7.76042347E-02 -6.24265551E-02 -1.23626170E-01  2.74614912E-02
 -9.05787547E-02  0.00000000E+00 -2.21061938E-01  6.68653381E-02 -2.29596422E-01
  0.00000000E+00  6.23452265E-02  1.23469694E-01  2.74139854E-02 -9.05501498E-02
  0.00000000E+00  2.20881046E-01  6.67689119E-02 -2.29583395E-01  0.00000000E+00
 -3.29527032E-02 -1.64232834E-02  1.66632645E-01  3.63200849E-01  0.00000000E+00
  9.01927183E-02 -3.30453352E-02 -1.65905348E-02 -1.66628251E-01 -3.63016936E-01
  0.00000000E+00  9.00744023E-02  1.48751578E-01  2.15345838E-01 -9.68725163E-02
  4.40151320E-02  0.00000000E+00  2.09015007E-01 -1.78797435E-01  7.36883465E-02
  0.00000000E+00  1.48880884E-01  2.15536050E-01  9.68239545E-02 -4.42417602E-02
  0.00000000E+00  2.09262166E-01  1.78723151E-01 -7.41327029E-02  0.00000000E+00
 -6.00141997E-03 -1.63145494E-02 -2.93508902E-01 -9.06989803E-02  0.00000000E+00
 -2.31302998E-01 -5.94570664E-03 -1.62501886E-02  2.93421096E-01  9.07222938E-02
  0.00000000E+00 -2.31189343E-01  2.44638830E-01  2.94835010E-01  9.42672783E-02
  2.33032895E-02  0.00000000E+00  1.62416614E-01  1.46502599E-01  3.37740464E-02
  0.00000000E+00  2.45036604E-01  2.95315331E-01 -9.41977178E-02 -2.31974224E-02
  0.00000000E+00  1.62701202E-01 -1.46398371E-01 -3.36185315E-02  0.00000000E+00
  3.76065285E-02  4.20396229E-02 -4.52047621E-02  7.42757662E-02  0.00000000E+00
 -5.04480105E-03 -3.75930128E-02 -4.19987969E-02 -4.49207216E-02  7.43424314E-02
  0.00000000E+00  4.86858463E-03  3.37202439E-01  3.81154257E-01  5.31556422E-02
 -1.39144885E-01  0.00000000E+00  1.56796828E-01  7.53921328E-02 -1.98409565E-01
  0.00000000E+00 -3.36873057E-01 -3.80781214E-01  5.29982679E-02 -1.39131591E-01
  0.00000000E+00 -1.56628168E-01  7.51701075E-02 -1.98399527E-01  0.00000000E+00
  1.10837545E-02  4.12137004E-03  2.14068963E-01 -1.48908446E-01  0.00000000E+00
  1.90002071E-01  1.10777912E-02  4.15885088E-03 -2.14031879E-01  1.48807848E-01
  0.00000000E+00  1.89996828E-01  1.66696118E-01  1.62188652E-01  7.56446553E-02
 -2.90913407E-01  0.00000000E+00  1.84092185E-02  8.94648443E-02 -3.48092967E-01
  0.00000000E+00  1.66681455E-01  1.62171802E-01 -7.56281846E-02  2.91122196E-01
  0.00000000E+00  1.83536055E-02 -8.94548506E-02  3.48373841E-01  0.00000000E+00
 -5.23834808E-02 -4.25359591E-02 -4.97631235E-02  2.33397020E-02  0.00000000E+00
 -7.43644267E-02  5.24462263E-02  4.25694876E-02 -4.93424825E-02  2.35404834E-02
  0.00000000E+00  7.40120909E-02  6.36870419E-03  4.94191136E-03  4.17434275E-01
  1.71621148E-01  0.00000000E+00 -9.54057842E-04  3.96100078E-01  1.64159082E-01
  0.00000000E+00 -6.32381294E-03 -4.90766298E-03  4.18913311E-01  1.72043044E-01
  0.00000000E+00  9.36200878E-04  3.97509031E-01  1.64558154E-01  0.00000000E+00
 -5.12695467E-02 -3.01208900E-02  1.78377848E-01  1.07191424E-01  0.00000000E+00
  1.44139425E-01 -5.09666406E-02 -2.98909657E-02 -1.78578083E-01 -1.07129920E-01
  0.00000000E+00  1.44492408E-01 -1.07323469E-02 -7.56387169E-03  4.01460026E-01
  1.81622727E-01  0.00000000E+00  5.62594741E-03  3.51081777E-01  1.58158829E-01
  0.00000000E+00 -1.07271647E-02 -7.56061205E-03 -4.00018052E-01 -1.80951674E-01
  0.00000000E+00  5.61540326E-03 -3.49822036E-01 -1.57567888E-01  0.00000000E+00
  1.42899421E-01  8.07615382E-02 -7.01222984E-02  1.30016730E-01  0.00000000E+00
 -3.62323613E-03 -1.42883403E-01 -8.07595247E-02 -7.01466345E-02  1.29925967E-01
  0.00000000E+00  3.62787564E-03  2.64103889E-01  1.17928175E-01 -1.60697899E-01
  3.96997376E-01  0.00000000E+00 -2.65641255E-01 -8.91555534E-02  2.18886185E-01
  0.00000000E+00 -2.63813687E-01 -1.17797024E-01 -1.60534243E-01  3.96696433E-01
  0.00000000E+00  2.65380274E-01 -8.90573432E-02  2.18705663E-01  0.00000000E+00
  8.10388654E-02  5.80574751E-02 -1.28140708E-01  2.00495999E-01  0.00000000E+00
 -8.86126055E-02  8.08041120E-02  5.79526145E-02  1.28020717E-01 -2.00305331E-01
  0.00000000E+00 -8.85793591E-02 -3.33480706E-01 -1.06143306E-01  1.53278806E-01
 -2.81894678E-01  0.00000000E+00  3.78834615E-01  6.06681470E-02 -1.13928575E-01
  0.00000000E+00 -3.33631963E-01 -1.06188043E-01 -1.53205762E-01  2.82243675E-01
  0.00000000E+00  3.79071706E-01 -6.06288947E-02  1.14035058E-01  0.00000000E+00
  6.39454100E-01  2.45716059E-02 -6.53122876E-02 -6.11147181E-02  0.00000000E+00
 -1.14223053E-01 -6.39387483E-01 -2.45688175E-02 -6.52991343E-02 -6.12289301E-02
  0.00000000E+00  1.14192906E-01 -1.62041773E-01 -1.04787379E-03  4.35353744E-02
  4.72438890E-02  0.00000000E+00  2.19444618E-01 -1.37759565E-04 -4.34198270E-03
  0.00000000E+00  1.62166407E-01  1.04737642E-03  4.34421124E-02  4.71419234E-02
  0.00000000E+00 -2.19639453E-01 -1.42215365E-04 -4.32845084E-03  0.00000000E+00
  6.63758511E-01 -4.65231462E-02  4.99847396E-02  1.38209969E-01  0.00000000E+00
 -1.15476630E-01  6.64011117E-01 -4.65336590E-02 -4.99674993E-02 -1.38166094E-01
  0.00000000E+00 -1.15537518E-01  1.15473517E-01 -1.17683849E-02  8.89225030E-02
 -1.82249946E-02  0.00000000E+00 -1.66304826E-01 -1.40452248E-02  1.18585026E-03
  0.00000000E+00  1.15577142E-01 -1.17781131E-02 -8.87993213E-02  1.83101509E-02
  0.00000000E+00 -1.66441170E-01  1.40275388E-02 -1.19921003E-03  0.00000000E+00
 -1.88372760E-01  7.28585484E-02 -5.38964917E-02  1.79962852E-01  0.00000000E+00
  5.61702157E-02  1.87800443E-01 -7.25309157E-02 -5.35303512E-02  1.79490733E-01
  0.00000000E+00 -5.61771657E-02 -2.70848913E-01  1.10061329E-01 -2.15392971E-01
  4.32813519E-01  0.00000000E+00  3.48081731E-01  1.16041049E-01 -2.33156198E-01
  0.00000000E+00  2.71328643E-01 -1.10254311E-01 -2.15683573E-01  4.33780816E-01
  0.00000000E+00 -3.48662111E-01  1.16207177E-01 -2.33695514E-01  0.00000000E+00
  1.77278760E-01 -1.06149812E-01  1.15762674E-01 -1.63368073E-01  0.00000000E+00
  1.59248039E-02  1.77572276E-01 -1.06240473E-01 -1.15856566E-01  1.63612241E-01
  0.00000000E+00  1.58664861E-02 -2.21963292E-01  1.06045712E-01 -2.30844634E-01
  4.72805493E-01  0.00000000E+00  2.75239460E-01  1.45024200E-01 -2.96031169E-01
  0.00000000E+00 -2.21430426E-01  1.05788378E-01  2.30200904E-01 -4.71878674E-01
  0.00000000E+00  2.74529851E-01 -1.44630939E-01  2.95475079E-01  0.00000000E+00
  4.06966674E-02 -3.53489954E-02 -5.62068865E-03  3.11168216E-02  0.00000000E+00
 -9.08424817E-02 -4.09721422E-02  3.55730658E-02 -5.37810976E-03  3.14722195E-02
  0.00000000E+00  9.05436844E-02 -2.85381211E-03  2.25027021E-03 -5.13370369E-01
 -2.44268765E-01  0.00000000E+00  2.89749629E-03  5.25244471E-01  2.50440140E-01
  0.00000000E+00  2.82640441E-03 -2.22827688E-03 -5.16966797E-01 -2.45856158E-01
  0.00000000E+00 -2.86303081E-03  5.28932549E-01  2.52059948E-01  0.00000000E+00
  5.63253607E-02 -4.66451707E-02  4.54264322E-02  7.44187102E-02  0.00000000E+00
  5.16991371E-02  5.59683851E-02 -4.63340849E-02 -4.54585085E-02 -7.41831989E-02
  0.00000000E+00  5.25020815E-02  3.16547604E-03 -2.67479886E-03 -5.06092729E-01
 -2.56199629E-01  0.00000000E+00 -5.24139440E-03  5.28300685E-01  2.65823133E-01
  0.00000000E+00  3.18306269E-03 -2.68854517E-03  5.02655703E-01  2.54414822E-01
  0.00000000E+00 -5.25227492E-03 -5.24719081E-01 -2.63962975E-01  0.00000000E+00
  3.49834574E-02 -5.19624174E-02  4.71208909E-02 -1.31414121E-01  0.00000000E+00
 -3.98234107E-02 -3.47856024E-02  5.16222818E-02  4.68165673E-02 -1.30897533E-01
  0.00000000E+00  3.98223951E-02  5.10140925E-01 -5.96641069E-01 -8.13604043E-02
  1.71406856E-01  0.00000000E+00  2.08931316E-01  1.28439715E-01 -2.70295525E-01
  0.00000000E+00 -5.11615317E-01  5.98364105E-01 -8.15894337E-02  1.71948563E-01
  0.00000000E+00 -2.09558196E-01  1.28793867E-01 -2.71139091E-01  0.00000000E+00
  3.66746218E-02 -7.08465330E-02  6.89263377E-02 -1.03734612E-01  0.00000000E+00
  3.75868159E-04  3.67268731E-02 -7.09357016E-02 -6.89937879E-02  1.03967980E-01
  0.00000000E+00  3.06609467E-04 -5.24390527E-01  6.23127339E-01  6.45847689E-02
 -1.29568159E-01  0.00000000E+00 -2.48583546E-01 -1.03884938E-01  2.09110579E-01
  0.00000000E+00 -5.22812501E-01  6.21250377E-01 -6.43550683E-02  1.29220524E-01
  0.00000000E+00 -2.47864885E-01  1.03508884E-01 -2.08535733E-01  0.00000000E+00
 -5.98870380E-02  1.20429576E-01 -3.04179331E-01  5.22634425E-01  0.00000000E+00
  2.92226501E-01  5.88685160E-02 -1.17581831E-01 -3.01917898E-01  5.18749793E-01
  0.00000000E+00 -2.92033597E-01  1.33747000E-01 -2.37671978E-01  9.07688574E-02
 -2.07971299E-01  0.00000000E+00  4.99765482E-01 -2.27531903E-01  5.18909811E-01
  0.00000000E+00 -1.34655341E-01  2.39290881E-01  9.14564607E-02 -2.09400755E-01
  0.00000000E+00 -5.03083093E-01 -2.29220095E-01  5.22445250E-01  0.00000000E+00
  1.33371204E-01 -4.39954237E-01  3.60452237E-01 -5.68114359E-01  0.00000000E+00
 -5.58019919E-02  1.33388265E-01 -4.39784279E-01 -3.64933189E-01  5.71270824E-01
  0.00000000E+00 -6.05966704E-02  9.35845811E-02 -1.83142153E-01  9.30221325E-02
 -1.86593188E-01  0.00000000E+00  5.06713740E-01 -2.62561895E-01  5.30150707E-01
  0.00000000E+00  9.29572849E-02 -1.81926048E-01 -9.24905136E-02  1.85320500E-01
  0.00000000E+00  5.03152071E-01  2.61010187E-01 -5.26470405E-01  0.00000000E+00
  6.06120923E-02 -1.71420049E-01 -7.40962668E-01 -4.92954394E-01  0.00000000E+00
  7.74922161E-01 -6.09747734E-02  1.72709187E-01 -7.39628825E-01 -4.94816849E-01
  0.00000000E+00 -7.74495788E-01 -2.13116529E-02  4.41424024E-02 -5.03826510E-02
  3.13421413E-02  0.00000000E+00 -1.27323302E-01  1.48618976E-01 -9.25713612E-02
  0.00000000E+00  2.10567819E-02 -4.36233202E-02 -5.00569923E-02  3.08231533E-02
  0.00000000E+00  1.25682106E-01  1.47627753E-01 -9.09976481E-02  0.00000000E+00
  1.45378154E-01 -6.67989811E-01 -7.16123037E-01  5.68403564E-02  0.00000000E+00
  8.86322866E-01  1.45395880E-01 -6.68036533E-01  7.16281932E-01 -5.65767368E-02
  0.00000000E+00  8.86445895E-01  2.97915166E-03 -7.88857222E-03  2.69528922E-02
 -2.01126761E-03  0.00000000E+00  7.86846024E-03 -8.36778956E-02  9.03771588E-05
  0.00000000E+00  2.95852287E-03 -7.83987966E-03 -2.68869763E-02  1.97841335E-03
  0.00000000E+00  7.74466883E-03  8.34633073E-02 -3.33773241E-06  0.00000000E+00
  2.43467491E-01 -1.31340446E+00  3.29226780E-01  6.34704302E-01  0.00000000E+00
  3.62815004E-01 -2.43568778E-01  1.31389544E+00  3.29555265E-01  6.34209628E-01
  0.00000000E+00 -3.62776962E-01 -1.15870706E-02  2.91196195E-02 -4.36181124E-03
  4.41213162E-02  0.00000000E+00 -1.19223444E-01  1.52071167E-02 -1.62715214E-01
  0.00000000E+00  1.15437992E-02 -2.90199690E-02 -4.29511458E-03  4.39736008E-02
  0.00000000E+00  1.18677277E-01  1.49580599E-02 -1.62128507E-01  0.00000000E+00
  0.00000000E+00  0.00000000E+00  0.00000000E+00  0.00000000E+00  4.14325150E-01
  0.00000000E+00  0.00000000E+00  0.00000000E+00  0.00000000E+00  0.00000000E+00
  4.14607162E-01  0.00000000E+00  0.00000000E+00  0.00000000E+00  0.00000000E+00
  0.00000000E+00  2.66913767E-01  0.00000000E+00  0.00000000E+00  0.00000000E+00
  3.56695441E-01  0.00000000E+00  0.00000000E+00  0.00000000E+00  0.00000000E+00
  2.66262343E-01  0.00000000E+00  0.00000000E+00  0.00000000E+00  3.55832837E-01
  0.00000000E+00  0.00000000E+00  0.00000000E+00  0.00000000E+00  1.00766274E-01
  0.00000000E+00  0.00000000E+00  0.00000000E+00  0.00000000E+00  0.00000000E+00
 -1.00464646E-01  0.00000000E+00  0.00000000E+00  0.00000000E+00  0.00000000E+00
  0.00000000E+00 -4.27551229E-01  0.00000000E+00  0.00000000E+00  0.00000000E+00
 -4.47096072E-01  0.00000000E+00  0.00000000E+00  0.00000000E+00  0.00000000E+00
  4.28438719E-01  0.00000000E+00  0.00000000E+00  0.00000000E+00  4.48026955E-01
  0.00000000E+00  0.00000000E+00  0.00000000E+00  0.00000000E+00  4.65646337E-01
  0.00000000E+00  0.00000000E+00  0.00000000E+00  0.00000000E+00  0.00000000E+00
  4.65405824E-01  0.00000000E+00  0.00000000E+00  0.00000000E+00  0.00000000E+00
  0.00000000E+00 -3.95338999E-01  0.00000000E+00  0.00000000E+00  0.00000000E+00
 -2.46153136E-01  0.00000000E+00  0.00000000E+00  0.00000000E+00  0.00000000E+00
 -3.94756615E-01  0.00000000E+00  0.00000000E+00  0.00000000E+00 -2.45782917E-01
  0.00000000E+00  0.00000000E+00  0.00000000E+00  0.00000000E+00  5.68531194E-01
  0.00000000E+00  0.00000000E+00  0.00000000E+00  0.00000000E+00  0.00000000E+00
 -5.68266703E-01  0.00000000E+00  0.00000000E+00  0.00000000E+00  0.00000000E+00
  0.00000000E+00  4.44381320E-01  0.00000000E+00  0.00000000E+00  0.00000000E+00
 -2.97099633E-01  0.00000000E+00  0.00000000E+00  0.00000000E+00  0.00000000E+00
 -4.43911972E-01  0.00000000E+00  0.00000000E+00  0.00000000E+00  2.96797530E-01
  0.00000000E+00  0.00000000E+00  0.00000000E+00  0.00000000E+00 -1.56371987E-01
  0.00000000E+00  0.00000000E+00  0.00000000E+00  0.00000000E+00  0.00000000E+00
 -1.55569384E-01  0.00000000E+00  0.00000000E+00  0.00000000E+00  0.00000000E+00
  0.00000000E+00 -5.55042147E-01  0.00000000E+00  0.00000000E+00  0.00000000E+00
  5.96582000E-01  0.00000000E+00  0.00000000E+00  0.00000000E+00  0.00000000E+00
 -5.56272128E-01  0.00000000E+00  0.00000000E+00  0.00000000E+00  5.97903388E-01
  0.00000000E+00  0.00000000E+00  0.00000000E+00  0.00000000E+00 -5.71926279E-01
  0.00000000E+00  0.00000000E+00  0.00000000E+00  0.00000000E+00  0.00000000E+00
  5.72504424E-01  0.00000000E+00  0.00000000E+00  0.00000000E+00  0.00000000E+00
  0.00000000E+00  3.94808148E-01  0.00000000E+00  0.00000000E+00  0.00000000E+00
 -5.06378357E-01  0.00000000E+00  0.00000000E+00  0.00000000E+00  0.00000000E+00
 -3.93660522E-01  0.00000000E+00  0.00000000E+00  0.00000000E+00  5.04897475E-01
Total SCF Density                          R   N=         465
  2.07529656E+00 -2.46976495E-01  9.71918810E-01  6.11144887E-03 -3.91383624E-02
  6.42820024E-01 -1.74890402E-02  1.36488695E-01 -3.83791896E-02  6.87047300E-01
  0.00000000E+00 -1.86325964E-33  3.44432323E-33 -8.64590931E-33  7.53329308E-01
 -1.09760499E-01  2.67064123E-01  5.43750626E-01 -4.76893463E-02  0.00000000E+00
  5.90920107E-01  2.50781633E-02 -5.87007056E-02  6.21455778E-02  9.72658580E-02
  0.00000000E+00  3.14180539E-02  2.07528842E+00 -5.87053086E-02  5.00518530E-02
 -1.52922834E-01 -2.36575455E-01  0.00000000E+00 -1.23387787E-01 -2.46918878E-01
  9.71668070E-01 -6.21411441E-02  1.52890172E-01 -1.39928981E-01 -2.28519616E-01
  1.84649057E-33 -1.23568133E-01 -6.10277931E-03  3.90688187E-02  6.42891814E-01
 -9.72872654E-02  2.36613575E-01 -2.28550346E-01 -3.03112701E-01 -1.47719246E-32
 -5.33363064E-02  1.74813697E-02 -1.36363729E-01 -3.83237613E-02  6.86978732E-01
  0.00000000E+00 -2.20979366E-33  2.17031632E-33  2.67988184E-33  3.99480299E-01
  0.00000000E+00  0.00000000E+00  1.86139787E-33  3.44397186E-33 -8.64480794E-33
  7.53492081E-01  3.14222840E-02 -1.23435630E-01  1.23551741E-01  5.32957566E-02
  0.00000000E+00  1.26110956E-01 -1.09762048E-01  2.67109538E-01 -5.43732078E-01
  4.76452400E-02  0.00000000E+00  5.90919463E-01  9.29108987E-04 -2.26330558E-03
 -2.75155821E-03  5.20673667E-03  0.00000000E+00 -8.30338126E-04 -1.77596607E-03
  4.61938516E-04  5.28489783E-03 -1.04627777E-02  0.00000000E+00 -3.68066842E-03
  2.26521609E+00 -3.40536286E-03  8.50601877E-03  8.02317633E-03 -1.77109134E-02
  0.00000000E+00  3.78534970E-03  6.74928229E-03 -2.13543904E-03 -1.82238352E-02
  3.69442326E-02  0.00000000E+00  1.33987546E-02 -7.97310635E-01  2.40064738E+00
 -6.21249505E-03  3.72779693E-02 -8.15032698E-03 -7.83369112E-03  3.98335798E-35
 -1.31391991E-02 -1.93791138E-02  7.80748348E-02  2.49940342E-02 -1.04899829E-01
 -1.09960303E-33 -7.02884005E-02 -4.89014557E-03  1.45942537E-02  2.11697035E+00
 -1.17679084E-02  4.58497743E-02 -1.27324148E-02 -4.68948735E-02 -3.18668638E-34
  2.01895386E-02  3.90428212E-02 -1.61310230E-01 -9.82229065E-02  1.88692861E-01
  8.79682428E-33  1.87822312E-02  9.89376768E-03 -2.94290618E-02  4.77923868E-02
  2.04339321E+00  0.00000000E+00 -3.92834684E-34  1.19266428E-34  5.41814806E-34
  8.61782380E-03  0.00000000E+00  0.00000000E+00  2.34918208E-33  1.32621902E-33
 -2.81069042E-33 -2.37894391E-01  0.00000000E+00  0.00000000E+00  4.30199218E-34
  9.19604117E-33 -2.49658584E-32  2.04236237E+00  7.31741150E-03 -6.46868128E-03
 -3.89257459E-02  5.65270783E-02  0.00000000E+00 -1.07369231E-02  1.64464440E-02
 -1.78715558E-01 -1.55655381E-02  4.63211667E-02  0.00000000E+00 -3.13466824E-02
  1.53861870E-01 -5.48003050E-01 -6.85894555E-02  1.39088682E-01  0.00000000E+00
  2.11073499E+00  2.42254551E-02 -1.29444343E-01  2.90833460E-02  3.61125746E-02
 -1.71179405E-34  3.80148807E-02  5.06833944E-02 -1.80671572E-01 -9.14572384E-02
  2.66138571E-01  3.38050524E-33  2.37860217E-01  1.56022720E-02 -4.69288315E-02
 -4.65756960E-01 -1.65687672E-01 -1.02270681E-33  1.98068734E-01  1.85910022E+00
  3.88870228E-02 -1.39880022E-01  3.67556453E-02  1.60497185E-01  1.36943524E-33
 -6.79983886E-02 -1.01109218E-01  3.71297931E-01  2.46638230E-01 -5.03132797E-01
 -2.70440420E-32 -5.16405733E-02 -3.14996946E-02  9.44027993E-02 -1.65892229E-01
 -2.10398940E-01  8.18165445E-33 -3.99596222E-01  5.57007364E-01  1.00199147E+00
  0.00000000E+00  1.12583262E-33 -3.18618338E-34 -1.81135984E-33 -3.70339286E-02
  0.00000000E+00  0.00000000E+00 -5.41170624E-33 -3.46278746E-33  7.43174471E-33
  7.31357782E-01  0.00000000E+00  0.00000000E+00 -1.38052028E-33 -1.08057073E-34
  1.82752032E-33 -2.21258222E-01  5.84092332E-33  1.72754643E-33 -9.77588125E-33
  1.04997412E+00 -1.76913793E-03  4.47963814E-04 -5.27378995E-03  1.04417829E-02
  0.00000000E+00 -3.67767477E-03  9.27398080E-04 -2.25770676E-03  2.75060863E-03
 -5.20038652E-03  0.00000000E+00 -8.26791324E-04  4.47717170E-05 -1.88026533E-04
 -4.35807561E-05 -1.16692685E-03  0.00000000E+00 -8.74436036E-05  3.39055759E-04
  3.47597941E-03  0.00000000E+00  2.26521735E+00  6.72278101E-03 -2.08361844E-03
  1.81819210E-02 -3.68644736E-02  0.00000000E+00  1.33867962E-02 -3.39910780E-03
  8.48512476E-03 -8.02080061E-03  1.76899184E-02  0.00000000E+00  3.77196759E-03
 -1.87968057E-04  7.47883775E-04  3.41457096E-05  3.94059577E-03  0.00000000E+00
 -2.71070321E-04 -7.89466422E-04 -1.18877817E-02  0.00000000E+00 -7.97313975E-01
  2.40065581E+00  1.93570983E-02 -7.79895900E-02  2.49794407E-02 -1.04834376E-01
 -1.09970293E-33  7.02086807E-02  6.19851077E-03 -3.72134618E-02 -8.13661453E-03
 -7.81139401E-03  3.96591823E-35  1.31382302E-02  4.24745398E-05 -3.03485828E-05
  2.07160999E-03  1.29366059E-03 -2.71545349E-34  1.75201731E-03 -7.48554152E-03
 -3.40002810E-03  8.86435533E-34  4.88452624E-03 -1.45808106E-02  2.11699631E+00
 -3.90294710E-02  1.61272167E-01 -9.81867502E-02  1.88724867E-01  8.79762344E-33
 -1.88528938E-02  1.17583776E-02 -4.58017321E-02 -1.27125705E-02 -4.68917629E-02
 -3.17273458E-34 -2.01908610E-02  1.16763882E-03 -3.94307176E-03  1.28078741E-03
 -1.67152582E-02  2.17236279E-33  1.23054319E-02 -3.05166588E-03  5.53683709E-02
 -7.09148427E-33 -9.88994055E-03  2.94248902E-02  4.77831304E-02  2.04334525E+00
  0.00000000E+00 -2.34831890E-33  1.32570590E-33 -2.81078238E-33 -2.37916003E-01
  0.00000000E+00  0.00000000E+00  3.92540686E-34  1.19085210E-34  5.41879528E-34
  8.58009365E-03  0.00000000E+00  0.00000000E+00  4.84618337E-35 -6.21146202E-36
  2.12011063E-34 -5.87476694E-02 -1.43577928E-34  3.01477749E-36 -6.98183581E-34
  1.91776518E-01  0.00000000E+00 -4.30085661E-34  9.19627524E-33 -2.49653100E-32
  2.04239534E+00  1.64639540E-02 -1.78539409E-01  1.55423710E-02 -4.63283165E-02
  0.00000000E+00 -3.13400001E-02  7.29887791E-03 -6.43273662E-03  3.88880510E-02
 -5.64272617E-02  0.00000000E+00 -1.06951777E-02 -8.67187707E-05 -2.74022421E-04
 -1.76334570E-03 -1.22983960E-02  0.00000000E+00 -1.03599811E-02  7.77995341E-03
  3.36701806E-02  0.00000000E+00  1.53879525E-01 -5.48059039E-01  6.84791691E-02
 -1.38970114E-01  0.00000000E+00  2.11076066E+00 -5.06321934E-02  1.80551116E-01
 -9.14086270E-02  2.66052898E-01  3.38125570E-33 -2.37582663E-01 -2.41697116E-02
  1.29200090E-01  2.90270626E-02  3.60141264E-02 -1.70473779E-34 -3.80212131E-02
 -3.35104064E-04  7.75977145E-04 -7.48416990E-03 -3.09759171E-03  8.86429591E-34
 -7.73960981E-03  2.63866204E-02  7.23226118E-03 -2.89239592E-33 -1.55830896E-02
  4.68794939E-02 -4.65856887E-01 -1.65630697E-01 -1.02326043E-33 -1.97782273E-01
  1.85943651E+00  1.01091781E-01 -3.71390987E-01  2.46646151E-01 -5.03324148E-01
 -2.70500456E-32  5.19020475E-02 -3.88483723E-02  1.39721733E-01  3.67060463E-02
  1.60443497E-01  1.36379023E-33  6.79999480E-02 -3.47859886E-03  1.18967986E-02
 -3.35738892E-03  5.53662361E-02 -7.09143672E-33 -3.36961923E-02  7.08072216E-03
 -1.81032101E-01  2.31391674E-32  3.14853900E-02 -9.43783517E-02 -1.65834262E-01
 -2.10281145E-01  8.18608340E-33  3.99333735E-01  5.56783815E-01  1.00163403E+00
  0.00000000E+00  5.41229646E-33 -3.46266040E-33  7.43370730E-33  7.31520140E-01
  0.00000000E+00  0.00000000E+00 -1.12501055E-33 -3.18267138E-34 -1.81115315E-33
 -3.68812695E-02  0.00000000E+00  0.00000000E+00 -1.43052618E-34  6.78944486E-36
 -6.96759336E-34  1.91775232E-01  3.79563366E-34  3.46884388E-35  2.26482211E-33
 -6.25757427E-01  0.00000000E+00  1.37999089E-33 -1.09233453E-34  1.82633173E-33
 -2.21377996E-01 -5.83636383E-33  1.73185629E-33 -9.77250876E-33  1.05039599E+00
Mulliken Charges                           R   N=           6
 -1.51187502E-01  7.45589586E-02 -1.51433344E-01  7.45718484E-02  7.68682967E-02
  7.66217419E-02
ONIOM Charges                              I   N=          16
           0           0           0           0           0           0
           0           0           0           0           0           0
           0           0           0           0
ONIOM Multiplicities                       I   N=          16
           1           0           0           0           0           0
           0           0           0           0           0           0
           0           0           0           0
Atom Layers                                I   N=           6
           1           1           1           1           1           1
Atom Modifiers                             I   N=           6
           0           0           0           0           0           0
Int Atom Modified Types                    I   N=           6
           0           0           0           0           0           0
Force Field                                I                0
Atom Modified Types                        C   N=           6
                                                            
            
Link Atoms                                 I   N=           6
           0           0           0           0           0           0
Atom Modified MM Charges                   R   N=           6
  0.00000000E+00  0.00000000E+00  0.00000000E+00  0.00000000E+00  0.00000000E+00
  0.00000000E+00
Link Distances                             R   N=          24
  0.00000000E+00  0.00000000E+00  0.00000000E+00  0.00000000E+00  0.00000000E+00
  0.00000000E+00  0.00000000E+00  0.00000000E+00  0.00000000E+00  0.00000000E+00
  0.00000000E+00  0.00000000E+00  0.00000000E+00  0.00000000E+00  0.00000000E+00
  0.00000000E+00  0.00000000E+00  0.00000000E+00  0.00000000E+00  0.00000000E+00
  0.00000000E+00  0.00000000E+00  0.00000000E+00  0.00000000E+00
Cartesian Gradient                         R   N=          18
  0.00000000E+00  0.00000000E+00 -0.00000000E+00  0.00000000E+00  0.00000000E+00
 -0.00000000E+00  0.00000000E+00  0.00000000E+00 -0.00000000E+00  0.00000000E+00
  0.00000000E+00 -0.00000000E+00  0.00000000E+00  0.00000000E+00 -0.00000000E+00
  0.00000000E+00  0.00000000E+00 -0.00000000E+00
Nonadiabatic coupling                      R   N=          18
  0.00000000E+00  0.00000000E+00  0.00000000E+00  0.00000000E+00  0.00000000E+00
  0.00000000E+00  0.00000000E+00  0.00000000E+00  0.00000000E+00  0.00000000E+00
  0.00000000E+00  0.00000000E+00  0.00000000E+00  0.00000000E+00  0.00000000E+00
  0.00000000E+00  0.00000000E+00  0.00000000E+00
Dipole Moment                              R   N=           3
  1.05208583E-04 -4.81780081E-04  9.94261334E-33
Quadrupole Moment                          R   N=           6
  5.70877161E-01 -2.42583321E+00  1.85495605E+00  3.39089416E-01 -4.31408308E-32
  4.93038066E-32
QEq coupling tensors                       R   N=          36
 -4.43132618E-02 -3.89403467E-02  9.35099586E-04  4.62223187E-33  3.56297040E-33
  4.33781622E-02 -3.54828702E-01  3.43372007E-02  1.75349101E-01 -7.70371978E-33
 -6.16297582E-33  1.79479601E-01 -4.43398893E-02 -3.88181028E-02  6.75949108E-04
  7.70371978E-34 -3.27408091E-33  4.36639402E-02 -3.54815923E-01  3.43513147E-02
  1.75335694E-01 -4.62223187E-33 -6.16297582E-33  1.79480230E-01  2.85454151E+00
  2.74553015E+00 -1.37548782E+00 -9.86076132E-32  9.86076132E-32 -1.47905369E+00
  2.85583076E+00  2.74502211E+00 -1.37845972E+00  0.00000000E+00  1.23259516E-31
 -1.47737103E+00
ClPar MaxAn                                I              200
ClPar NIntPar                              I                4
ClPar NRealPar                             I               16
ClPar NBits                                I               30
ClPar LenBitVec                            I                1
ClPar Read BitMap                          I   N=         200
           0           0           0           0           0           0
           0           0           0           0           0           0
           0           0           0           0           0           0
           0           0           0           0           0           0
           0           0           0           0           0           0
           0           0           0           0           0           0
           0           0           0           0           0           0
           0           0           0           0           0           0
           0           0           0           0           0           0
           0           0           0           0           0           0
           0           0           0           0           0           0
           0           0           0           0           0           0
           0           0           0           0           0           0
           0           0           0           0           0           0
           0           0           0           0           0           0
           0           0           0           0           0           0
           0           0           0           0           0           0
           0           0           0           0           0           0
           0           0           0           0           0           0
           0           0           0           0           0           0
           0           0           0           0           0           0
           0           0           0           0           0           0
           0           0           0           0           0           0
           0           0           0           0           0           0
           0           0           0           0           0           0
           0           0           0           0           0           0
           0           0           0           0           0           0
           0           0           0           0           0           0
           0           0           0           0           0           0
           0           0           0           0           0           0
           0           0           0           0           0           0
           0           0           0           0           0           0
           0           0           0           0           0           0
           0           0
ClPar Default BitMap                       I   N=         200
        2016        2016        2016        2016        2016        2016
        2016        2016        2016        2016        2016        2016
        2016        2016        2016        2016        2016        2016
        2016        2016        2016        2016        2016        2016
        2016        2016        2016        2016        2016        2016
        2016        2016        2016        2016        2016        2016
        2016        2016        2016        2016        2016        2016
        2016        2016        2016        2016        2016        2016
        2016        2016        2016        2016        2016        2016
        2016        2016        2016        2016        2016        2016
        2016        2016        2016        2016        2016        2016
        2016        2016        2016        2016        2016        2016
        2016        2016        2016        2016        2016        2016
        2016        2016        2016        2016        2016        2016
        2016        2016         480         480         480         480
         480         480         480         480         480         480
         480         480         480         480         480         480
         480         480         480         480         480         480
         480         480         480         480         480         480
         480         480         480         480         480         480
         480         480         480         480         480         480
         480         480         480         480         480         480
         480         480         480         480         480         480
         480         480         480         480         480         480
         480         480         480         480         480         480
         480         480         480         480         480         480
         480         480         480         480         480         480
         480         480         480         480         480         480
         480         480         480         480         480         480
         480         480         480         480         480         480
         480         480         480         480         480         480
         480         480         480         480         480         480
         480         480         480         480         480         480
         480         480
ClPar Int Params                           I   N=         800
           0           0           0           0           0           0
           0           0           0           0           0           0
           0           0           0           0           0           0
           0           0           0           0           0           0
           0           0           0           0           0           0
           0           0           0           0           0           0
           0           0           0           0           0           0
           0           0           0           0           0           0
           0           0           0           0           0           0
           0           0           0           0           0           0
           0           0           0           0           0           0
           0           0           0           0           0           0
           0           0           0           0           0           0
           0           0           0           0           0           0
           0           0           0           0           0           0
           0           0           0           0           0           0
           0           0           0           0           0           0
           0           0           0           0           0           0
           0           0           0           0           0           0
           0           0           0           0           0           0
           0           0           0           0           0           0
           0           0           0           0           0           0
           0           0           0           0           0           0
           0           0           0           0           0           0
           0           0           0           0           0           0
           0           0           0           0           0           0
           0           0           0           0           0           0
           0           0           0           0           0           0
           0           0           0           0           0           0
           0           0           0           0           0           0
           0           0           0           0           0           0
           0           0           0           0           0           0
           0           0           0           0           0           0
           0           0           0           0           0           0
           0           0           0           0           0           0
           0           0           0           0           0           0
           0           0           0           0           0           0
           0           0           0           0           0           0
           0           0           0           0           0           0
           0           0           0           0           0           0
           0           0           0           0           0           0
           0           0           0           0           0           0
           0           0           0           0           0           0
           0           0           0           0           0           0
           0           0           0           0           0           0
           0           0           0           0           0           0
           0           0           0           0           0           0
           0           0           0           0           0           0
           0           0           0           0           0           0
           0           0           0           0           0           0
           0           0           0           0           0           0
           0           0           0           0           0           0
           0           0           0           0           0           0
           0           0           0           0           0           0
           0           0           0           0           0           0
           0           0           0           0           0           0
           0           0           0           0           0           0
           0           0           0           0           0           0
           0           0           0           0           0           0
           0           0           0           0           0           0
           0           0           0           0           0           0
           0           0           0           0           0           0
           0           0           0           0           0           0
           0           0           0           0           0           0
           0           0           0           0           0           0
           0           0           0           0           0           0
           0           0           0           0           0           0
           0           0           0           0           0           0
           0           0           0           0           0           0
           0           0           0           0           0           0
           0           0           0           0           0           0
           0           0           0           0           0           0
           0           0           0           0           0           0
           0           0           0           0           0           0
           0           0           0           0           0           0
           0           0           0           0           0           0
           0           0           0           0           0           0
           0           0           0           0           0           0
           0           0           0           0           0           0
           0           0           0           0           0           0
           0           0           0           0           0           0
           0           0           0           0           0           0
           0           0           0           0           0           0
           0           0           0           0           0           0
           0           0           0           0           0           0
           0           0           0           0           0           0
           0           0           0           0           0           0
           0           0           0           0           0           0
           0           0           0           0           0           0
           0           0           0           0           0           0
           0           0           0           0           0           0
           0           0           0           0           0           0
           0           0           0           0           0           0
           0           0           0           0           0           0
           0           0           0           0           0           0
           0           0           0           0           0           0
           0           0           0           0           0           0
           0           0           0           0           0           0
           0           0           0           0           0           0
           0           0           0           0           0           0
           0           0           0           0           0           0
           0           0           0           0           0           0
           0           0           0           0           0           0
           0           0           0           0           0           0
           0           0           0           0           0           0
           0           0           0           0           0           0
           0           0           0           0           0           0
           0           0           0           0           0           0
           0           0           0           0           0           0
           0           0           0           0           0           0
           0           0           0           0           0           0
           0           0           0           0           0           0
           0           0           0           0           0           0
           0           0           0           0           0           0
           0           0           0           0           0           0
           0           0           0           0           0           0
           0           0           0           0           0           0
           0           0           0           0           0           0
           0           0           0           0           0           0
           0           0           0           0           0           0
           0           0           0           0           0           0
           0           0           0           0           0           0
           0           0           0           0           0           0
           0           0           0           0           0           0
           0           0           0           0           0           0
           0           0           0           0           0           0
           0           0           0           0           0           0
           0           0           0           0           0           0
           0           0           0           0           0           0
           0           0           0           0           0           0
           0           0           0           0           0           0
           0           0           0           0           0           0
           0           0           0           0           0           0
           0           0
ClPar Real Params                          R   N=        3200
  0.00000000E+00  0.00000000E+00  0.00000000E+00  0.00000000E+00  0.00000000E+00
  0.00000000E+00  0.00000000E+00  0.00000000E+00  0.00000000E+00  0.00000000E+00
  0.00000000E+00  0.00000000E+00  0.00000000E+00  0.00000000E+00  0.00000000E+00
  0.00000000E+00  0.00000000E+00  0.00000000E+00  0.00000000E+00  0.00000000E+00
  0.00000000E+00  0.00000000E+00  0.00000000E+00  0.00000000E+00  0.00000000E+00
  0.00000000E+00  0.00000000E+00  0.00000000E+00  0.00000000E+00  0.00000000E+00
  0.00000000E+00  0.00000000E+00  0.00000000E+00  0.00000000E+00  0.00000000E+00
  0.00000000E+00  0.00000000E+00  0.00000000E+00  0.00000000E+00  0.00000000E+00
  0.00000000E+00  0.00000000E+00  0.00000000E+00  0.00000000E+00  0.00000000E+00
  0.00000000E+00  0.00000000E+00  0.00000000E+00  0.00000000E+00  0.00000000E+00
  0.00000000E+00  0.00000000E+00  0.00000000E+00  0.00000000E+00  0.00000000E+00
  0.00000000E+00  0.00000000E+00  0.00000000E+00  0.00000000E+00  0.00000000E+00
  0.00000000E+00  0.00000000E+00  0.00000000E+00  0.00000000E+00  0.00000000E+00
  0.00000000E+00  0.00000000E+00  0.00000000E+00  0.00000000E+00  0.00000000E+00
  0.00000000E+00  0.00000000E+00  0.00000000E+00  0.00000000E+00  0.00000000E+00
  0.00000000E+00  0.00000000E+00  0.00000000E+00  0.00000000E+00  0.00000000E+00
  0.00000000E+00  0.00000000E+00  0.00000000E+00  0.00000000E+00  0.00000000E+00
  0.00000000E+00  0.00000000E+00  0.00000000E+00  0.00000000E+00  0.00000000E+00
  0.00000000E+00  0.00000000E+00  0.00000000E+00  0.00000000E+00  0.00000000E+00
  0.00000000E+00  0.00000000E+00  0.00000000E+00  0.00000000E+00  0.00000000E+00
  0.00000000E+00  0.00000000E+00  0.00000000E+00  0.00000000E+00  0.00000000E+00
  0.00000000E+00  0.00000000E+00  0.00000000E+00  0.00000000E+00  0.00000000E+00
  0.00000000E+00  0.00000000E+00  0.00000000E+00  0.00000000E+00  0.00000000E+00
  0.00000000E+00  0.00000000E+00  0.00000000E+00  0.00000000E+00  0.00000000E+00
  0.00000000E+00  0.00000000E+00  0.00000000E+00  0.00000000E+00  0.00000000E+00
  0.00000000E+00  0.00000000E+00  0.00000000E+00  0.00000000E+00  0.00000000E+00
  0.00000000E+00  0.00000000E+00  0.00000000E+00  0.00000000E+00  0.00000000E+00
  0.00000000E+00  0.00000000E+00  0.00000000E+00  0.00000000E+00  0.00000000E+00
  0.00000000E+00  0.00000000E+00  0.00000000E+00  0.00000000E+00  0.00000000E+00
  0.00000000E+00  0.00000000E+00  0.00000000E+00  0.00000000E+00  0.00000000E+00
  0.00000000E+00  0.00000000E+00  0.00000000E+00  0.00000000E+00  0.00000000E+00
  0.00000000E+00  0.00000000E+00  0.00000000E+00  0.00000000E+00  0.00000000E+00
  0.00000000E+00  0.00000000E+00  0.00000000E+00  0.00000000E+00  0.00000000E+00
  0.00000000E+00  0.00000000E+00  0.00000000E+00  0.00000000E+00  0.00000000E+00
  0.00000000E+00  0.00000000E+00  0.00000000E+00  0.00000000E+00  0.00000000E+00
  0.00000000E+00  0.00000000E+00  0.00000000E+00  0.00000000E+00  0.00000000E+00
  0.00000000E+00  0.00000000E+00  0.00000000E+00  0.00000000E+00  0.00000000E+00
  0.00000000E+00  0.00000000E+00  0.00000000E+00  0.00000000E+00  0.00000000E+00
  0.00000000E+00  0.00000000E+00  0.00000000E+00  0.00000000E+00  0.00000000E+00
  0.00000000E+00  0.00000000E+00  0.00000000E+00  0.00000000E+00  0.00000000E+00
  2.26000000E-01  4.43000000E-01  1.01000000E-01  1.47000000E-01  1.92000000E-01
  2.40000000E-01  2.75000000E-01  3.03000000E-01  3.25000000E-01  4.13000000E-01
  9.60000000E-02  1.35000000E-01  1.73000000E-01  2.11000000E-01  2.48000000E-01
  2.86000000E-01  3.23000000E-01  3.60000000E-01  8.20000000E-02  1.04000000E-01
  1.17000000E-01  1.23000000E-01  1.29000000E-01  1.34000000E-01  1.40000000E-01
  1.44000000E-01  1.48000000E-01  1.52000000E-01  1.55000000E-01  1.76000000E-01
  1.98000000E-01  2.19000000E-01  2.39000000E-01  2.60000000E-01  2.80000000E-01
  3.00000000E-01  7.90000000E-02  9.90000000E-02  1.19000000E-01  1.26000000E-01
  1.33000000E-01  1.40000000E-01  1.47000000E-01  1.53000000E-01  1.58000000E-01
  1.63000000E-01  1.57000000E-01  1.70000000E-01  1.87000000E-01  2.03000000E-01
  2.19000000E-01  2.34000000E-01  2.50000000E-01  2.65000000E-01  7.40000000E-02
  9.20000000E-02  1.05000000E-01  1.06000000E-01  1.07000000E-01  1.08000000E-01
  1.09000000E-01  1.10000000E-01  1.11000000E-01  1.12000000E-01  1.13000000E-01
  1.14000000E-01  1.15000000E-01  1.16000000E-01  1.17000000E-01  1.17000000E-01
  1.26000000E-01  1.36000000E-01  1.46000000E-01  1.55000000E-01  1.65000000E-01
  1.73000000E-01  1.82000000E-01  1.90000000E-01  1.62000000E-01  1.78000000E-01
  1.10000000E-01  1.35000000E-01  1.59000000E-01  1.83000000E-01  2.07000000E-01
  2.31000000E-01  6.90000000E-02  9.40000000E-02  1.02000000E-01  1.03000000E-01
  1.05000000E-01  1.07000000E-01  1.09000000E-01  1.11000000E-01  1.13000000E-01
  1.15000000E-01  1.17000000E-01  1.19000000E-01  1.20000000E-01  1.22000000E-01
  1.24000000E-01  1.26000000E-01  1.28000000E-01  1.28000000E-01  1.28000000E-01
  1.28000000E-01  1.28000000E-01  1.28000000E-01  1.28000000E-01  1.28000000E-01
  1.28000000E-01  1.28000000E-01  1.28000000E-01  1.28000000E-01  1.28000000E-01
  1.28000000E-01  1.28000000E-01  1.28000000E-01  1.28000000E-01  1.28000000E-01
  1.28000000E-01  1.28000000E-01  1.28000000E-01  1.28000000E-01  1.28000000E-01
  1.28000000E-01  1.28000000E-01  1.28000000E-01  1.28000000E-01  1.28000000E-01
  1.28000000E-01  1.28000000E-01  1.28000000E-01  1.28000000E-01  1.28000000E-01
  1.28000000E-01  1.28000000E-01  1.28000000E-01  1.28000000E-01  1.28000000E-01
  1.28000000E-01  1.28000000E-01  1.28000000E-01  1.28000000E-01  1.28000000E-01
  1.28000000E-01  1.28000000E-01  1.28000000E-01  1.28000000E-01  1.28000000E-01
  1.28000000E-01  1.28000000E-01  1.28000000E-01  1.28000000E-01  1.28000000E-01
  1.28000000E-01  1.28000000E-01  1.28000000E-01  1.28000000E-01  1.28000000E-01
  1.28000000E-01  1.28000000E-01  1.28000000E-01  1.28000000E-01  1.28000000E-01
  1.28000000E-01  1.28000000E-01  1.28000000E-01  1.28000000E-01  1.28000000E-01
  1.28000000E-01  1.28000000E-01  1.28000000E-01  1.28000000E-01  1.28000000E-01
  1.28000000E-01  1.28000000E-01  1.28000000E-01  1.28000000E-01  1.28000000E-01
  1.28000000E-01  1.28000000E-01  1.28000000E-01  1.28000000E-01  1.28000000E-01
  1.28000000E-01  1.28000000E-01  1.28000000E-01  1.28000000E-01  1.28000000E-01
  1.28000000E-01  1.28000000E-01  1.28000000E-01  1.28000000E-01  1.28000000E-01
  1.28000000E-01  1.28000000E-01  1.28000000E-01  1.28000000E-01  1.28000000E-01
  5.47000000E-01  5.92000000E-01  5.99000000E-01  6.68000000E-01  6.98000000E-01
  7.18000000E-01  7.26000000E-01  7.36000000E-01  7.43000000E-01  7.45000000E-01
  6.07000000E-01  6.66000000E-01  6.93000000E-01  7.09000000E-01  7.20000000E-01
  7.29000000E-01  7.35000000E-01  7.40000000E-01  6.08000000E-01  7.34000000E-01
  7.46000000E-01  7.55000000E-01  7.61000000E-01  7.65000000E-01  7.67000000E-01
  7.60000000E-01  7.49000000E-01  7.33000000E-01  7.08000000E-01  6.48000000E-01
  6.88000000E-01  7.09000000E-01  7.22000000E-01  7.31000000E-01  7.38000000E-01
  7.44000000E-01  6.09000000E-01  7.30000000E-01  7.41000000E-01  7.52000000E-01
  7.58000000E-01  7.63000000E-01  7.66000000E-01  7.58000000E-01  7.48000000E-01
  7.33000000E-01  7.01000000E-01  6.45000000E-01  6.86000000E-01  7.08000000E-01
  7.22000000E-01  7.31000000E-01  7.38000000E-01  7.44000000E-01  6.08000000E-01
  7.28000000E-01  7.32000000E-01  7.32000000E-01  7.32000000E-01  7.32000000E-01
  7.32000000E-01  7.32000000E-01  7.32000000E-01  7.32000000E-01  7.32000000E-01
  7.31000000E-01  7.31000000E-01  7.31000000E-01  7.31000000E-01  7.46000000E-01
  7.37000000E-01  7.46000000E-01  7.51000000E-01  7.55000000E-01  7.58000000E-01
  7.47000000E-01  7.32000000E-01  7.11000000E-01  7.41000000E-01  7.07000000E-01
  7.47000000E-01  7.43000000E-01  7.42000000E-01  7.42000000E-01  7.43000000E-01
  7.44000000E-01  6.05000000E-01  7.24000000E-01  7.26000000E-01  7.26000000E-01
  7.27000000E-01  7.27000000E-01  7.27000000E-01  7.28000000E-01  7.28000000E-01
  7.28000000E-01  7.28000000E-01  7.28000000E-01  7.29000000E-01  7.29000000E-01
  7.29000000E-01  7.29000000E-01  7.29000000E-01  7.29000000E-01  7.29000000E-01
  7.29000000E-01  7.29000000E-01  7.29000000E-01  7.29000000E-01  7.29000000E-01
  7.29000000E-01  7.29000000E-01  7.29000000E-01  7.29000000E-01  7.29000000E-01
  7.29000000E-01  7.29000000E-01  7.29000000E-01  7.29000000E-01  7.29000000E-01
  7.29000000E-01  7.29000000E-01  7.29000000E-01  7.29000000E-01  7.29000000E-01
  7.29000000E-01  7.29000000E-01  7.29000000E-01  7.29000000E-01  7.29000000E-01
  7.29000000E-01  7.29000000E-01  7.29000000E-01  7.29000000E-01  7.29000000E-01
  7.29000000E-01  7.29000000E-01  7.29000000E-01  7.29000000E-01  7.29000000E-01
  7.29000000E-01  7.29000000E-01  7.29000000E-01  7.29000000E-01  7.29000000E-01
  7.29000000E-01  7.29000000E-01  7.29000000E-01  7.29000000E-01  7.29000000E-01
  7.29000000E-01  7.29000000E-01  7.29000000E-01  7.29000000E-01  7.29000000E-01
  7.29000000E-01  7.29000000E-01  7.29000000E-01  7.29000000E-01  7.29000000E-01
  7.29000000E-01  7.29000000E-01  7.29000000E-01  7.29000000E-01  7.29000000E-01
  7.29000000E-01  7.29000000E-01  7.29000000E-01  7.29000000E-01  7.29000000E-01
  7.29000000E-01  7.29000000E-01  7.29000000E-01  7.29000000E-01  7.29000000E-01
  7.29000000E-01  7.29000000E-01  7.29000000E-01  7.29000000E-01  7.29000000E-01
  7.29000000E-01  7.29000000E-01  7.29000000E-01  7.29000000E-01  7.29000000E-01
  7.29000000E-01  7.29000000E-01  7.29000000E-01  7.29000000E-01  7.29000000E-01
  7.29000000E-01  7.29000000E-01  7.29000000E-01  7.29000000E-01  7.29000000E-01
  7.29000000E-01  7.29000000E-01  7.29000000E-01  7.29000000E-01  7.29000000E-01
  1.00000000E+00  1.70400000E+00  3.23000000E-01  3.89000000E-01  4.67000000E-01
  5.67000000E-01  6.36000000E-01  6.64000000E-01  6.96000000E-01  8.79000000E-01
  3.07000000E-01  3.48000000E-01  4.00000000E-01  4.54000000E-01  5.09000000E-01
  5.65000000E-01  6.21000000E-01  6.77000000E-01  2.56000000E-01  3.50000000E-01
  3.64000000E-01  3.62000000E-01  3.62000000E-01  3.62000000E-01  3.62000000E-01
  3.65000000E-01  3.69000000E-01  3.75000000E-01  3.86000000E-01  4.46000000E-01
  4.55000000E-01  4.74000000E-01  4.96000000E-01  5.20000000E-01  5.45000000E-01
  5.70000000E-01  2.45000000E-01  3.22000000E-01  3.55000000E-01  3.59000000E-01
  3.64000000E-01  3.70000000E-01  3.76000000E-01  3.85000000E-01  3.95000000E-01
  4.08000000E-01  3.76000000E-01  4.23000000E-01  4.22000000E-01  4.32000000E-01
  4.45000000E-01  4.59000000E-01  4.75000000E-01  4.91000000E-01  2.28000000E-01
  2.92000000E-01  2.89000000E-01  2.92000000E-01  2.95000000E-01  2.98000000E-01
  3.00000000E-01  3.03000000E-01  3.06000000E-01  3.09000000E-01  3.12000000E-01
  3.15000000E-01  3.18000000E-01  3.21000000E-01  3.24000000E-01  3.61000000E-01
  3.69000000E-01  3.70000000E-01  3.72000000E-01  3.75000000E-01  3.78000000E-01
  3.85000000E-01  3.94000000E-01  4.07000000E-01  5.26000000E-01  6.21000000E-01
  3.36000000E-01  3.54000000E-01  3.71000000E-01  3.86000000E-01  4.02000000E-01
  4.17000000E-01  2.09000000E-01  2.94000000E-01  2.65000000E-01  2.72000000E-01
  2.78000000E-01  2.84000000E-01  2.91000000E-01  2.97000000E-01  3.03000000E-01
  3.10000000E-01  3.16000000E-01  3.22000000E-01  3.29000000E-01  3.35000000E-01
  3.41000000E-01  3.48000000E-01  3.54000000E-01  3.54000000E-01  3.54000000E-01
  3.54000000E-01  3.54000000E-01  3.54000000E-01  3.54000000E-01  3.54000000E-01
  3.54000000E-01  3.54000000E-01  3.54000000E-01  3.54000000E-01  3.54000000E-01
  3.54000000E-01  3.54000000E-01  3.54000000E-01  3.54000000E-01  3.54000000E-01
  3.54000000E-01  3.54000000E-01  3.54000000E-01  3.54000000E-01  3.54000000E-01
  3.54000000E-01  3.54000000E-01  3.54000000E-01  3.54000000E-01  3.54000000E-01
  3.54000000E-01  3.54000000E-01  3.54000000E-01  3.54000000E-01  3.54000000E-01
  3.54000000E-01  3.54000000E-01  3.54000000E-01  3.54000000E-01  3.54000000E-01
  3.54000000E-01  3.54000000E-01  3.54000000E-01  3.54000000E-01  3.54000000E-01
  3.54000000E-01  3.54000000E-01  3.54000000E-01  3.54000000E-01  3.54000000E-01
  3.54000000E-01  3.54000000E-01  3.54000000E-01  3.54000000E-01  3.54000000E-01
  3.54000000E-01  3.54000000E-01  3.54000000E-01  3.54000000E-01  3.54000000E-01
  3.54000000E-01  3.54000000E-01  3.54000000E-01  3.54000000E-01  3.54000000E-01
  3.54000000E-01  3.54000000E-01  3.54000000E-01  3.54000000E-01  3.54000000E-01
  3.54000000E-01  3.54000000E-01  3.54000000E-01  3.54000000E-01  3.54000000E-01
  3.54000000E-01  3.54000000E-01  3.54000000E-01  3.54000000E-01  3.54000000E-01
  3.54000000E-01  3.54000000E-01  3.54000000E-01  3.54000000E-01  3.54000000E-01
  3.54000000E-01  3.54000000E-01  3.54000000E-01  3.54000000E-01  3.54000000E-01
  3.54000000E-01  3.54000000E-01  3.54000000E-01  3.54000000E-01  3.54000000E-01
  3.54000000E-01  3.54000000E-01  3.54000000E-01  3.54000000E-01  3.54000000E-01
  2.74000000E-01  2.96000000E-01  5.80000000E-02  4.40000000E-02  3.90000000E-02
  3.90000000E-02  3.60000000E-02  3.20000000E-02  2.90000000E-02  3.30000000E-02
  5.50000000E-02  3.90000000E-02  3.30000000E-02  3.00000000E-02  2.80000000E-02
  2.60000000E-02  2.50000000E-02  2.50000000E-02  4.50000000E-02  4.40000000E-02
  3.30000000E-02  2.50000000E-02  2.10000000E-02  1.80000000E-02  1.50000000E-02
  1.80000000E-02  2.10000000E-02  2.50000000E-02  3.30000000E-02  5.00000000E-02
  3.80000000E-02  3.10000000E-02  2.70000000E-02  2.40000000E-02  2.20000000E-02
  2.10000000E-02  4.30000000E-02  4.00000000E-02  3.20000000E-02  2.50000000E-02
  2.10000000E-02  1.80000000E-02  1.60000000E-02  1.90000000E-02  2.20000000E-02
  2.80000000E-02  3.10000000E-02  4.70000000E-02  3.40000000E-02  2.80000000E-02
  2.40000000E-02  2.10000000E-02  1.90000000E-02  1.80000000E-02  3.90000000E-02
  3.60000000E-02  2.50000000E-02  2.50000000E-02  2.50000000E-02  2.60000000E-02
  2.60000000E-02  2.60000000E-02  2.70000000E-02  2.70000000E-02  2.70000000E-02
  2.70000000E-02  2.80000000E-02  2.80000000E-02  2.80000000E-02  3.30000000E-02
  3.30000000E-02  2.60000000E-02  2.10000000E-02  1.80000000E-02  1.60000000E-02
  1.80000000E-02  2.20000000E-02  2.60000000E-02  4.90000000E-02  8.20000000E-02
  3.00000000E-02  2.40000000E-02  2.10000000E-02  1.80000000E-02  1.60000000E-02
  1.50000000E-02  3.50000000E-02  3.60000000E-02  2.20000000E-02  2.30000000E-02
  2.40000000E-02  2.40000000E-02  2.50000000E-02  2.50000000E-02  2.60000000E-02
  2.70000000E-02  2.70000000E-02  2.80000000E-02  2.80000000E-02  2.90000000E-02
  3.00000000E-02  3.00000000E-02  3.10000000E-02  3.10000000E-02  3.10000000E-02
  3.10000000E-02  3.10000000E-02  3.10000000E-02  3.10000000E-02  3.10000000E-02
  3.10000000E-02  3.10000000E-02  3.10000000E-02  3.10000000E-02  3.10000000E-02
  3.10000000E-02  3.10000000E-02  3.10000000E-02  3.10000000E-02  3.10000000E-02
  3.10000000E-02  3.10000000E-02  3.10000000E-02  3.10000000E-02  3.10000000E-02
  3.10000000E-02  3.10000000E-02  3.10000000E-02  3.10000000E-02  3.10000000E-02
  3.10000000E-02  3.10000000E-02  3.10000000E-02  3.10000000E-02  3.10000000E-02
  3.10000000E-02  3.10000000E-02  3.10000000E-02  3.10000000E-02  3.10000000E-02
  3.10000000E-02  3.10000000E-02  3.10000000E-02  3.10000000E-02  3.10000000E-02
  3.10000000E-02  3.10000000E-02  3.10000000E-02  3.10000000E-02  3.10000000E-02
  3.10000000E-02  3.10000000E-02  3.10000000E-02  3.10000000E-02  3.10000000E-02
  3.10000000E-02  3.10000000E-02  3.10000000E-02  3.10000000E-02  3.10000000E-02
  3.10000000E-02  3.10000000E-02  3.10000000E-02  3.10000000E-02  3.10000000E-02
  3.10000000E-02  3.10000000E-02  3.10000000E-02  3.10000000E-02  3.10000000E-02
  3.10000000E-02  3.10000000E-02  3.10000000E-02  3.10000000E-02  3.10000000E-02
  3.10000000E-02  3.10000000E-02  3.10000000E-02  3.10000000E-02  3.10000000E-02
  3.10000000E-02  3.10000000E-02  3.10000000E-02  3.10000000E-02  3.10000000E-02
  3.10000000E-02  3.10000000E-02  3.10000000E-02  3.10000000E-02  3.10000000E-02
  3.10000000E-02  3.10000000E-02  3.10000000E-02  3.10000000E-02  3.10000000E-02
  3.10000000E-02  3.10000000E-02  3.10000000E-02  3.10000000E-02  3.10000000E-02
 -5.92770000E-01 -9.17860000E-01 -2.48668000E+00 -8.36430000E-01 -3.18470000E-01
 -4.55790000E-01 -5.70730000E-01 -6.77940000E-01 -7.69860000E-01 -8.51140000E-01
 -1.51908000E+00 -3.18830000E-01 -2.17900000E-01 -3.01260000E-01 -3.72750000E-01
 -4.15890000E-01 -4.45930000E-01 -5.91320000E-01 -9.56370000E-01 -2.88450000E-01
 -4.87320000E-01 -6.34280000E-01 -7.17490000E-01 -7.91980000E-01 -8.68490000E-01
 -9.17520000E-01 -9.54890000E-01 -9.88460000E-01 -1.50055000E+00 -2.92560000E-01
 -2.14960000E-01 -2.91180000E-01 -3.42080000E-01 -3.84480000E-01 -4.34940000E-01
 -5.24310000E-01 -8.10070000E-01 -2.58460000E-01 -4.35550000E-01 -5.32740000E-01
 -6.08450000E-01 -6.10260000E-01 -7.58920000E-01 -8.90130000E-01 -8.45780000E-01
 -8.69340000E-01 -1.38234000E+00 -2.64850000E-01 -1.97280000E-01 -2.65040000E-01
 -2.94470000E-01 -3.16570000E-01 -3.63590000E-01 -4.57840000E-01 -8.61830000E-01
 -1.33004000E+00 -6.82880000E-01 -6.25540000E-01 -6.35430000E-01 -8.79690000E-01
 -9.02690000E-01 -9.59650000E-01 -1.01869000E+00 -6.81170000E-01 -7.96500000E-01
 -9.04950000E-01 -8.34790000E-01 -9.01560000E-01 -9.74130000E-01 -1.03326000E+00
 -7.15490000E-01 -7.83960000E-01 -8.28380000E-01 -5.61040000E-01 -1.03841000E+00
 -8.62500000E-01 -9.59300000E-01 -1.01755000E+00 -7.64900000E-01 -1.29467000E+00
 -1.92740000E-01 -2.56010000E-01 -3.19820000E-01 -1.94660000E-01 -2.60090000E-01
 -4.27990000E-01  0.00000000E+00  0.00000000E+00  0.00000000E+00  0.00000000E+00
  0.00000000E+00  0.00000000E+00  0.00000000E+00  0.00000000E+00  0.00000000E+00
  0.00000000E+00  0.00000000E+00  0.00000000E+00  0.00000000E+00  0.00000000E+00
  0.00000000E+00  0.00000000E+00  0.00000000E+00  0.00000000E+00  0.00000000E+00
  0.00000000E+00  0.00000000E+00  0.00000000E+00  0.00000000E+00  0.00000000E+00
  0.00000000E+00  0.00000000E+00  0.00000000E+00  0.00000000E+00  0.00000000E+00
  0.00000000E+00  0.00000000E+00  0.00000000E+00  0.00000000E+00  0.00000000E+00
  0.00000000E+00  0.00000000E+00  0.00000000E+00  0.00000000E+00  0.00000000E+00
  0.00000000E+00  0.00000000E+00  0.00000000E+00  0.00000000E+00  0.00000000E+00
  0.00000000E+00  0.00000000E+00  0.00000000E+00  0.00000000E+00  0.00000000E+00
  0.00000000E+00  0.00000000E+00  0.00000000E+00  0.00000000E+00  0.00000000E+00
  0.00000000E+00  0.00000000E+00  0.00000000E+00  0.00000000E+00  0.00000000E+00
  0.00000000E+00  0.00000000E+00  0.00000000E+00  0.00000000E+00  0.00000000E+00
  0.00000000E+00  0.00000000E+00  0.00000000E+00  0.00000000E+00  0.00000000E+00
  0.00000000E+00  0.00000000E+00  0.00000000E+00  0.00000000E+00  0.00000000E+00
  0.00000000E+00  0.00000000E+00  0.00000000E+00  0.00000000E+00  0.00000000E+00
  0.00000000E+00  0.00000000E+00  0.00000000E+00  0.00000000E+00  0.00000000E+00
  0.00000000E+00  0.00000000E+00  0.00000000E+00  0.00000000E+00  0.00000000E+00
  0.00000000E+00  0.00000000E+00  0.00000000E+00  0.00000000E+00  0.00000000E+00
  0.00000000E+00  0.00000000E+00  0.00000000E+00  0.00000000E+00  0.00000000E+00
  0.00000000E+00  0.00000000E+00  0.00000000E+00  0.00000000E+00  0.00000000E+00
  0.00000000E+00  0.00000000E+00  0.00000000E+00  0.00000000E+00  0.00000000E+00
  0.00000000E+00  0.00000000E+00  0.00000000E+00  0.00000000E+00  0.00000000E+00
  1.90440000E+00  1.36430000E+00  4.84000000E-01  7.31600000E+00  9.24030000E+00
  8.78200000E+00  5.61290000E+00  4.83340000E+00  3.24870000E+00  2.71090000E+00
  2.01130000E+00  1.50282000E+01  1.46788000E+01  2.13546000E+01  2.38290000E+01
  1.98022000E+01  1.50468000E+01  1.09745000E+01  1.27219000E+01  1.51949000E+01
  1.57342000E+01  2.79222000E+01  1.61366000E+01  2.21252000E+01  2.45676000E+01
  1.96016000E+01  1.79818000E+01  1.72396000E+01  5.01500000E+00  1.92898000E+01
  2.34477000E+01  2.23993000E+01  2.96586000E+01  2.60081000E+01  2.15580000E+01
  1.69594000E+01  1.56479000E+01  1.86897000E+01  1.93530000E+01  3.43444000E+01
  1.98480000E+01  2.72140000E+01  3.02182000E+01  2.41099000E+01  2.21176000E+01
  2.12047000E+01  7.56690000E+00  2.37264000E+01  2.93879000E+01  3.01278000E+01
  4.19382000E+01  3.85203000E+01  3.39511000E+01  2.75774000E+01  1.56460000E+01
  1.04460000E+01  2.01830000E+01  4.99540000E+01  4.76430000E+01  1.18690000E+01
  1.08670000E+01  9.96100000E+00  9.18700000E+00  3.67980000E+01  1.34070000E+01
  9.38200000E+00  9.81700000E+00  8.90800000E+00  8.40700000E+00  8.05800000E+00
  1.29600000E+01  2.67920000E+01  2.49300000E+01  3.45630000E+01  1.11860000E+01
  1.09440000E+01  1.01270000E+01  9.40400000E+00  1.36660000E+01  7.81000000E+00
  6.93600000E+01  5.86630000E+01  4.79690000E+01  4.52740000E+01  3.92290000E+01
  3.30660000E+01  0.00000000E+00  0.00000000E+00  0.00000000E+00  0.00000000E+00
  0.00000000E+00  0.00000000E+00  0.00000000E+00  0.00000000E+00  0.00000000E+00
  0.00000000E+00  0.00000000E+00  0.00000000E+00  0.00000000E+00  0.00000000E+00
  0.00000000E+00  0.00000000E+00  0.00000000E+00  0.00000000E+00  0.00000000E+00
  0.00000000E+00  0.00000000E+00  0.00000000E+00  0.00000000E+00  0.00000000E+00
  0.00000000E+00  0.00000000E+00  0.00000000E+00  0.00000000E+00  0.00000000E+00
  0.00000000E+00  0.00000000E+00  0.00000000E+00  0.00000000E+00  0.00000000E+00
  0.00000000E+00  0.00000000E+00  0.00000000E+00  0.00000000E+00  0.00000000E+00
  0.00000000E+00  0.00000000E+00  0.00000000E+00  0.00000000E+00  0.00000000E+00
  0.00000000E+00  0.00000000E+00  0.00000000E+00  0.00000000E+00  0.00000000E+00
  0.00000000E+00  0.00000000E+00  0.00000000E+00  0.00000000E+00  0.00000000E+00
  0.00000000E+00  0.00000000E+00  0.00000000E+00  0.00000000E+00  0.00000000E+00
  0.00000000E+00  0.00000000E+00  0.00000000E+00  0.00000000E+00  0.00000000E+00
  0.00000000E+00  0.00000000E+00  0.00000000E+00  0.00000000E+00  0.00000000E+00
  0.00000000E+00  0.00000000E+00  0.00000000E+00  0.00000000E+00  0.00000000E+00
  0.00000000E+00  0.00000000E+00  0.00000000E+00  0.00000000E+00  0.00000000E+00
  0.00000000E+00  0.00000000E+00  0.00000000E+00  0.00000000E+00  0.00000000E+00
  0.00000000E+00  0.00000000E+00  0.00000000E+00  0.00000000E+00  0.00000000E+00
  0.00000000E+00  0.00000000E+00  0.00000000E+00  0.00000000E+00  0.00000000E+00
  0.00000000E+00  0.00000000E+00  0.00000000E+00  0.00000000E+00  0.00000000E+00
  0.00000000E+00  0.00000000E+00  0.00000000E+00  0.00000000E+00  0.00000000E+00
  0.00000000E+00  0.00000000E+00  0.00000000E+00  0.00000000E+00  0.00000000E+00
  0.00000000E+00  0.00000000E+00  0.00000000E+00  0.00000000E+00  0.00000000E+00
  0.00000000E+00  0.00000000E+00  0.00000000E+00  0.00000000E+00  0.00000000E+00
  0.00000000E+00  0.00000000E+00  0.00000000E+00  0.00000000E+00  0.00000000E+00
  0.00000000E+00  0.00000000E+00  0.00000000E+00  0.00000000E+00  0.00000000E+00
  0.00000000E+00  0.00000000E+00  0.00000000E+00  0.00000000E+00  0.00000000E+00
  0.00000000E+00  0.00000000E+00  0.00000000E+00  0.00000000E+00  0.00000000E+00
  0.00000000E+00  0.00000000E+00  0.00000000E+00  0.00000000E+00  0.00000000E+00
  0.00000000E+00  0.00000000E+00  0.00000000E+00  0.00000000E+00  0.00000000E+00
  0.00000000E+00  0.00000000E+00  0.00000000E+00  0.00000000E+00  0.00000000E+00
  0.00000000E+00  0.00000000E+00  0.00000000E+00  0.00000000E+00  0.00000000E+00
  0.00000000E+00  0.00000000E+00  0.00000000E+00  0.00000000E+00  0.00000000E+00
  0.00000000E+00  0.00000000E+00  0.00000000E+00  0.00000000E+00  0.00000000E+00
  0.00000000E+00  0.00000000E+00  0.00000000E+00  0.00000000E+00  0.00000000E+00
  0.00000000E+00  0.00000000E+00  0.00000000E+00  0.00000000E+00  0.00000000E+00
  0.00000000E+00  0.00000000E+00  0.00000000E+00  0.00000000E+00  0.00000000E+00
  0.00000000E+00  0.00000000E+00  0.00000000E+00  0.00000000E+00  0.00000000E+00
  0.00000000E+00  0.00000000E+00  0.00000000E+00  0.00000000E+00  0.00000000E+00
  0.00000000E+00  0.00000000E+00  0.00000000E+00  0.00000000E+00  0.00000000E+00
  0.00000000E+00  0.00000000E+00  0.00000000E+00  0.00000000E+00  0.00000000E+00
  0.00000000E+00  0.00000000E+00  0.00000000E+00  0.00000000E+00  0.00000000E+00
  0.00000000E+00  0.00000000E+00  0.00000000E+00  0.00000000E+00  0.00000000E+00
  0.00000000E+00  0.00000000E+00  0.00000000E+00  0.00000000E+00  0.00000000E+00
  0.00000000E+00  0.00000000E+00  0.00000000E+00  0.00000000E+00  0.00000000E+00
  0.00000000E+00  0.00000000E+00  0.00000000E+00  0.00000000E+00  0.00000000E+00
  0.00000000E+00  0.00000000E+00  0.00000000E+00  0.00000000E+00  0.00000000E+00
  0.00000000E+00  0.00000000E+00  0.00000000E+00  0.00000000E+00  0.00000000E+00
  0.00000000E+00  0.00000000E+00  0.00000000E+00  0.00000000E+00  0.00000000E+00
  0.00000000E+00  0.00000000E+00  0.00000000E+00  0.00000000E+00  0.00000000E+00
  0.00000000E+00  0.00000000E+00  0.00000000E+00  0.00000000E+00  0.00000000E+00
  0.00000000E+00  0.00000000E+00  0.00000000E+00  0.00000000E+00  0.00000000E+00
  0.00000000E+00  0.00000000E+00  0.00000000E+00  0.00000000E+00  0.00000000E+00
  0.00000000E+00  0.00000000E+00  0.00000000E+00  0.00000000E+00  0.00000000E+00
  0.00000000E+00  0.00000000E+00  0.00000000E+00  0.00000000E+00  0.00000000E+00
  0.00000000E+00  0.00000000E+00  0.00000000E+00  0.00000000E+00  0.00000000E+00
  0.00000000E+00  0.00000000E+00  0.00000000E+00  0.00000000E+00  0.00000000E+00
  0.00000000E+00  0.00000000E+00  0.00000000E+00  0.00000000E+00  0.00000000E+00
  0.00000000E+00  0.00000000E+00  0.00000000E+00  0.00000000E+00  0.00000000E+00
  0.00000000E+00  0.00000000E+00  0.00000000E+00  0.00000000E+00  0.00000000E+00
  0.00000000E+00  0.00000000E+00  0.00000000E+00  0.00000000E+00  0.00000000E+00
  0.00000000E+00  0.00000000E+00  0.00000000E+00  0.00000000E+00  0.00000000E+00
  0.00000000E+00  0.00000000E+00  0.00000000E+00  0.00000000E+00  0.00000000E+00
  0.00000000E+00  0.00000000E+00  0.00000000E+00  0.00000000E+00  0.00000000E+00
  0.00000000E+00  0.00000000E+00  0.00000000E+00  0.00000000E+00  0.00000000E+00
  0.00000000E+00  0.00000000E+00  0.00000000E+00  0.00000000E+00  0.00000000E+00
  0.00000000E+00  0.00000000E+00  0.00000000E+00  0.00000000E+00  0.00000000E+00
  0.00000000E+00  0.00000000E+00  0.00000000E+00  0.00000000E+00  0.00000000E+00
  0.00000000E+00  0.00000000E+00  0.00000000E+00  0.00000000E+00  0.00000000E+00
  0.00000000E+00  0.00000000E+00  0.00000000E+00  0.00000000E+00  0.00000000E+00
  0.00000000E+00  0.00000000E+00  0.00000000E+00  0.00000000E+00  0.00000000E+00
  0.00000000E+00  0.00000000E+00  0.00000000E+00  0.00000000E+00  0.00000000E+00
  0.00000000E+00  0.00000000E+00  0.00000000E+00  0.00000000E+00  0.00000000E+00
  0.00000000E+00  0.00000000E+00  0.00000000E+00  0.00000000E+00  0.00000000E+00
  0.00000000E+00  0.00000000E+00  0.00000000E+00  0.00000000E+00  0.00000000E+00
  0.00000000E+00  0.00000000E+00  0.00000000E+00  0.00000000E+00  0.00000000E+00
  0.00000000E+00  0.00000000E+00  0.00000000E+00  0.00000000E+00  0.00000000E+00
  0.00000000E+00  0.00000000E+00  0.00000000E+00  0.00000000E+00  0.00000000E+00
  0.00000000E+00  0.00000000E+00  0.00000000E+00  0.00000000E+00  0.00000000E+00
  0.00000000E+00  0.00000000E+00  0.00000000E+00  0.00000000E+00  0.00000000E+00
  0.00000000E+00  0.00000000E+00  0.00000000E+00  0.00000000E+00  0.00000000E+00
  0.00000000E+00  0.00000000E+00  0.00000000E+00  0.00000000E+00  0.00000000E+00
  0.00000000E+00  0.00000000E+00  0.00000000E+00  0.00000000E+00  0.00000000E+00
  0.00000000E+00  0.00000000E+00  0.00000000E+00  0.00000000E+00  0.00000000E+00
  0.00000000E+00  0.00000000E+00  0.00000000E+00  0.00000000E+00  0.00000000E+00
  0.00000000E+00  0.00000000E+00  0.00000000E+00  0.00000000E+00  0.00000000E+00
  0.00000000E+00  0.00000000E+00  0.00000000E+00  0.00000000E+00  0.00000000E+00
  0.00000000E+00  0.00000000E+00  0.00000000E+00  0.00000000E+00  0.00000000E+00
  0.00000000E+00  0.00000000E+00  0.00000000E+00  0.00000000E+00  0.00000000E+00
  0.00000000E+00  0.00000000E+00  0.00000000E+00  0.00000000E+00  0.00000000E+00
  0.00000000E+00  0.00000000E+00  0.00000000E+00  0.00000000E+00  0.00000000E+00
  0.00000000E+00  0.00000000E+00  0.00000000E+00  0.00000000E+00  0.00000000E+00
  0.00000000E+00  0.00000000E+00  0.00000000E+00  0.00000000E+00  0.00000000E+00
  0.00000000E+00  0.00000000E+00  0.00000000E+00  0.00000000E+00  0.00000000E+00
  0.00000000E+00  0.00000000E+00  0.00000000E+00  0.00000000E+00  0.00000000E+00
  0.00000000E+00  0.00000000E+00  0.00000000E+00  0.00000000E+00  0.00000000E+00
  0.00000000E+00  0.00000000E+00  0.00000000E+00  0.00000000E+00  0.00000000E+00
  0.00000000E+00  0.00000000E+00  0.00000000E+00  0.00000000E+00  0.00000000E+00
  0.00000000E+00  0.00000000E+00  0.00000000E+00  0.00000000E+00  0.00000000E+00
  0.00000000E+00  0.00000000E+00  0.00000000E+00  0.00000000E+00  0.00000000E+00
  0.00000000E+00  0.00000000E+00  0.00000000E+00  0.00000000E+00  0.00000000E+00
  0.00000000E+00  0.00000000E+00  0.00000000E+00  0.00000000E+00  0.00000000E+00
  0.00000000E+00  0.00000000E+00  0.00000000E+00  0.00000000E+00  0.00000000E+00
  0.00000000E+00  0.00000000E+00  0.00000000E+00  0.00000000E+00  0.00000000E+00
  0.00000000E+00  0.00000000E+00  0.00000000E+00  0.00000000E+00  0.00000000E+00
  0.00000000E+00  0.00000000E+00  0.00000000E+00  0.00000000E+00  0.00000000E+00
  0.00000000E+00  0.00000000E+00  0.00000000E+00  0.00000000E+00  0.00000000E+00
  0.00000000E+00  0.00000000E+00  0.00000000E+00  0.00000000E+00  0.00000000E+00
  0.00000000E+00  0.00000000E+00  0.00000000E+00  0.00000000E+00  0.00000000E+00
  0.00000000E+00  0.00000000E+00  0.00000000E+00  0.00000000E+00  0.00000000E+00
  0.00000000E+00  0.00000000E+00  0.00000000E+00  0.00000000E+00  0.00000000E+00
  0.00000000E+00  0.00000000E+00  0.00000000E+00  0.00000000E+00  0.00000000E+00
  0.00000000E+00  0.00000000E+00  0.00000000E+00  0.00000000E+00  0.00000000E+00
  0.00000000E+00  0.00000000E+00  0.00000000E+00  0.00000000E+00  0.00000000E+00
  0.00000000E+00  0.00000000E+00  0.00000000E+00  0.00000000E+00  0.00000000E+00
  0.00000000E+00  0.00000000E+00  0.00000000E+00  0.00000000E+00  0.00000000E+00
  0.00000000E+00  0.00000000E+00  0.00000000E+00  0.00000000E+00  0.00000000E+00
  0.00000000E+00  0.00000000E+00  0.00000000E+00  0.00000000E+00  0.00000000E+00
  0.00000000E+00  0.00000000E+00  0.00000000E+00  0.00000000E+00  0.00000000E+00
  0.00000000E+00  0.00000000E+00  0.00000000E+00  0.00000000E+00  0.00000000E+00
  0.00000000E+00  0.00000000E+00  0.00000000E+00  0.00000000E+00  0.00000000E+00
  0.00000000E+00  0.00000000E+00  0.00000000E+00  0.00000000E+00  0.00000000E+00
  0.00000000E+00  0.00000000E+00  0.00000000E+00  0.00000000E+00  0.00000000E+00
  0.00000000E+00  0.00000000E+00  0.00000000E+00  0.00000000E+00  0.00000000E+00
  0.00000000E+00  0.00000000E+00  0.00000000E+00  0.00000000E+00  0.00000000E+00
  0.00000000E+00  0.00000000E+00  0.00000000E+00  0.00000000E+00  0.00000000E+00
  0.00000000E+00  0.00000000E+00  0.00000000E+00  0.00000000E+00  0.00000000E+00
  0.00000000E+00  0.00000000E+00  0.00000000E+00  0.00000000E+00  0.00000000E+00
  0.00000000E+00  0.00000000E+00  0.00000000E+00  0.00000000E+00  0.00000000E+00
  0.00000000E+00  0.00000000E+00  0.00000000E+00  0.00000000E+00  0.00000000E+00
  0.00000000E+00  0.00000000E+00  0.00000000E+00  0.00000000E+00  0.00000000E+00
  0.00000000E+00  0.00000000E+00  0.00000000E+00  0.00000000E+00  0.00000000E+00
  0.00000000E+00  0.00000000E+00  0.00000000E+00  0.00000000E+00  0.00000000E+00
  0.00000000E+00  0.00000000E+00  0.00000000E+00  0.00000000E+00  0.00000000E+00
  0.00000000E+00  0.00000000E+00  0.00000000E+00  0.00000000E+00  0.00000000E+00
  0.00000000E+00  0.00000000E+00  0.00000000E+00  0.00000000E+00  0.00000000E+00
  0.00000000E+00  0.00000000E+00  0.00000000E+00  0.00000000E+00  0.00000000E+00
  0.00000000E+00  0.00000000E+00  0.00000000E+00  0.00000000E+00  0.00000000E+00
  0.00000000E+00  0.00000000E+00  0.00000000E+00  0.00000000E+00  0.00000000E+00
  0.00000000E+00  0.00000000E+00  0.00000000E+00  0.00000000E+00  0.00000000E+00
  0.00000000E+00  0.00000000E+00  0.00000000E+00  0.00000000E+00  0.00000000E+00
  0.00000000E+00  0.00000000E+00  0.00000000E+00  0.00000000E+00  0.00000000E+00
  0.00000000E+00  0.00000000E+00  0.00000000E+00  0.00000000E+00  0.00000000E+00
  0.00000000E+00  0.00000000E+00  0.00000000E+00  0.00000000E+00  0.00000000E+00
  0.00000000E+00  0.00000000E+00  0.00000000E+00  0.00000000E+00  0.00000000E+00
  0.00000000E+00  0.00000000E+00  0.00000000E+00  0.00000000E+00  0.00000000E+00
  0.00000000E+00  0.00000000E+00  0.00000000E+00  0.00000000E+00  0.00000000E+00
  0.00000000E+00  0.00000000E+00  0.00000000E+00  0.00000000E+00  0.00000000E+00
  0.00000000E+00  0.00000000E+00  0.00000000E+00  0.00000000E+00  0.00000000E+00
  0.00000000E+00  0.00000000E+00  0.00000000E+00  0.00000000E+00  0.00000000E+00
  0.00000000E+00  0.00000000E+00  0.00000000E+00  0.00000000E+00  0.00000000E+00
  0.00000000E+00  0.00000000E+00  0.00000000E+00  0.00000000E+00  0.00000000E+00
  0.00000000E+00  0.00000000E+00  0.00000000E+00  0.00000000E+00  0.00000000E+00
  0.00000000E+00  0.00000000E+00  0.00000000E+00  0.00000000E+00  0.00000000E+00
  0.00000000E+00  0.00000000E+00  0.00000000E+00  0.00000000E+00  0.00000000E+00
  0.00000000E+00  0.00000000E+00  0.00000000E+00  0.00000000E+00  0.00000000E+00
  0.00000000E+00  0.00000000E+00  0.00000000E+00  0.00000000E+00  0.00000000E+00
  0.00000000E+00  0.00000000E+00  0.00000000E+00  0.00000000E+00  0.00000000E+00
  0.00000000E+00  0.00000000E+00  0.00000000E+00  0.00000000E+00  0.00000000E+00
  0.00000000E+00  0.00000000E+00  0.00000000E+00  0.00000000E+00  0.00000000E+00
  0.00000000E+00  0.00000000E+00  0.00000000E+00  0.00000000E+00  0.00000000E+00
  0.00000000E+00  0.00000000E+00  0.00000000E+00  0.00000000E+00  0.00000000E+00
  0.00000000E+00  0.00000000E+00  0.00000000E+00  0.00000000E+00  0.00000000E+00
  0.00000000E+00  0.00000000E+00  0.00000000E+00  0.00000000E+00  0.00000000E+00
  0.00000000E+00  0.00000000E+00  0.00000000E+00  0.00000000E+00  0.00000000E+00
  0.00000000E+00  0.00000000E+00  0.00000000E+00  0.00000000E+00  0.00000000E+00
  0.00000000E+00  0.00000000E+00  0.00000000E+00  0.00000000E+00  0.00000000E+00
  0.00000000E+00  0.00000000E+00  0.00000000E+00  0.00000000E+00  0.00000000E+00
  0.00000000E+00  0.00000000E+00  0.00000000E+00  0.00000000E+00  0.00000000E+00
  0.00000000E+00  0.00000000E+00  0.00000000E+00  0.00000000E+00  0.00000000E+00
  0.00000000E+00  0.00000000E+00  0.00000000E+00  0.00000000E+00  0.00000000E+00
  0.00000000E+00  0.00000000E+00  0.00000000E+00  0.00000000E+00  0.00000000E+00
  0.00000000E+00  0.00000000E+00  0.00000000E+00  0.00000000E+00  0.00000000E+00
  0.00000000E+00  0.00000000E+00  0.00000000E+00  0.00000000E+00  0.00000000E+00
  0.00000000E+00  0.00000000E+00  0.00000000E+00  0.00000000E+00  0.00000000E+00
  0.00000000E+00  0.00000000E+00  0.00000000E+00  0.00000000E+00  0.00000000E+00
  0.00000000E+00  0.00000000E+00  0.00000000E+00  0.00000000E+00  0.00000000E+00
  0.00000000E+00  0.00000000E+00  0.00000000E+00  0.00000000E+00  0.00000000E+00
  0.00000000E+00  0.00000000E+00  0.00000000E+00  0.00000000E+00  0.00000000E+00
  0.00000000E+00  0.00000000E+00  0.00000000E+00  0.00000000E+00  0.00000000E+00
  0.00000000E+00  0.00000000E+00  0.00000000E+00  0.00000000E+00  0.00000000E+00
  0.00000000E+00  0.00000000E+00  0.00000000E+00  0.00000000E+00  0.00000000E+00
  0.00000000E+00  0.00000000E+00  0.00000000E+00  0.00000000E+00  0.00000000E+00
  0.00000000E+00  0.00000000E+00  0.00000000E+00  0.00000000E+00  0.00000000E+00
  0.00000000E+00  0.00000000E+00  0.00000000E+00  0.00000000E+00  0.00000000E+00
  0.00000000E+00  0.00000000E+00  0.00000000E+00  0.00000000E+00  0.00000000E+00
  0.00000000E+00  0.00000000E+00  0.00000000E+00  0.00000000E+00  0.00000000E+00
  0.00000000E+00  0.00000000E+00  0.00000000E+00  0.00000000E+00  0.00000000E+00
  0.00000000E+00  0.00000000E+00  0.00000000E+00  0.00000000E+00  0.00000000E+00
  0.00000000E+00  0.00000000E+00  0.00000000E+00  0.00000000E+00  0.00000000E+00
  0.00000000E+00  0.00000000E+00  0.00000000E+00  0.00000000E+00  0.00000000E+00
  0.00000000E+00  0.00000000E+00  0.00000000E+00  0.00000000E+00  0.00000000E+00
  0.00000000E+00  0.00000000E+00  0.00000000E+00  0.00000000E+00  0.00000000E+00
  0.00000000E+00  0.00000000E+00  0.00000000E+00  0.00000000E+00  0.00000000E+00
  0.00000000E+00  0.00000000E+00  0.00000000E+00  0.00000000E+00  0.00000000E+00
  0.00000000E+00  0.00000000E+00  0.00000000E+00  0.00000000E+00  0.00000000E+00
  0.00000000E+00  0.00000000E+00  0.00000000E+00  0.00000000E+00  0.00000000E+00
  0.00000000E+00  0.00000000E+00  0.00000000E+00  0.00000000E+00  0.00000000E+00
  0.00000000E+00  0.00000000E+00  0.00000000E+00  0.00000000E+00  0.00000000E+00
  0.00000000E+00  0.00000000E+00  0.00000000E+00  0.00000000E+00  0.00000000E+00
  0.00000000E+00  0.00000000E+00  0.00000000E+00  0.00000000E+00  0.00000000E+00
  0.00000000E+00  0.00000000E+00  0.00000000E+00  0.00000000E+00  0.00000000E+00
  0.00000000E+00  0.00000000E+00  0.00000000E+00  0.00000000E+00  0.00000000E+00
  0.00000000E+00  0.00000000E+00  0.00000000E+00  0.00000000E+00  0.00000000E+00
  0.00000000E+00  0.00000000E+00  0.00000000E+00  0.00000000E+00  0.00000000E+00
  0.00000000E+00  0.00000000E+00  0.00000000E+00  0.00000000E+00  0.00000000E+00
  0.00000000E+00  0.00000000E+00  0.00000000E+00  0.00000000E+00  0.00000000E+00
  0.00000000E+00  0.00000000E+00  0.00000000E+00  0.00000000E+00  0.00000000E+00
  0.00000000E+00  0.00000000E+00  0.00000000E+00  0.00000000E+00  0.00000000E+00
  0.00000000E+00  0.00000000E+00  0.00000000E+00  0.00000000E+00  0.00000000E+00
  0.00000000E+00  0.00000000E+00  0.00000000E+00  0.00000000E+00  0.00000000E+00
  0.00000000E+00  0.00000000E+00  0.00000000E+00  0.00000000E+00  0.00000000E+00
  0.00000000E+00  0.00000000E+00  0.00000000E+00  0.00000000E+00  0.00000000E+00
  0.00000000E+00  0.00000000E+00  0.00000000E+00  0.00000000E+00  0.00000000E+00
  0.00000000E+00  0.00000000E+00  0.00000000E+00  0.00000000E+00  0.00000000E+00
  0.00000000E+00  0.00000000E+00  0.00000000E+00  0.00000000E+00  0.00000000E+00
  0.00000000E+00  0.00000000E+00  0.00000000E+00  0.00000000E+00  0.00000000E+00
  0.00000000E+00  0.00000000E+00  0.00000000E+00  0.00000000E+00  0.00000000E+00
  0.00000000E+00  0.00000000E+00  0.00000000E+00  0.00000000E+00  0.00000000E+00
  0.00000000E+00  0.00000000E+00  0.00000000E+00  0.00000000E+00  0.00000000E+00
  0.00000000E+00  0.00000000E+00  0.00000000E+00  0.00000000E+00  0.00000000E+00
  0.00000000E+00  0.00000000E+00  0.00000000E+00  0.00000000E+00  0.00000000E+00
  0.00000000E+00  0.00000000E+00  0.00000000E+00  0.00000000E+00  0.00000000E+00
  0.00000000E+00  0.00000000E+00  0.00000000E+00  0.00000000E+00  0.00000000E+00
  0.00000000E+00  0.00000000E+00  0.00000000E+00  0.00000000E+00  0.00000000E+00
  0.00000000E+00  0.00000000E+00  0.00000000E+00  0.00000000E+00  0.00000000E+00
  0.00000000E+00  0.00000000E+00  0.00000000E+00  0.00000000E+00  0.00000000E+00
  0.00000000E+00  0.00000000E+00  0.00000000E+00  0.00000000E+00  0.00000000E+00
  0.00000000E+00  0.00000000E+00  0.00000000E+00  0.00000000E+00  0.00000000E+00
  0.00000000E+00  0.00000000E+00  0.00000000E+00  0.00000000E+00  0.00000000E+00
  0.00000000E+00  0.00000000E+00  0.00000000E+00  0.00000000E+00  0.00000000E+00
  0.00000000E+00  0.00000000E+00  0.00000000E+00  0.00000000E+00  0.00000000E+00
  0.00000000E+00  0.00000000E+00  0.00000000E+00  0.00000000E+00  0.00000000E+00
  0.00000000E+00  0.00000000E+00  0.00000000E+00  0.00000000E+00  0.00000000E+00
  0.00000000E+00  0.00000000E+00  0.00000000E+00  0.00000000E+00  0.00000000E+00
  0.00000000E+00  0.00000000E+00  0.00000000E+00  0.00000000E+00  0.00000000E+00
  0.00000000E+00  0.00000000E+00  0.00000000E+00  0.00000000E+00  0.00000000E+00
  0.00000000E+00  0.00000000E+00  0.00000000E+00  0.00000000E+00  0.00000000E+00
  0.00000000E+00  0.00000000E+00  0.00000000E+00  0.00000000E+00  0.00000000E+00
  0.00000000E+00  0.00000000E+00  0.00000000E+00  0.00000000E+00  0.00000000E+00
  0.00000000E+00  0.00000000E+00  0.00000000E+00  0.00000000E+00  0.00000000E+00
  0.00000000E+00  0.00000000E+00  0.00000000E+00  0.00000000E+00  0.00000000E+00
  0.00000000E+00  0.00000000E+00  0.00000000E+00  0.00000000E+00  0.00000000E+00
  0.00000000E+00  0.00000000E+00  0.00000000E+00  0.00000000E+00  0.00000000E+00
  0.00000000E+00  0.00000000E+00  0.00000000E+00  0.00000000E+00  0.00000000E+00
  0.00000000E+00  0.00000000E+00  0.00000000E+00  0.00000000E+00  0.00000000E+00
  0.00000000E+00  0.00000000E+00  0.00000000E+00  0.00000000E+00  0.00000000E+00
  0.00000000E+00  0.00000000E+00  0.00000000E+00  0.00000000E+00  0.00000000E+00
  0.00000000E+00  0.00000000E+00  0.00000000E+00  0.00000000E+00  0.00000000E+00
  0.00000000E+00  0.00000000E+00  0.00000000E+00  0.00000000E+00  0.00000000E+00
  0.00000000E+00  0.00000000E+00  0.00000000E+00  0.00000000E+00  0.00000000E+00
  0.00000000E+00  0.00000000E+00  0.00000000E+00  0.00000000E+00  0.00000000E+00
  0.00000000E+00  0.00000000E+00  0.00000000E+00  0.00000000E+00  0.00000000E+00
  0.00000000E+00  0.00000000E+00  0.00000000E+00  0.00000000E+00  0.00000000E+00
  0.00000000E+00  0.00000000E+00  0.00000000E+00  0.00000000E+00  0.00000000E+00
  0.00000000E+00  0.00000000E+00  0.00000000E+00  0.00000000E+00  0.00000000E+00
  0.00000000E+00  0.00000000E+00  0.00000000E+00  0.00000000E+00  0.00000000E+00
  0.00000000E+00  0.00000000E+00  0.00000000E+00  0.00000000E+00  0.00000000E+00
  0.00000000E+00  0.00000000E+00  0.00000000E+00  0.00000000E+00  0.00000000E+00
  0.00000000E+00  0.00000000E+00  0.00000000E+00  0.00000000E+00  0.00000000E+00
  0.00000000E+00  0.00000000E+00  0.00000000E+00  0.00000000E+00  0.00000000E+00
  0.00000000E+00  0.00000000E+00  0.00000000E+00  0.00000000E+00  0.00000000E+00
  0.00000000E+00  0.00000000E+00  0.00000000E+00  0.00000000E+00  0.00000000E+00
  0.00000000E+00  0.00000000E+00  0.00000000E+00  0.00000000E+00  0.00000000E+00
  0.00000000E+00  0.00000000E+00  0.00000000E+00  0.00000000E+00  0.00000000E+00
  0.00000000E+00  0.00000000E+00  0.00000000E+00  0.00000000E+00  0.00000000E+00
  0.00000000E+00  0.00000000E+00  0.00000000E+00  0.00000000E+00  0.00000000E+00
  0.00000000E+00  0.00000000E+00  0.00000000E+00  0.00000000E+00  0.00000000E+00
  0.00000000E+00  0.00000000E+00  0.00000000E+00  0.00000000E+00  0.00000000E+00
  0.00000000E+00  0.00000000E+00  0.00000000E+00  0.00000000E+00  0.00000000E+00
  0.00000000E+00  0.00000000E+00  0.00000000E+00  0.00000000E+00  0.00000000E+00
  0.00000000E+00  0.00000000E+00  0.00000000E+00  0.00000000E+00  0.00000000E+00
  0.00000000E+00  0.00000000E+00  0.00000000E+00  0.00000000E+00  0.00000000E+00
  0.00000000E+00  0.00000000E+00  0.00000000E+00  0.00000000E+00  0.00000000E+00
  0.00000000E+00  0.00000000E+00  0.00000000E+00  0.00000000E+00  0.00000000E+00
  0.00000000E+00  0.00000000E+00  0.00000000E+00  0.00000000E+00  0.00000000E+00
  0.00000000E+00  0.00000000E+00  0.00000000E+00  0.00000000E+00  0.00000000E+00
  0.00000000E+00  0.00000000E+00  0.00000000E+00  0.00000000E+00  0.00000000E+00
  0.00000000E+00  0.00000000E+00  0.00000000E+00  0.00000000E+00  0.00000000E+00
  0.00000000E+00  0.00000000E+00  0.00000000E+00  0.00000000E+00  0.00000000E+00
  0.00000000E+00  0.00000000E+00  0.00000000E+00  0.00000000E+00  0.00000000E+00
  0.00000000E+00  0.00000000E+00  0.00000000E+00  0.00000000E+00  0.00000000E+00
  0.00000000E+00  0.00000000E+00  0.00000000E+00  0.00000000E+00  0.00000000E+00
  0.00000000E+00  0.00000000E+00  0.00000000E+00  0.00000000E+00  0.00000000E+00
  0.00000000E+00  0.00000000E+00  0.00000000E+00  0.00000000E+00  0.00000000E+00
  0.00000000E+00  0.00000000E+00  0.00000000E+00  0.00000000E+00  0.00000000E+00
  0.00000000E+00  0.00000000E+00  0.00000000E+00  0.00000000E+00  0.00000000E+00
  0.00000000E+00  0.00000000E+00  0.00000000E+00  0.00000000E+00  0.00000000E+00
  0.00000000E+00  0.00000000E+00  0.00000000E+00  0.00000000E+00  0.00000000E+00
  0.00000000E+00  0.00000000E+00  0.00000000E+00  0.00000000E+00  0.00000000E+00
  0.00000000E+00  0.00000000E+00  0.00000000E+00  0.00000000E+00  0.00000000E+00
  0.00000000E+00  0.00000000E+00  0.00000000E+00  0.00000000E+00  0.00000000E+00
  0.00000000E+00  0.00000000E+00  0.00000000E+00  0.00000000E+00  0.00000000E+00
  0.00000000E+00  0.00000000E+00  0.00000000E+00  0.00000000E+00  0.00000000E+00
  0.00000000E+00  0.00000000E+00  0.00000000E+00  0.00000000E+00  0.00000000E+00
  0.00000000E+00  0.00000000E+00  0.00000000E+00  0.00000000E+00  0.00000000E+00
  0.00000000E+00  0.00000000E+00  0.00000000E+00  0.00000000E+00  0.00000000E+00
  0.00000000E+00  0.00000000E+00  0.00000000E+00  0.00000000E+00  0.00000000E+00
  0.00000000E+00  0.00000000E+00  0.00000000E+00  0.00000000E+00  0.00000000E+00
  0.00000000E+00  0.00000000E+00  0.00000000E+00  0.00000000E+00  0.00000000E+00
  0.00000000E+00  0.00000000E+00  0.00000000E+00  0.00000000E+00  0.00000000E+00
  0.00000000E+00  0.00000000E+00  0.00000000E+00  0.00000000E+00  0.00000000E+00
  0.00000000E+00  0.00000000E+00  0.00000000E+00  0.00000000E+00  0.00000000E+00
  0.00000000E+00  0.00000000E+00  0.00000000E+00  0.00000000E+00  0.00000000E+00
  0.00000000E+00  0.00000000E+00  0.00000000E+00  0.00000000E+00  0.00000000E+00
  0.00000000E+00  0.00000000E+00  0.00000000E+00  0.00000000E+00  0.00000000E+00
  0.00000000E+00  0.00000000E+00  0.00000000E+00  0.00000000E+00  0.00000000E+00
  0.00000000E+00  0.00000000E+00  0.00000000E+00  0.00000000E+00  0.00000000E+00
  0.00000000E+00  0.00000000E+00  0.00000000E+00  0.00000000E+00  0.00000000E+00
  0.00000000E+00  0.00000000E+00  0.00000000E+00  0.00000000E+00  0.00000000E+00
  0.00000000E+00  0.00000000E+00  0.00000000E+00  0.00000000E+00  0.00000000E+00
  0.00000000E+00  0.00000000E+00  0.00000000E+00  0.00000000E+00  0.00000000E+00
  0.00000000E+00  0.00000000E+00  0.00000000E+00  0.00000000E+00  0.00000000E+00
  0.00000000E+00  0.00000000E+00  0.00000000E+00  0.00000000E+00  0.00000000E+00
  0.00000000E+00  0.00000000E+00  0.00000000E+00  0.00000000E+00  0.00000000E+00
  0.00000000E+00  0.00000000E+00  0.00000000E+00  0.00000000E+00  0.00000000E+00
  0.00000000E+00  0.00000000E+00  0.00000000E+00  0.00000000E+00  0.00000000E+00
  0.00000000E+00  0.00000000E+00  0.00000000E+00  0.00000000E+00  0.00000000E+00
  0.00000000E+00  0.00000000E+00  0.00000000E+00  0.00000000E+00  0.00000000E+00
  0.00000000E+00  0.00000000E+00  0.00000000E+00  0.00000000E+00  0.00000000E+00
  0.00000000E+00  0.00000000E+00  0.00000000E+00  0.00000000E+00  0.00000000E+00
  0.00000000E+00  0.00000000E+00  0.00000000E+00  0.00000000E+00  0.00000000E+00
  0.00000000E+00  0.00000000E+00  0.00000000E+00  0.00000000E+00  0.00000000E+00
  0.00000000E+00  0.00000000E+00  0.00000000E+00  0.00000000E+00  0.00000000E+00
  0.00000000E+00  0.00000000E+00  0.00000000E+00  0.00000000E+00  0.00000000E+00
  0.00000000E+00  0.00000000E+00  0.00000000E+00  0.00000000E+00  0.00000000E+00
  0.00000000E+00  0.00000000E+00  0.00000000E+00  0.00000000E+00  0.00000000E+00
  0.00000000E+00  0.00000000E+00  0.00000000E+00  0.00000000E+00  0.00000000E+00
  0.00000000E+00  0.00000000E+00  0.00000000E+00  0.00000000E+00  0.00000000E+00
  0.00000000E+00  0.00000000E+00  0.00000000E+00  0.00000000E+00  0.00000000E+00
  0.00000000E+00  0.00000000E+00  0.00000000E+00  0.00000000E+00  0.00000000E+00
  0.00000000E+00  0.00000000E+00  0.00000000E+00  0.00000000E+00  0.00000000E+00
  0.00000000E+00  0.00000000E+00  0.00000000E+00  0.00000000E+00  0.00000000E+00
  0.00000000E+00  0.00000000E+00  0.00000000E+00  0.00000000E+00  0.00000000E+00
  0.00000000E+00  0.00000000E+00  0.00000000E+00  0.00000000E+00  0.00000000E+00
  0.00000000E+00  0.00000000E+00  0.00000000E+00  0.00000000E+00  0.00000000E+00
  0.00000000E+00  0.00000000E+00  0.00000000E+00  0.00000000E+00  0.00000000E+00
  0.00000000E+00  0.00000000E+00  0.00000000E+00  0.00000000E+00  0.00000000E+00
  0.00000000E+00  0.00000000E+00  0.00000000E+00  0.00000000E+00  0.00000000E+00
  0.00000000E+00  0.00000000E+00  0.00000000E+00  0.00000000E+00  0.00000000E+00
  0.00000000E+00  0.00000000E+00  0.00000000E+00  0.00000000E+00  0.00000000E+00
  0.00000000E+00  0.00000000E+00  0.00000000E+00  0.00000000E+00  0.00000000E+00
  0.00000000E+00  0.00000000E+00  0.00000000E+00  0.00000000E+00  0.00000000E+00
  0.00000000E+00  0.00000000E+00  0.00000000E+00  0.00000000E+00  0.00000000E+00
  0.00000000E+00  0.00000000E+00  0.00000000E+00  0.00000000E+00  0.00000000E+00
  0.00000000E+00  0.00000000E+00  0.00000000E+00  0.00000000E+00  0.00000000E+00
  0.00000000E+00  0.00000000E+00  0.00000000E+00  0.00000000E+00  0.00000000E+00
  0.00000000E+00  0.00000000E+00  0.00000000E+00  0.00000000E+00  0.00000000E+00
  0.00000000E+00  0.00000000E+00  0.00000000E+00  0.00000000E+00  0.00000000E+00
  0.00000000E+00  0.00000000E+00  0.00000000E+00  0.00000000E+00  0.00000000E+00
  0.00000000E+00  0.00000000E+00  0.00000000E+00  0.00000000E+00  0.00000000E+00
  0.00000000E+00  0.00000000E+00  0.00000000E+00  0.00000000E+00  0.00000000E+00
  0.00000000E+00  0.00000000E+00  0.00000000E+00  0.00000000E+00  0.00000000E+00
  0.00000000E+00  0.00000000E+00  0.00000000E+00  0.00000000E+00  0.00000000E+00
  0.00000000E+00  0.00000000E+00  0.00000000E+00  0.00000000E+00  0.00000000E+00
  0.00000000E+00  0.00000000E+00  0.00000000E+00  0.00000000E+00  0.00000000E+00
  0.00000000E+00  0.00000000E+00  0.00000000E+00  0.00000000E+00  0.00000000E+00
  0.00000000E+00  0.00000000E+00  0.00000000E+00  0.00000000E+00  0.00000000E+00
  0.00000000E+00  0.00000000E+00  0.00000000E+00  0.00000000E+00  0.00000000E+00
  0.00000000E+00  0.00000000E+00  0.00000000E+00  0.00000000E+00  0.00000000E+00
  0.00000000E+00  0.00000000E+00  0.00000000E+00  0.00000000E+00  0.00000000E+00
  0.00000000E+00  0.00000000E+00  0.00000000E+00  0.00000000E+00  0.00000000E+00
  0.00000000E+00  0.00000000E+00  0.00000000E+00  0.00000000E+00  0.00000000E+00
  0.00000000E+00  0.00000000E+00  0.00000000E+00  0.00000000E+00  0.00000000E+00
  0.00000000E+00  0.00000000E+00  0.00000000E+00  0.00000000E+00  0.00000000E+00
  0.00000000E+00  0.00000000E+00  0.00000000E+00  0.00000000E+00  0.00000000E+00
  0.00000000E+00  0.00000000E+00  0.00000000E+00  0.00000000E+00  0.00000000E+00
  0.00000000E+00  0.00000000E+00  0.00000000E+00  0.00000000E+00  0.00000000E+00
  0.00000000E+00  0.00000000E+00  0.00000000E+00  0.00000000E+00  0.00000000E+00
  0.00000000E+00  0.00000000E+00  0.00000000E+00  0.00000000E+00  0.00000000E+00
  0.00000000E+00  0.00000000E+00  0.00000000E+00  0.00000000E+00  0.00000000E+00
  0.00000000E+00  0.00000000E+00  0.00000000E+00  0.00000000E+00  0.00000000E+00
  0.00000000E+00  0.00000000E+00  0.00000000E+00  0.00000000E+00  0.00000000E+00
  0.00000000E+00  0.00000000E+00  0.00000000E+00  0.00000000E+00  0.00000000E+00
  0.00000000E+00  0.00000000E+00  0.00000000E+00  0.00000000E+00  0.00000000E+00
  0.00000000E+00  0.00000000E+00  0.00000000E+00  0.00000000E+00  0.00000000E+00
  0.00000000E+00  0.00000000E+00  0.00000000E+00  0.00000000E+00  0.00000000E+00
  0.00000000E+00  0.00000000E+00  0.00000000E+00  0.00000000E+00  0.00000000E+00
  0.00000000E+00  0.00000000E+00  0.00000000E+00  0.00000000E+00  0.00000000E+00
  0.00000000E+00  0.00000000E+00  0.00000000E+00  0.00000000E+00  0.00000000E+00
  0.00000000E+00  0.00000000E+00  0.00000000E+00  0.00000000E+00  0.00000000E+00
  0.00000000E+00  0.00000000E+00  0.00000000E+00  0.00000000E+00  0.00000000E+00
  0.00000000E+00  0.00000000E+00  0.00000000E+00  0.00000000E+00  0.00000000E+00
Gaussian Version                           C   N=           2
ES64L-G16RevC.01        
