 Entering Gaussian System, Link 0=/gaussian/g16.c01/intel64-sandybridge/g16/g16
 Input=CH4_Td.gjf
 Output=CH4_Td.log
 Initial command:
 /gaussian/g16.c01/intel64-sandybridge/g16/l1.exe "/home/barone/lcrisci_vb/ACTUAL_PROJECTS/MRCC_new_Interface_project/TestingOldVersion/Symmetry/CH4_Td/Gau-4153083.inp" -scrdir="/home/barone/lcrisci_vb/ACTUAL_PROJECTS/MRCC_new_Interface_project/TestingOldVersion/Symmetry/CH4_Td/"
 Entering Link 1 = /gaussian/g16.c01/intel64-sandybridge/g16/l1.exe PID=   4153084.
  
 Copyright (c) 1988-2019, Gaussian, Inc.  All Rights Reserved.
  
 This is part of the Gaussian(R) 16 program.  It is based on
 the Gaussian(R) 09 system (copyright 2009, Gaussian, Inc.),
 the Gaussian(R) 03 system (copyright 2003, Gaussian, Inc.),
 the Gaussian(R) 98 system (copyright 1998, Gaussian, Inc.),
 the Gaussian(R) 94 system (copyright 1995, Gaussian, Inc.),
 the Gaussian 92(TM) system (copyright 1992, Gaussian, Inc.),
 the Gaussian 90(TM) system (copyright 1990, Gaussian, Inc.),
 the Gaussian 88(TM) system (copyright 1988, Gaussian, Inc.),
 the Gaussian 86(TM) system (copyright 1986, Carnegie Mellon
 University), and the Gaussian 82(TM) system (copyright 1983,
 Carnegie Mellon University). Gaussian is a federally registered
 trademark of Gaussian, Inc.
  
 This software contains proprietary and confidential information,
 including trade secrets, belonging to Gaussian, Inc.
  
 This software is provided under written license and may be
 used, copied, transmitted, or stored only in accord with that
 written license.
  
 The following legend is applicable only to US Government
 contracts under FAR:
  
                    RESTRICTED RIGHTS LEGEND
  
 Use, reproduction and disclosure by the US Government is
 subject to restrictions as set forth in subparagraphs (a)
 and (c) of the Commercial Computer Software - Restricted
 Rights clause in FAR 52.227-19.
  
 Gaussian, Inc.
 340 Quinnipiac St., Bldg. 40, Wallingford CT 06492
  
  
 ---------------------------------------------------------------
 Warning -- This program may not be used in any manner that
 competes with the business of Gaussian, Inc. or will provide
 assistance to any competitor of Gaussian, Inc.  The licensee
 of this program is prohibited from giving any competitor of
 Gaussian, Inc. access to this program.  By using this program,
 the user acknowledges that Gaussian, Inc. is engaged in the
 business of creating and licensing software in the field of
 computational chemistry and represents and warrants to the
 licensee that it is not a competitor of Gaussian, Inc. and that
 it will not use this program in any manner prohibited above.
 ---------------------------------------------------------------
  

 Cite this work as:
 Gaussian 16, Revision C.01,
 M. J. Frisch, G. W. Trucks, H. B. Schlegel, G. E. Scuseria, 
 M. A. Robb, J. R. Cheeseman, G. Scalmani, V. Barone, 
 G. A. Petersson, H. Nakatsuji, X. Li, M. Caricato, A. V. Marenich, 
 J. Bloino, B. G. Janesko, R. Gomperts, B. Mennucci, H. P. Hratchian, 
 J. V. Ortiz, A. F. Izmaylov, J. L. Sonnenberg, D. Williams-Young, 
 F. Ding, F. Lipparini, F. Egidi, J. Goings, B. Peng, A. Petrone, 
 T. Henderson, D. Ranasinghe, V. G. Zakrzewski, J. Gao, N. Rega, 
 G. Zheng, W. Liang, M. Hada, M. Ehara, K. Toyota, R. Fukuda, 
 J. Hasegawa, M. Ishida, T. Nakajima, Y. Honda, O. Kitao, H. Nakai, 
 T. Vreven, K. Throssell, J. A. Montgomery, Jr., J. E. Peralta, 
 F. Ogliaro, M. J. Bearpark, J. J. Heyd, E. N. Brothers, K. N. Kudin, 
 V. N. Staroverov, T. A. Keith, R. Kobayashi, J. Normand, 
 K. Raghavachari, A. P. Rendell, J. C. Burant, S. S. Iyengar, 
 J. Tomasi, M. Cossi, J. M. Millam, M. Klene, C. Adamo, R. Cammi, 
 J. W. Ochterski, R. L. Martin, K. Morokuma, O. Farkas, 
 J. B. Foresman, and D. J. Fox, Gaussian, Inc., Wallingford CT, 2019.
 
 ******************************************
 Gaussian 16:  ES64L-G16RevC.01  3-Jul-2019
                19-Nov-2025 
 ******************************************
 %chk=test_parall.chk
 %nprocs=1
 Will use up to    1 processors via shared memory.
 ----------------------------------------------------------------------
 #p force output=pickett External="CentralExt gau $PGAU/test_pr.dat $EG
 AU/test_en.dat 2 20 read parall 6"
 ----------------------------------------------------------------------
 1/10=10,18=10,30=1,38=1,172=1/1;
 2/12=2,17=6,18=5,29=2,40=1/2;
 3/11=9,25=1,30=1,41=9900000,43=2,71=1/1;
 4/20=17,22=1,24=3,113=1,114=1/2;
 6/7=2,8=2,9=2,10=2/1;
 7/7=1,44=-1/16;
 99/10=1024,12=1/99;
 Leave Link    1 at Wed Nov 19 18:11:28 2025, MaxMem=           0 cpu:               0.0 elap:               0.1
 (Enter /gaussian/g16.c01/intel64-sandybridge/g16/l101.exe)
 -----
 title
 -----
 Symbolic Z-matrix:
 Charge =  0 Multiplicity = 1
 C                     0.        0.        0. 
 H                     0.        0.        1.06793 
 H                     0.       -1.00685  -0.35598 
 H                    -0.87196   0.50343  -0.35598 
 H                     0.87196   0.50343  -0.35598 
 
 ITRead=  0  0  0  0  0
 MicOpt= -1 -1 -1 -1 -1
 NAtoms=      5 NQM=        5 NQMF=       0 NMMI=      0 NMMIF=      0
                NMic=       0 NMicF=      0.
                    Isotopes and Nuclear Properties:
 (Nuclear quadrupole moments (NQMom) in fm**2, nuclear magnetic moments (NMagM)
  in nuclear magnetons)

  Atom         1           2           3           4           5
 IAtWgt=          12           1           1           1           1
 AtmWgt=  12.0000000   1.0078250   1.0078250   1.0078250   1.0078250
 NucSpn=           0           1           1           1           1
 AtZEff=  -0.0000000  -0.0000000  -0.0000000  -0.0000000  -0.0000000
 NQMom=    0.0000000   0.0000000   0.0000000   0.0000000   0.0000000
 NMagM=    0.0000000   2.7928460   2.7928460   2.7928460   2.7928460
 AtZNuc=   6.0000000   1.0000000   1.0000000   1.0000000   1.0000000
 Leave Link  101 at Wed Nov 19 18:11:28 2025, MaxMem=   104857600 cpu:               0.1 elap:               0.1
 (Enter /gaussian/g16.c01/intel64-sandybridge/g16/l202.exe)
 ---------------------------------------------------------------------------------------------------
                            Z-MATRIX (ANGSTROMS AND DEGREES)
   CD    Cent   Atom    N1       Length/X        N2       Alpha/Y        N3        Beta/Z          J
 ---------------------------------------------------------------------------------------------------
      1      1  C        0  -0.000000          0.000000         -0.000000
      2      2  H        0  -0.000000         -0.000000          1.067929
      3      3  H        0  -0.000000         -1.006853         -0.355976
      4      4  H        0  -0.871960          0.503426         -0.355976
      5      5  H        0   0.871960          0.503426         -0.355976
 ---------------------------------------------------------------------------------------------------
                         Z-Matrix orientation:                         
 ---------------------------------------------------------------------
 Center     Atomic      Atomic             Coordinates (Angstroms)
 Number     Number       Type             X           Y           Z
 ---------------------------------------------------------------------
      1          6           0       -0.000000    0.000000   -0.000000
      2          1           0       -0.000000   -0.000000    1.067929
      3          1           0       -0.000000   -1.006853   -0.355976
      4          1           0       -0.871960    0.503426   -0.355976
      5          1           0        0.871960    0.503426   -0.355976
 ---------------------------------------------------------------------
                    Distance matrix (angstroms):
                    1          2          3          4          5
     1  C    0.000000
     2  H    1.067929   0.000000
     3  H    1.067929   1.743920   0.000000
     4  H    1.067929   1.743920   1.743920   0.000000
     5  H    1.067929   1.743920   1.743920   1.743920   0.000000
 Stoichiometry    CH4
 Framework group  TD[O(C),4C3(H)]
 Deg. of freedom     1
 Full point group                 TD      NOp  24
 Largest Abelian subgroup         D2      NOp   4
 Largest concise Abelian subgroup D2      NOp   4
                         Standard orientation:                         
 ---------------------------------------------------------------------
 Center     Atomic      Atomic             Coordinates (Angstroms)
 Number     Number       Type             X           Y           Z
 ---------------------------------------------------------------------
      1          6           0        0.000000    0.000000    0.000000
      2          1           0        0.616569    0.616569    0.616569
      3          1           0       -0.616569   -0.616569    0.616569
      4          1           0       -0.616569    0.616569   -0.616569
      5          1           0        0.616569   -0.616569   -0.616569
 ---------------------------------------------------------------------
 Rotational constants (GHZ):         164.8840839         164.8840839         164.8840839
 Leave Link  202 at Wed Nov 19 18:11:29 2025, MaxMem=   104857600 cpu:               0.0 elap:               0.1
 (Enter /gaussian/g16.c01/intel64-sandybridge/g16/l301.exe)
 Standard basis: STO-3G (5D, 7F)
 Ernie: Thresh=  0.10000D-02 Tol=  0.10000D-05 Strict=F.
 There are     3 symmetry adapted cartesian basis functions of A   symmetry.
 There are     2 symmetry adapted cartesian basis functions of B1  symmetry.
 There are     2 symmetry adapted cartesian basis functions of B2  symmetry.
 There are     2 symmetry adapted cartesian basis functions of B3  symmetry.
 There are     3 symmetry adapted basis functions of A   symmetry.
 There are     2 symmetry adapted basis functions of B1  symmetry.
 There are     2 symmetry adapted basis functions of B2  symmetry.
 There are     2 symmetry adapted basis functions of B3  symmetry.
     9 basis functions,    27 primitive gaussians,     9 cartesian basis functions
     5 alpha electrons        5 beta electrons
       nuclear repulsion energy        13.7130625547 Hartrees.
 IExCor=    0 DFT=F Ex=HF Corr=None ExCW=0 ScaHFX=  1.000000
 ScaDFX=  1.000000  1.000000  1.000000  1.000000 ScalE2=  1.000000  1.000000
 IRadAn=      5 IRanWt=     -1 IRanGd=            0 ICorTp=0 IEmpDi=  4
 NAtoms=    5 NActive=    5 NUniq=    2 SFac= 4.00D+00 NAtFMM=   60 NAOKFM=F Big=F
 Integral buffers will be    131072 words long.
 Raffenetti 1 integral format.
 Two-electron integral symmetry is turned on.
 Leave Link  301 at Wed Nov 19 18:11:29 2025, MaxMem=   104857600 cpu:               0.0 elap:               0.1
 (Enter /gaussian/g16.c01/intel64-sandybridge/g16/l402.exe)
 External calculation of energy and first derivatives.
 Running external command "CentralExt gau $PGAU/test_pr.dat $EGAU/test_en.dat 2 20 read parall 6 R"
         input file       "/home/barone/lcrisci_vb/ACTUAL_PROJECTS/MRCC_new_Interface_project/TestingOldVersion/Symmetry/CH4_Td/Gau-4153084.EIn"
         output file      "/home/barone/lcrisci_vb/ACTUAL_PROJECTS/MRCC_new_Interface_project/TestingOldVersion/Symmetry/CH4_Td/Gau-4153084.EOu"
         message file     "/home/barone/lcrisci_vb/ACTUAL_PROJECTS/MRCC_new_Interface_project/TestingOldVersion/Symmetry/CH4_Td/Gau-4153084.EMs"
         fchk file        "/home/barone/lcrisci_vb/ACTUAL_PROJECTS/MRCC_new_Interface_project/TestingOldVersion/Symmetry/CH4_Td/Gau-4153084.EFC"
         mat. el file     "/home/barone/lcrisci_vb/ACTUAL_PROJECTS/MRCC_new_Interface_project/TestingOldVersion/Symmetry/CH4_Td/Gau-4153084.EUF"

================================================================================
CHECKING FOR MIXED ANALYTICAL/NUMERICAL GRADIENT MODE
================================================================================
Analyzing sections in /home/barone/lcrisci_vb/MyScript/PreambleGau/test_pr.dat for gradient mode (comment='#')

--- Section Analysis Summary ---
  default: NUMERICAL (dens=0, lines=0)

Total sections: 1
Analytical sections (0): []
Numerical sections (1): ['default']
--------------------------------

Mode Detection Results:
  OptFlag (gradient requested): 1
  Has analytical sections: False
  Has numerical sections: True
  Mixed mode activated: False
  All analytical mode: False
  All numerical mode: True
================================================================================

FAKE_FREQ CONVERSION: C Bohr=['0.0', '0.0', '0.0'] -> Angstrom=[0.0, 0.0, 0.0]
FAKE_FREQ CONVERSION: H Bohr=['1.165146497395', '1.165146497395', '1.165146497395'] -> Angstrom=[0.6165689737848856, 0.6165689737848856, 0.6165689737848856]
FAKE_FREQ CONVERSION: H Bohr=['-1.165146497395', '-1.165146497395', '1.165146497395'] -> Angstrom=[-0.6165689737848856, -0.6165689737848856, 0.6165689737848856]
FAKE_FREQ CONVERSION: H Bohr=['-1.165146497395', '1.165146497395', '-1.165146497395'] -> Angstrom=[-0.6165689737848856, 0.6165689737848856, -0.6165689737848856]
FAKE_FREQ CONVERSION: H Bohr=['1.165146497395', '-1.165146497395', '-1.165146497395'] -> Angstrom=[0.6165689737848856, -0.6165689737848856, -0.6165689737848856]
Checking original directory for Gaussian input: /home/barone/lcrisci_vb/ACTUAL_PROJECTS/MRCC_new_Interface_project/TestingOldVersion/Symmetry/CH4_Td
Found Gaussian input file with External keyword: /home/barone/lcrisci_vb/ACTUAL_PROJECTS/MRCC_new_Interface_project/TestingOldVersion/Symmetry/CH4_Td/CH4_Td.gjf
GEOMETRY CONVERSION: Task 'central' - Converted from Bohr to Angstrom
  First atom coordinates: Bohr = [0. 0. 0.], Angstrom = [0. 0. 0.]
GEOMETRY CONVERSION: Task 'atom_1_ixyz_1_up' - Converted from Bohr to Angstrom
  First atom coordinates: Bohr = [0.00188973 0.         0.        ], Angstrom = [0.001 0.    0.   ]
GEOMETRY CONVERSION: Task 'atom_1_ixyz_2_up' - Converted from Bohr to Angstrom
  First atom coordinates: Bohr = [0.         0.00188973 0.        ], Angstrom = [0.    0.001 0.   ]
GEOMETRY CONVERSION: Task 'atom_1_ixyz_3_up' - Converted from Bohr to Angstrom
  First atom coordinates: Bohr = [0.         0.         0.00188973], Angstrom = [0.    0.    0.001]
GEOMETRY CONVERSION: Task 'atom_2_ixyz_1_up' - Converted from Bohr to Angstrom
  First atom coordinates: Bohr = [0. 0. 0.], Angstrom = [0. 0. 0.]
GEOMETRY CONVERSION: Task 'atom_2_ixyz_1_down' - Converted from Bohr to Angstrom
  First atom coordinates: Bohr = [0. 0. 0.], Angstrom = [0. 0. 0.]
GEOMETRY CONVERSION: Task 'atom_2_ixyz_2_up' - Converted from Bohr to Angstrom
  First atom coordinates: Bohr = [0. 0. 0.], Angstrom = [0. 0. 0.]
GEOMETRY CONVERSION: Task 'atom_2_ixyz_2_down' - Converted from Bohr to Angstrom
  First atom coordinates: Bohr = [0. 0. 0.], Angstrom = [0. 0. 0.]
GEOMETRY CONVERSION: Task 'atom_2_ixyz_3_up' - Converted from Bohr to Angstrom
  First atom coordinates: Bohr = [0. 0. 0.], Angstrom = [0. 0. 0.]
GEOMETRY CONVERSION: Task 'atom_2_ixyz_3_down' - Converted from Bohr to Angstrom
  First atom coordinates: Bohr = [0. 0. 0.], Angstrom = [0. 0. 0.]
✓ Extracted Input orientation (5 atoms)
✓ Extracted Original coordinates (5 atoms)
DEBUG: Preserved fake frequency log as FAKE_FREQ/fake_freq_1.log
DEBUG: Expected atoms: 5
DEBUG: Task central: 5 atoms
DEBUG: Task atom_2_ixyz_1_up: 5 atoms
DEBUG: Task atom_2_ixyz_1_down: 5 atoms
DEBUG: Task atom_2_ixyz_2_up: 5 atoms
DEBUG: Task atom_2_ixyz_2_down: 5 atoms
DEBUG: Task atom_2_ixyz_3_up: 5 atoms
DEBUG: Task atom_2_ixyz_3_down: 5 atoms
DEBUG: All geometries have correct atom count (5)

================================================================================
STANDARD NUMERICAL GRADIENT MODE (no dens=2 detected)
================================================================================
Created iteration directory: /home/barone/lcrisci_vb/ACTUAL_PROJECTS/MRCC_new_Interface_project/TestingOldVersion/Symmetry/CH4_Td/Iterations/Iteration_1
INFO: This is iteration number 1
INFO: Running numerical gradient calculation in iteration 1
Running parallel energy calculations with 6 threads
TASK SUBMISSION: Submitting 7 tasks
  - Task: central
  - Task: atom_2_ixyz_1_up
  - Task: atom_2_ixyz_1_down
  - Task: atom_2_ixyz_2_up
  - Task: atom_2_ixyz_2_down
  - Task: atom_2_ixyz_3_up
  - Task: atom_2_ixyz_3_down
PARALLEL EXECUTION: Starting with 6 workers
PARALLEL EXECUTION: Total tasks to execute: 7
PARALLEL EXECUTION: Submitted tasks: ['atom_2_ixyz_1_down', 'atom_2_ixyz_1_up', 'atom_2_ixyz_2_down', 'atom_2_ixyz_2_up', 'atom_2_ixyz_3_down', 'atom_2_ixyz_3_up', 'central']
PARALLEL EXECUTION: Submitted 7 futures to executor
UNIT CONVERSION: Task 'central' - Wrote .EIn file in Bohr
UNIT CONVERSION: Task 'atom_2_ixyz_1_down' - Wrote .EIn file in BohrUNIT CONVERSION: Task 'atom_2_ixyz_2_up' - Wrote .EIn file in BohrUNIT CONVERSION: Task 'atom_2_ixyz_2_down' - Wrote .EIn file in Bohr
  First atom: Angstrom = [0. 0. 0.], Bohr = [0. 0. 0.]

UNIT CONVERSION: Task 'atom_2_ixyz_1_up' - Wrote .EIn file in Bohr
  First atom: Angstrom = [0. 0. 0.], Bohr = [0. 0. 0.]UNIT CONVERSION: Task 'atom_2_ixyz_3_up' - Wrote .EIn file in Bohr

  First atom: Angstrom = [0. 0. 0.], Bohr = [0. 0. 0.]
  First atom: Angstrom = [0. 0. 0.], Bohr = [0. 0. 0.]  First atom: Angstrom = [0. 0. 0.], Bohr = [0. 0. 0.]
  First atom: Angstrom = [0. 0. 0.], Bohr = [0. 0. 0.]THREAD-22932137039616: Starting execution for task 'central'THREAD-22932132837120: Starting execution for task 'atom_2_ixyz_1_down'


THREAD-22932128634624: Starting execution for task 'atom_2_ixyz_2_down'


THREAD-22932132837120: Task directory: /home/barone/lcrisci_vb/ACTUAL_PROJECTS/MRCC_new_Interface_project/TestingOldVersion/Symmetry/CH4_Td/Iterations/Iteration_1/task_atom_2_ixyz_1_downTHREAD-22932130735872: Starting execution for task 'atom_2_ixyz_2_up'
THREAD-22932134938368: Starting execution for task 'atom_2_ixyz_1_up'
THREAD-22932128634624: Task directory: /home/barone/lcrisci_vb/ACTUAL_PROJECTS/MRCC_new_Interface_project/TestingOldVersion/Symmetry/CH4_Td/Iterations/Iteration_1/task_atom_2_ixyz_2_down
THREAD-22932126533376: Starting execution for task 'atom_2_ixyz_3_up'
THREAD-22932137039616: Task directory: /home/barone/lcrisci_vb/ACTUAL_PROJECTS/MRCC_new_Interface_project/TestingOldVersion/Symmetry/CH4_Td/Iterations/Iteration_1/task_central
THREAD-22932130735872: Task directory: /home/barone/lcrisci_vb/ACTUAL_PROJECTS/MRCC_new_Interface_project/TestingOldVersion/Symmetry/CH4_Td/Iterations/Iteration_1/task_atom_2_ixyz_2_up
THREAD-22932134938368: Task directory: /home/barone/lcrisci_vb/ACTUAL_PROJECTS/MRCC_new_Interface_project/TestingOldVersion/Symmetry/CH4_Td/Iterations/Iteration_1/task_atom_2_ixyz_1_upTHREAD-22932128634624: Input file: /home/barone/lcrisci_vb/ACTUAL_PROJECTS/MRCC_new_Interface_project/TestingOldVersion/Symmetry/CH4_Td/Iterations/Iteration_1/task_atom_2_ixyz_2_down/Gau-atom_2_ixyz_2_down.EInTHREAD-22932126533376: Task directory: /home/barone/lcrisci_vb/ACTUAL_PROJECTS/MRCC_new_Interface_project/TestingOldVersion/Symmetry/CH4_Td/Iterations/Iteration_1/task_atom_2_ixyz_3_up

THREAD-22932132837120: Input file: /home/barone/lcrisci_vb/ACTUAL_PROJECTS/MRCC_new_Interface_project/TestingOldVersion/Symmetry/CH4_Td/Iterations/Iteration_1/task_atom_2_ixyz_1_down/Gau-atom_2_ixyz_1_down.EIn
THREAD-22932130735872: Input file: /home/barone/lcrisci_vb/ACTUAL_PROJECTS/MRCC_new_Interface_project/TestingOldVersion/Symmetry/CH4_Td/Iterations/Iteration_1/task_atom_2_ixyz_2_up/Gau-atom_2_ixyz_2_up.EIn


THREAD-22932126533376: Input file: /home/barone/lcrisci_vb/ACTUAL_PROJECTS/MRCC_new_Interface_project/TestingOldVersion/Symmetry/CH4_Td/Iterations/Iteration_1/task_atom_2_ixyz_3_up/Gau-atom_2_ixyz_3_up.EIn
THREAD-22932137039616: Input file: /home/barone/lcrisci_vb/ACTUAL_PROJECTS/MRCC_new_Interface_project/TestingOldVersion/Symmetry/CH4_Td/Iterations/Iteration_1/task_central/Gau-central.EInTHREAD-22932134938368: Input file: /home/barone/lcrisci_vb/ACTUAL_PROJECTS/MRCC_new_Interface_project/TestingOldVersion/Symmetry/CH4_Td/Iterations/Iteration_1/task_atom_2_ixyz_1_up/Gau-atom_2_ixyz_1_up.EIn

THREAD-22932132837120: Original working directory: /home/barone/lcrisci_vb/ACTUAL_PROJECTS/MRCC_new_Interface_project/TestingOldVersion/Symmetry/CH4_Td
THREAD-22932130735872: Original working directory: /home/barone/lcrisci_vb/ACTUAL_PROJECTS/MRCC_new_Interface_project/TestingOldVersion/Symmetry/CH4_TdTHREAD-22932132837120: Test mode: False
THREAD-22932128634624: Original working directory: /home/barone/lcrisci_vb/ACTUAL_PROJECTS/MRCC_new_Interface_project/TestingOldVersion/Symmetry/CH4_Td
THREAD-22932130735872: Test mode: False
THREAD-22932126533376: Original working directory: /home/barone/lcrisci_vb/ACTUAL_PROJECTS/MRCC_new_Interface_project/TestingOldVersion/Symmetry/CH4_Td

THREAD-22932132837120: Executing command: /home/barone/lcrisci_vb/python3.9/bin/python3.9 /home/barone/lcrisci_vb/ACTUAL_PROJECTS/MRCC_new_Interface_project/TestingOldVersion/OldVersion/Executables/GauExt test_pr.dat test_en.dat 2 20 READ R Gau-atom_2_ixyz_1_down.EIn energy_output.dat
THREAD-22932137039616: Original working directory: /home/barone/lcrisci_vb/ACTUAL_PROJECTS/MRCC_new_Interface_project/TestingOldVersion/Symmetry/CH4_TdTHREAD-22932130735872: Executing command: /home/barone/lcrisci_vb/python3.9/bin/python3.9 /home/barone/lcrisci_vb/ACTUAL_PROJECTS/MRCC_new_Interface_project/TestingOldVersion/OldVersion/Executables/GauExt test_pr.dat test_en.dat 2 20 READ R Gau-atom_2_ixyz_2_up.EIn energy_output.datTHREAD-22932134938368: Original working directory: /home/barone/lcrisci_vb/ACTUAL_PROJECTS/MRCC_new_Interface_project/TestingOldVersion/Symmetry/CH4_Td
THREAD-22932126533376: Test mode: False
THREAD-22932128634624: Test mode: False
THREAD-22932132837120: Working directory for subprocess: /home/barone/lcrisci_vb/ACTUAL_PROJECTS/MRCC_new_Interface_project/TestingOldVersion/Symmetry/CH4_Td/Iterations/Iteration_1/task_atom_2_ixyz_1_down


THREAD-22932134938368: Test mode: FalseTHREAD-22932126533376: Executing command: /home/barone/lcrisci_vb/python3.9/bin/python3.9 /home/barone/lcrisci_vb/ACTUAL_PROJECTS/MRCC_new_Interface_project/TestingOldVersion/OldVersion/Executables/GauExt test_pr.dat test_en.dat 2 20 READ R Gau-atom_2_ixyz_3_up.EIn energy_output.datTHREAD-22932128634624: Executing command: /home/barone/lcrisci_vb/python3.9/bin/python3.9 /home/barone/lcrisci_vb/ACTUAL_PROJECTS/MRCC_new_Interface_project/TestingOldVersion/OldVersion/Executables/GauExt test_pr.dat test_en.dat 2 20 READ R Gau-atom_2_ixyz_2_down.EIn energy_output.dat

THREAD-22932137039616: Test mode: FalseTHREAD-22932130735872: Working directory for subprocess: /home/barone/lcrisci_vb/ACTUAL_PROJECTS/MRCC_new_Interface_project/TestingOldVersion/Symmetry/CH4_Td/Iterations/Iteration_1/task_atom_2_ixyz_2_up
THREAD-22932126533376: Working directory for subprocess: /home/barone/lcrisci_vb/ACTUAL_PROJECTS/MRCC_new_Interface_project/TestingOldVersion/Symmetry/CH4_Td/Iterations/Iteration_1/task_atom_2_ixyz_3_upTHREAD-22932128634624: Working directory for subprocess: /home/barone/lcrisci_vb/ACTUAL_PROJECTS/MRCC_new_Interface_project/TestingOldVersion/Symmetry/CH4_Td/Iterations/Iteration_1/task_atom_2_ixyz_2_down


THREAD-22932134938368: Executing command: /home/barone/lcrisci_vb/python3.9/bin/python3.9 /home/barone/lcrisci_vb/ACTUAL_PROJECTS/MRCC_new_Interface_project/TestingOldVersion/OldVersion/Executables/GauExt test_pr.dat test_en.dat 2 20 READ R Gau-atom_2_ixyz_1_up.EIn energy_output.dat
THREAD-22932137039616: Executing command: /home/barone/lcrisci_vb/python3.9/bin/python3.9 /home/barone/lcrisci_vb/ACTUAL_PROJECTS/MRCC_new_Interface_project/TestingOldVersion/OldVersion/Executables/GauExt test_pr.dat test_en.dat 2 20 READ R Gau-central.EIn energy_output.dat

THREAD-22932134938368: Working directory for subprocess: /home/barone/lcrisci_vb/ACTUAL_PROJECTS/MRCC_new_Interface_project/TestingOldVersion/Symmetry/CH4_Td/Iterations/Iteration_1/task_atom_2_ixyz_1_upTHREAD-22932137039616: Working directory for subprocess: /home/barone/lcrisci_vb/ACTUAL_PROJECTS/MRCC_new_Interface_project/TestingOldVersion/Symmetry/CH4_Td/Iterations/Iteration_1/task_central

THREAD-22932134938368: Subprocess completed successfully
THREAD-22932134938368: Subprocess stdout (last 200 chars): d !scheme section at line 1.
    Line 2: Found coefficient: 1.0
  Found !formula marker at line 3
    Found formula at line 4: e=c1*e1
Finished parsing scheme: [('coeff', 1.0)]
Found formula: e=c1*e1

THREAD-22932134938368: Output file path: /home/barone/lcrisci_vb/ACTUAL_PROJECTS/MRCC_new_Interface_project/TestingOldVersion/Symmetry/CH4_Td/Iterations/Iteration_1/task_atom_2_ixyz_1_up/energy_output.dat
THREAD-22932134938368: Already in original directory /home/barone/lcrisci_vb/ACTUAL_PROJECTS/MRCC_new_Interface_project/TestingOldVersion/Symmetry/CH4_TdTHREAD-22932128634624: Subprocess completed successfully

THREAD-22932132837120: Subprocess completed successfullyTHREAD-22932128634624: Subprocess stdout (last 200 chars): d !scheme section at line 1.
    Line 2: Found coefficient: 1.0
  Found !formula marker at line 3
    Found formula at line 4: e=c1*e1
Finished parsing scheme: [('coeff', 1.0)]
Found formula: e=c1*e1


THREAD-22932132837120: Subprocess stdout (last 200 chars): d !scheme section at line 1.
    Line 2: Found coefficient: 1.0
  Found !formula marker at line 3
    Found formula at line 4: e=c1*e1
Finished parsing scheme: [('coeff', 1.0)]
Found formula: e=c1*e1

THREAD-22932128634624: Output file path: /home/barone/lcrisci_vb/ACTUAL_PROJECTS/MRCC_new_Interface_project/TestingOldVersion/Symmetry/CH4_Td/Iterations/Iteration_1/task_atom_2_ixyz_2_down/energy_output.dat
THREAD-22932132837120: Output file path: /home/barone/lcrisci_vb/ACTUAL_PROJECTS/MRCC_new_Interface_project/TestingOldVersion/Symmetry/CH4_Td/Iterations/Iteration_1/task_atom_2_ixyz_1_down/energy_output.datTHREAD-22932128634624: Already in original directory /home/barone/lcrisci_vb/ACTUAL_PROJECTS/MRCC_new_Interface_project/TestingOldVersion/Symmetry/CH4_Td

THREAD-22932132837120: Already in original directory /home/barone/lcrisci_vb/ACTUAL_PROJECTS/MRCC_new_Interface_project/TestingOldVersion/Symmetry/CH4_Td
THREAD-22932137039616: Subprocess completed successfully
THREAD-22932126533376: Subprocess completed successfullyTHREAD-22932137039616: Subprocess stdout (last 200 chars): d !scheme section at line 1.
    Line 2: Found coefficient: 1.0
  Found !formula marker at line 3
    Found formula at line 4: e=c1*e1
Finished parsing scheme: [('coeff', 1.0)]
Found formula: e=c1*e1


THREAD-22932126533376: Subprocess stdout (last 200 chars): d !scheme section at line 1.
    Line 2: Found coefficient: 1.0
  Found !formula marker at line 3
    Found formula at line 4: e=c1*e1
Finished parsing scheme: [('coeff', 1.0)]
Found formula: e=c1*e1

THREAD-22932137039616: Output file path: /home/barone/lcrisci_vb/ACTUAL_PROJECTS/MRCC_new_Interface_project/TestingOldVersion/Symmetry/CH4_Td/Iterations/Iteration_1/task_central/energy_output.datTHREAD-22932126533376: Output file path: /home/barone/lcrisci_vb/ACTUAL_PROJECTS/MRCC_new_Interface_project/TestingOldVersion/Symmetry/CH4_Td/Iterations/Iteration_1/task_atom_2_ixyz_3_up/energy_output.dat

THREAD-22932137039616: Already in original directory /home/barone/lcrisci_vb/ACTUAL_PROJECTS/MRCC_new_Interface_project/TestingOldVersion/Symmetry/CH4_TdTHREAD-22932126533376: Already in original directory /home/barone/lcrisci_vb/ACTUAL_PROJECTS/MRCC_new_Interface_project/TestingOldVersion/Symmetry/CH4_Td

THREAD-22932130735872: Subprocess completed successfully
THREAD-22932130735872: Subprocess stdout (last 200 chars): d !scheme section at line 1.
    Line 2: Found coefficient: 1.0
  Found !formula marker at line 3
    Found formula at line 4: e=c1*e1
Finished parsing scheme: [('coeff', 1.0)]
Found formula: e=c1*e1

THREAD-22932130735872: Output file path: /home/barone/lcrisci_vb/ACTUAL_PROJECTS/MRCC_new_Interface_project/TestingOldVersion/Symmetry/CH4_Td/Iterations/Iteration_1/task_atom_2_ixyz_2_up/energy_output.dat
THREAD-22932130735872: Already in original directory /home/barone/lcrisci_vb/ACTUAL_PROJECTS/MRCC_new_Interface_project/TestingOldVersion/Symmetry/CH4_Td
PARALLEL EXECUTION: Task 'atom_2_ixyz_1_up' completed successfully with energy -39.726089516344
PARALLEL EXECUTION: Task 'atom_2_ixyz_2_down' completed successfully with energy -39.726058942923
PARALLEL EXECUTION: Task 'atom_2_ixyz_1_down' completed successfully with energy -39.726058942923
PARALLEL EXECUTION: Task 'atom_2_ixyz_3_up' completed successfully with energy -39.726089516345
PARALLEL EXECUTION: Task 'central' completed successfully with energy -39.726074618132
PARALLEL EXECUTION: Task 'atom_2_ixyz_2_up' completed successfully with energy -39.726089516345
UNIT CONVERSION: Task 'atom_2_ixyz_3_down' - Wrote .EIn file in Bohr
  First atom: Angstrom = [0. 0. 0.], Bohr = [0. 0. 0.]
THREAD-22932134938368: Starting execution for task 'atom_2_ixyz_3_down'
THREAD-22932134938368: Task directory: /home/barone/lcrisci_vb/ACTUAL_PROJECTS/MRCC_new_Interface_project/TestingOldVersion/Symmetry/CH4_Td/Iterations/Iteration_1/task_atom_2_ixyz_3_down
THREAD-22932134938368: Input file: /home/barone/lcrisci_vb/ACTUAL_PROJECTS/MRCC_new_Interface_project/TestingOldVersion/Symmetry/CH4_Td/Iterations/Iteration_1/task_atom_2_ixyz_3_down/Gau-atom_2_ixyz_3_down.EIn
THREAD-22932134938368: Original working directory: /home/barone/lcrisci_vb/ACTUAL_PROJECTS/MRCC_new_Interface_project/TestingOldVersion/Symmetry/CH4_Td
THREAD-22932134938368: Test mode: False
THREAD-22932134938368: Executing command: /home/barone/lcrisci_vb/python3.9/bin/python3.9 /home/barone/lcrisci_vb/ACTUAL_PROJECTS/MRCC_new_Interface_project/TestingOldVersion/OldVersion/Executables/GauExt test_pr.dat test_en.dat 2 20 READ R Gau-atom_2_ixyz_3_down.EIn energy_output.dat
THREAD-22932134938368: Working directory for subprocess: /home/barone/lcrisci_vb/ACTUAL_PROJECTS/MRCC_new_Interface_project/TestingOldVersion/Symmetry/CH4_Td/Iterations/Iteration_1/task_atom_2_ixyz_3_down
THREAD-22932134938368: Subprocess completed successfully
THREAD-22932134938368: Subprocess stdout (last 200 chars): d !scheme section at line 1.
    Line 2: Found coefficient: 1.0
  Found !formula marker at line 3
    Found formula at line 4: e=c1*e1
Finished parsing scheme: [('coeff', 1.0)]
Found formula: e=c1*e1

THREAD-22932134938368: Output file path: /home/barone/lcrisci_vb/ACTUAL_PROJECTS/MRCC_new_Interface_project/TestingOldVersion/Symmetry/CH4_Td/Iterations/Iteration_1/task_atom_2_ixyz_3_down/energy_output.dat
THREAD-22932134938368: Already in original directory /home/barone/lcrisci_vb/ACTUAL_PROJECTS/MRCC_new_Interface_project/TestingOldVersion/Symmetry/CH4_Td
PARALLEL EXECUTION: Task 'atom_2_ixyz_3_down' completed successfully with energy -39.726058942923
PARALLEL EXECUTION: Completed tasks: ['atom_2_ixyz_1_down', 'atom_2_ixyz_1_up', 'atom_2_ixyz_2_down', 'atom_2_ixyz_2_up', 'atom_2_ixyz_3_down', 'atom_2_ixyz_3_up', 'central']
PARALLEL EXECUTION: Failed tasks: []
PARALLEL EXECUTION: All 7 tasks completed successfully
TASK COMPLETION: Received 7 results
  - Task atom_2_ixyz_1_up: Energy = -39.726089516344
  - Task atom_2_ixyz_2_down: Energy = -39.726058942923
  - Task atom_2_ixyz_1_down: Energy = -39.726058942923
  - Task atom_2_ixyz_3_up: Energy = -39.726089516345
  - Task central: Energy = -39.726074618132
  - Task atom_2_ixyz_2_up: Energy = -39.726089516345
  - Task atom_2_ixyz_3_down: Energy = -39.726058942923
WARNING: Could not find point group information in log file
Returning minimal PointGroupInfo with empty operations (will use fallback)
ADVANCED SYMMETRY: Using Unknown point group
ADVANCED SYMMETRY: 0 operations found in log
ADVANCED SYMMETRY: Applying symmetry-aware gradient assembly
  (with automatic inference from forces if needed)
AUTO-DETECT: Found R_coords with RMSD = 0.00e+00 Bohr
Gradient transformation matrix R^T (original → central):
  [1. 0. 0.]
  [0. 1. 0.]
  [0. 0. 1.]

⚠ No explicit symmetry operations found in log
Attempting to infer operations from forces...

=== INFERRING SYMMETRY OPERATIONS FROM FORCES ===
Atoms with displacements: [1]
Atoms to infer: [0, 2, 3, 4]
Testing 60 transformation matrices...
WARNING: No transformation found for atom 0 (RMSD > 1e-05)
Operation 2: Atom 1→2, RMSD=0.00e+00, Abelian
  Transformation matrix:
    [-1.  0.  0.]
    [ 0. -1.  0.]
    [0. 0. 1.]
  Nuclear permutation: [0, 2, 1, 4, 3]
Operation 3: Atom 1→3, RMSD=0.00e+00, Abelian
  Transformation matrix:
    [-1.  0.  0.]
    [0. 1. 0.]
    [ 0.  0. -1.]
  Nuclear permutation: [0, 3, 4, 1, 2]
Operation 4: Atom 1→4, RMSD=0.00e+00, Abelian
  Transformation matrix:
    [1. 0. 0.]
    [ 0. -1.  0.]
    [ 0.  0. -1.]
  Nuclear permutation: [0, 4, 3, 2, 1]
✓ Inferred 4 operations (including identity)
✓ Successfully inferred 4 operations from forces

=== MOLECULAR SYMMETRY CONSTRAINTS ===

=== DIRECT CALCULATIONS ===
DIRECT CALCULATION: Atom 2, Axis 1 = -0.00808938
DIRECT CALCULATION: Atom 2, Axis 2 = -0.00808938
DIRECT CALCULATION: Atom 2, Axis 3 = -0.00808938
SYMMETRY PROPAGATION: Atom 3 from Atom 2 via operation 2
  Source gradient: [-0.00808938 -0.00808938 -0.00808938]
  Transformation matrix:
    [-1.  0.  0.]
    [ 0. -1.  0.]
    [0. 0. 1.]
  Result gradient: [ 0.00808938  0.00808938 -0.00808938]
SYMMETRY PROPAGATION: Atom 4 from Atom 2 via operation 3
  Source gradient: [-0.00808938 -0.00808938 -0.00808938]
  Transformation matrix:
    [-1.  0.  0.]
    [0. 1. 0.]
    [ 0.  0. -1.]
  Result gradient: [ 0.00808938 -0.00808938  0.00808938]
SYMMETRY PROPAGATION: Atom 5 from Atom 4 via operation 2
  Source gradient: [ 0.00808938 -0.00808938  0.00808938]
  Transformation matrix:
    [-1.  0.  0.]
    [ 0. -1.  0.]
    [0. 0. 1.]
  Result gradient: [-0.00808938  0.00808938  0.00808938]
WARNING: Atom 1 could not be derived from symmetry operations

=== VALIDATION ===
CONSTRAINT VERIFIED: Atom 1, Axis 1 = 0.000000000
CONSTRAINT VERIFIED: Atom 1, Axis 2 = 0.000000000
CONSTRAINT VERIFIED: Atom 1, Axis 3 = 0.000000000
SYMMETRY EFFICIENCY: 60.0% computational reduction
SYMMETRY EFFICIENCY: 6/15 components calculated
NUMERICAL WORKFLOW: Gradient shape: (5, 3)
NUMERICAL WORKFLOW: Central energy: -39.726074618132

DEBUG: Writing output to /home/barone/lcrisci_vb/ACTUAL_PROJECTS/MRCC_new_Interface_project/TestingOldVersion/Symmetry/CH4_Td/Gau-4153084.EOu
DEBUG: Current directory: /home/barone/lcrisci_vb/ACTUAL_PROJECTS/MRCC_new_Interface_project/TestingOldVersion/Symmetry/CH4_Td
DEBUG: Central energy: -39.726074618132
DEBUG: Gradient shape: (5, 3)
DEBUG: Output written successfully
DEBUG: File exists: True
SUCCESS: Parallel gradient calculation completed using iteration 1
Task directories preserved in: /home/barone/lcrisci_vb/ACTUAL_PROJECTS/MRCC_new_Interface_project/TestingOldVersion/Symmetry/CH4_Td/Iterations/Iteration_1
 Recovered energy= -39.7260746181     dipole=      0.000000000000      0.000000000000      0.000000000000
 Energy=    -39.7260746     NIter=   0.
 Dipole moment=       0.000000       0.000000       0.000000
 Leave Link  402 at Wed Nov 19 18:11:55 2025, MaxMem=   104857600 cpu:               0.0 elap:              26.2
 (Enter /gaussian/g16.c01/intel64-sandybridge/g16/l601.exe)
 Leave Link  601 at Wed Nov 19 18:11:55 2025, MaxMem=   104857600 cpu:               0.0 elap:               0.0
 (Enter /gaussian/g16.c01/intel64-sandybridge/g16/l716.exe)
 Dipole        = 0.00000000D+00 0.00000000D+00 0.00000000D+00
 ***** Axes restored to original set *****
 -------------------------------------------------------------------
 Center     Atomic                   Forces (Hartrees/Bohr)
 Number     Number              X              Y              Z
 -------------------------------------------------------------------
      1        6          -0.000000000   -0.000000000   -0.000000000
      2        1          -0.000000000   -0.000000000    0.014011215
      3        1           0.000000000   -0.013209901   -0.004670405
      4        1          -0.011440109    0.006604950   -0.004670405
      5        1           0.011440109    0.006604950   -0.004670405
 -------------------------------------------------------------------
 Cartesian Forces:  Max     0.014011215 RMS     0.007235361
 Leave Link  716 at Wed Nov 19 18:11:55 2025, MaxMem=   104857600 cpu:               0.0 elap:               0.0
 (Enter /gaussian/g16.c01/intel64-sandybridge/g16/l9999.exe)
 Unable to Open any file for archive entry.
 1\1\GINC-THIOTIMOLINE-LARGE01\Force\External='CentralExt gau $PGAU/tes
 t_pr.dat $EGAU/test_en.dat 2 20 read parall 6'\ZDO\C1H4\LCRISCI_VB\19-
 Nov-2025\0\\#p force output=pickett External="CentralExt gau $PGAU/tes
 t_pr.dat $EGAU/test_en.dat 2 20 read parall 6"\\title\\0,1\C,0.,0.,0.0
 00000001\H,-0.0000000031,-0.0000000005,1.06792879\H,0.0000000006,-1.00
 68529179,-0.3559762625\H,-0.8719602036,0.5034264596,-0.3559762643\H,0.
 8719602061,0.5034264588,-0.3559762592\\Version=ES64L-G16RevC.01\HF=-39
 .7260746\RMSD=0.000e+00\RMSF=7.235e-03\Dipole=0.,0.,0.\PG=TD [O(C1),4C
 3(H1)]\\@
 The archive entry for this job was punched.
 DoSRE=F DoSRN=F DoDH=F DoFC=F DoNQ=F DoQCD=F DoSCD=F
 Inertia tensor (amu-bohr**2): 
                 1             2             3 
      1   0.109455D+02  0.000000D+00  0.000000D+00
      2   0.000000D+00  0.109455D+02  0.000000D+00
      3   0.000000D+00  0.000000D+00  0.109455D+02
 Principal inertia moments (amu-bohr**2):
 Iaa = 0.109455D+02 Ibb= 0.109455D+02 Icc= 0.109455D+02
 Rotation matrix to Principal Axis frame: 
                 1             2             3 
      1  -0.100000D+01  0.000000D+00  0.000000D+00
      2   0.000000D+00  0.000000D+00 -0.100000D+01
      3   0.000000D+00 -0.100000D+01  0.000000D+00
                Principal axis orientation:                
 ---------------------------------------------------------------------
 Center     Atomic                     Coordinates (Angstroms)
 Number     Number                        X           Y           Z
 ---------------------------------------------------------------------
      1          6                    0.000000   -0.000000   -0.000000
      2          1                    0.000000   -1.067929    0.000000
      3          1                   -0.000000    0.355976    1.006853
      4          1                    0.871960    0.355976   -0.503426
      5          1                   -0.871960    0.355976   -0.503426
 ---------------------------------------------------------------------
 Rotational constants (MHZ):
 164884.0838993 164884.0838993 164884.0838993
 Dipole moment (Debye):
     -0.0000000     -0.0000000      0.0000000  Tot=      0.0000000

 Atoms with significant hyperfine tensors: 

--------------------------------------------------------------------------------
 title                                                   
   99  1000  50  0.1760E-11  0.1000E+07  0.1000E+01 1.0000000000
a   1  0  0  0  1  1   1  0  1  0
     10000   0.16488408E+06    0.0000E+00   /  A  /
     20000   0.16488408E+06    0.0000E+00   /  B  /
     30000   0.16488408E+06    0.0000E+00   /  C  /
--------------------------------------------------------------------------------

 Punch of MOs requested, but none found.


 HICKORY, DICKORY, DOCK
 TWO MICE RAN UP THE CLOCK
 THE CLOCK STRUCK ONE...
 THE OTHER ESCAPED WITH MINOR INJURIES.
 Job cpu time:       0 days  0 hours  0 minutes  0.3 seconds.
 Elapsed time:       0 days  0 hours  0 minutes 26.8 seconds.
 File lengths (MBytes):  RWF=      5 Int=      0 D2E=      0 Chk=      1 Scr=      1
 Normal termination of Gaussian 16 at Wed Nov 19 18:11:55 2025.
 Initial command:
 /gaussian/g16.c01/intel64-sandybridge/g16/l1.exe "/home/barone/lcrisci_vb/ACTUAL_PROJECTS/MRCC_new_Interface_project/TestingOldVersion/Symmetry/CH4_Td/Gau-4153083.inp" -scrdir="/home/barone/lcrisci_vb/ACTUAL_PROJECTS/MRCC_new_Interface_project/TestingOldVersion/Symmetry/CH4_Td/"
 Entering Link 1 = /gaussian/g16.c01/intel64-sandybridge/g16/l1.exe PID=   4153201.
  
 Copyright (c) 1988-2019, Gaussian, Inc.  All Rights Reserved.
  
 This is part of the Gaussian(R) 16 program.  It is based on
 the Gaussian(R) 09 system (copyright 2009, Gaussian, Inc.),
 the Gaussian(R) 03 system (copyright 2003, Gaussian, Inc.),
 the Gaussian(R) 98 system (copyright 1998, Gaussian, Inc.),
 the Gaussian(R) 94 system (copyright 1995, Gaussian, Inc.),
 the Gaussian 92(TM) system (copyright 1992, Gaussian, Inc.),
 the Gaussian 90(TM) system (copyright 1990, Gaussian, Inc.),
 the Gaussian 88(TM) system (copyright 1988, Gaussian, Inc.),
 the Gaussian 86(TM) system (copyright 1986, Carnegie Mellon
 University), and the Gaussian 82(TM) system (copyright 1983,
 Carnegie Mellon University). Gaussian is a federally registered
 trademark of Gaussian, Inc.
  
 This software contains proprietary and confidential information,
 including trade secrets, belonging to Gaussian, Inc.
  
 This software is provided under written license and may be
 used, copied, transmitted, or stored only in accord with that
 written license.
  
 The following legend is applicable only to US Government
 contracts under FAR:
  
                    RESTRICTED RIGHTS LEGEND
  
 Use, reproduction and disclosure by the US Government is
 subject to restrictions as set forth in subparagraphs (a)
 and (c) of the Commercial Computer Software - Restricted
 Rights clause in FAR 52.227-19.
  
 Gaussian, Inc.
 340 Quinnipiac St., Bldg. 40, Wallingford CT 06492
  
  
 ---------------------------------------------------------------
 Warning -- This program may not be used in any manner that
 competes with the business of Gaussian, Inc. or will provide
 assistance to any competitor of Gaussian, Inc.  The licensee
 of this program is prohibited from giving any competitor of
 Gaussian, Inc. access to this program.  By using this program,
 the user acknowledges that Gaussian, Inc. is engaged in the
 business of creating and licensing software in the field of
 computational chemistry and represents and warrants to the
 licensee that it is not a competitor of Gaussian, Inc. and that
 it will not use this program in any manner prohibited above.
 ---------------------------------------------------------------
  

 Cite this work as:
 Gaussian 16, Revision C.01,
 M. J. Frisch, G. W. Trucks, H. B. Schlegel, G. E. Scuseria, 
 M. A. Robb, J. R. Cheeseman, G. Scalmani, V. Barone, 
 G. A. Petersson, H. Nakatsuji, X. Li, M. Caricato, A. V. Marenich, 
 J. Bloino, B. G. Janesko, R. Gomperts, B. Mennucci, H. P. Hratchian, 
 J. V. Ortiz, A. F. Izmaylov, J. L. Sonnenberg, D. Williams-Young, 
 F. Ding, F. Lipparini, F. Egidi, J. Goings, B. Peng, A. Petrone, 
 T. Henderson, D. Ranasinghe, V. G. Zakrzewski, J. Gao, N. Rega, 
 G. Zheng, W. Liang, M. Hada, M. Ehara, K. Toyota, R. Fukuda, 
 J. Hasegawa, M. Ishida, T. Nakajima, Y. Honda, O. Kitao, H. Nakai, 
 T. Vreven, K. Throssell, J. A. Montgomery, Jr., J. E. Peralta, 
 F. Ogliaro, M. J. Bearpark, J. J. Heyd, E. N. Brothers, K. N. Kudin, 
 V. N. Staroverov, T. A. Keith, R. Kobayashi, J. Normand, 
 K. Raghavachari, A. P. Rendell, J. C. Burant, S. S. Iyengar, 
 J. Tomasi, M. Cossi, J. M. Millam, M. Klene, C. Adamo, R. Cammi, 
 J. W. Ochterski, R. L. Martin, K. Morokuma, O. Farkas, 
 J. B. Foresman, and D. J. Fox, Gaussian, Inc., Wallingford CT, 2019.
 
 ******************************************
 Gaussian 16:  ES64L-G16RevC.01  3-Jul-2019
                19-Nov-2025 
 ******************************************
 %chk=test_parall.chk
 %nprocs=1
 Will use up to    1 processors via shared memory.
 ------------------
 #p force hf/sto-3g
 ------------------
 1/10=7,30=1,38=1/1,3;
 2/12=2,17=6,18=5,40=1/2;
 3/6=3,11=9,25=1,30=1,71=1/1,2,3;
 4//1;
 5/5=2,38=5/2;
 6/7=2,8=2,9=2,10=2,28=1/1;
 7/29=1/1,2,3,16;
 1/10=7,30=1/3;
 99//99;
 Leave Link    1 at Wed Nov 19 18:11:56 2025, MaxMem=           0 cpu:               0.0 elap:               0.1
 (Enter /gaussian/g16.c01/intel64-sandybridge/g16/l101.exe)
 -----
 title
 -----
 Symbolic Z-matrix:
 Charge =  0 Multiplicity = 1
 C                     0.        0.        0. 
 H                     0.        0.        1.06793 
 H                     0.       -1.00685  -0.35598 
 H                    -0.87196   0.50343  -0.35598 
 H                     0.87196   0.50343  -0.35598 
 
 ITRead=  0  0  0  0  0
 MicOpt= -1 -1 -1 -1 -1
 NAtoms=      5 NQM=        5 NQMF=       0 NMMI=      0 NMMIF=      0
                NMic=       0 NMicF=      0.
                    Isotopes and Nuclear Properties:
 (Nuclear quadrupole moments (NQMom) in fm**2, nuclear magnetic moments (NMagM)
  in nuclear magnetons)

  Atom         1           2           3           4           5
 IAtWgt=          12           1           1           1           1
 AtmWgt=  12.0000000   1.0078250   1.0078250   1.0078250   1.0078250
 NucSpn=           0           1           1           1           1
 AtZEff=  -0.0000000  -0.0000000  -0.0000000  -0.0000000  -0.0000000
 NQMom=    0.0000000   0.0000000   0.0000000   0.0000000   0.0000000
 NMagM=    0.0000000   2.7928460   2.7928460   2.7928460   2.7928460
 AtZNuc=   6.0000000   1.0000000   1.0000000   1.0000000   1.0000000
 Leave Link  101 at Wed Nov 19 18:11:56 2025, MaxMem=   104857600 cpu:               0.1 elap:               0.1
 (Enter /gaussian/g16.c01/intel64-sandybridge/g16/l103.exe)

 GradGradGradGradGradGradGradGradGradGradGradGradGradGradGradGradGradGrad
 Berny optimization.
 Initialization pass.
 Trust Radius=3.00D-01 FncErr=1.00D-07 GrdErr=1.00D-07 EigMax=2.50D+02 EigMin=1.00D-04
 Number of steps in this run=      2 maximum allowed number of steps=      2.
 GradGradGradGradGradGradGradGradGradGradGradGradGradGradGradGradGradGrad

 Leave Link  103 at Wed Nov 19 18:11:56 2025, MaxMem=   104857600 cpu:               0.0 elap:               0.0
 (Enter /gaussian/g16.c01/intel64-sandybridge/g16/l202.exe)
                          Input orientation:                          
 ---------------------------------------------------------------------
 Center     Atomic      Atomic             Coordinates (Angstroms)
 Number     Number       Type             X           Y           Z
 ---------------------------------------------------------------------
      1          6           0        0.000000    0.000000    0.000000
      2          1           0        0.000000    0.000000    1.067929
      3          1           0        0.000000   -1.006853   -0.355976
      4          1           0       -0.871960    0.503426   -0.355976
      5          1           0        0.871960    0.503426   -0.355976
 ---------------------------------------------------------------------
                    Distance matrix (angstroms):
                    1          2          3          4          5
     1  C    0.000000
     2  H    1.067929   0.000000
     3  H    1.067929   1.743920   0.000000
     4  H    1.067929   1.743920   1.743920   0.000000
     5  H    1.067929   1.743920   1.743920   1.743920   0.000000
 Stoichiometry    CH4
 Framework group  TD[O(C),4C3(H)]
 Deg. of freedom     1
 Full point group                 TD      NOp  24
 Largest Abelian subgroup         D2      NOp   4
 Largest concise Abelian subgroup D2      NOp   4
                         Standard orientation:                         
 ---------------------------------------------------------------------
 Center     Atomic      Atomic             Coordinates (Angstroms)
 Number     Number       Type             X           Y           Z
 ---------------------------------------------------------------------
      1          6           0        0.000000    0.000000    0.000000
      2          1           0        0.616569    0.616569    0.616569
      3          1           0       -0.616569   -0.616569    0.616569
      4          1           0       -0.616569    0.616569   -0.616569
      5          1           0        0.616569   -0.616569   -0.616569
 ---------------------------------------------------------------------
 Rotational constants (GHZ):         164.8840839         164.8840839         164.8840839
 Leave Link  202 at Wed Nov 19 18:11:56 2025, MaxMem=   104857600 cpu:               0.0 elap:               0.0
 (Enter /gaussian/g16.c01/intel64-sandybridge/g16/l301.exe)
 Standard basis: STO-3G (5D, 7F)
 Ernie: Thresh=  0.10000D-02 Tol=  0.10000D-05 Strict=F.
 There are     3 symmetry adapted cartesian basis functions of A   symmetry.
 There are     2 symmetry adapted cartesian basis functions of B1  symmetry.
 There are     2 symmetry adapted cartesian basis functions of B2  symmetry.
 There are     2 symmetry adapted cartesian basis functions of B3  symmetry.
 There are     3 symmetry adapted basis functions of A   symmetry.
 There are     2 symmetry adapted basis functions of B1  symmetry.
 There are     2 symmetry adapted basis functions of B2  symmetry.
 There are     2 symmetry adapted basis functions of B3  symmetry.
     9 basis functions,    27 primitive gaussians,     9 cartesian basis functions
     5 alpha electrons        5 beta electrons
       nuclear repulsion energy        13.7130625547 Hartrees.
 IExCor=    0 DFT=F Ex=HF Corr=None ExCW=0 ScaHFX=  1.000000
 ScaDFX=  1.000000  1.000000  1.000000  1.000000 ScalE2=  1.000000  1.000000
 IRadAn=      5 IRanWt=     -1 IRanGd=            0 ICorTp=0 IEmpDi=  4
 NAtoms=    5 NActive=    5 NUniq=    2 SFac= 4.00D+00 NAtFMM=   60 NAOKFM=F Big=F
 Integral buffers will be    131072 words long.
 Raffenetti 1 integral format.
 Two-electron integral symmetry is turned on.
 Leave Link  301 at Wed Nov 19 18:11:56 2025, MaxMem=   104857600 cpu:               0.0 elap:               0.1
 (Enter /gaussian/g16.c01/intel64-sandybridge/g16/l302.exe)
 NPDir=0 NMtPBC=     1 NCelOv=     1 NCel=       1 NClECP=     1 NCelD=      1
         NCelK=      1 NCelE2=     1 NClLst=     1 CellRange=     0.0.
 One-electron integrals computed using PRISM.
 One-electron integral symmetry used in STVInt
 NBasis=     9 RedAO= T EigKep=  2.08D-01  NBF=     3     2     2     2
 NBsUse=     9 1.00D-06 EigRej= -1.00D+00 NBFU=     3     2     2     2
 Leave Link  302 at Wed Nov 19 18:11:56 2025, MaxMem=   104857600 cpu:               0.1 elap:               0.1
 (Enter /gaussian/g16.c01/intel64-sandybridge/g16/l303.exe)
 DipDrv:  MaxL=1.
 Leave Link  303 at Wed Nov 19 18:11:56 2025, MaxMem=   104857600 cpu:               0.0 elap:               0.0
 (Enter /gaussian/g16.c01/intel64-sandybridge/g16/l401.exe)
 ExpMin= 1.69D-01 ExpMax= 7.16D+01 ExpMxC= 7.16D+01 IAcc=3 IRadAn=         5 AccDes= 0.00D+00
 Harris functional with IExCor=  205 and IRadAn=       5 diagonalized for initial guess.
 HarFok:  IExCor=  205 AccDes= 0.00D+00 IRadAn=         5 IDoV= 1 UseB2=F ITyADJ=14
 ICtDFT=  3500011 ScaDFX=  1.000000  1.000000  1.000000  1.000000
 FoFCou: FMM=F IPFlag=           0 FMFlag=      100000 FMFlg1=           0
         NFxFlg=           0 DoJE=T BraDBF=F KetDBF=T FulRan=T
         wScrn=  0.000000 ICntrl=       500 IOpCl=  0 I1Cent=   200000004 NGrid=           0
         NMat0=    1 NMatS0=      1 NMatT0=    0 NMatD0=    1 NMtDS0=    0 NMtDT0=    0
 Petite list used in FoFCou.
 Harris En= -39.8837732277641    
 JPrj=0 DoOrth=F DoCkMO=F.
 Initial guess orbital symmetries:
       Occupied  (A1) (A1) (T2) (T2) (T2)
       Virtual   (T2) (T2) (T2) (A1)
 The electronic state of the initial guess is 1-A1.
 Leave Link  401 at Wed Nov 19 18:11:57 2025, MaxMem=   104857600 cpu:               0.1 elap:               0.1
 (Enter /gaussian/g16.c01/intel64-sandybridge/g16/l502.exe)
 Keep R1 ints in memory in symmetry-blocked form, NReq=805732.
 FoFCou: FMM=F IPFlag=           0 FMFlag=           0 FMFlg1=           0
         NFxFlg=           0 DoJE=F BraDBF=F KetDBF=F FulRan=T
         wScrn=  0.000000 ICntrl=       600 IOpCl=  0 I1Cent=           0 NGrid=           0
         NMat0=    1 NMatS0=     45 NMatT0=    0 NMatD0=    1 NMtDS0=    0 NMtDT0=    0
 Petite list used in FoFCou.
 Closed shell SCF:
 Using DIIS extrapolation, IDIIS=  1040.
 NGot=   104857600 LenX=   104855241 LenY=   104854359
 Requested convergence on RMS density matrix=1.00D-08 within 128 cycles.
 Requested convergence on MAX density matrix=1.00D-06.
 Requested convergence on             energy=1.00D-06.
 No special actions if energy rises.

 Cycle   1  Pass 1  IDiag  1:
 E= -39.6635143451124    
 DIIS: error= 5.96D-02 at cycle   1 NSaved=   1.
 NSaved= 1 IEnMin= 1 EnMin= -39.6635143451124     IErMin= 1 ErrMin= 5.96D-02
 ErrMax= 5.96D-02  0.00D+00 EMaxC= 1.00D-01 BMatC= 5.38D-02 BMatP= 5.38D-02
 IDIUse=3 WtCom= 4.04D-01 WtEn= 5.96D-01
 Coeff-Com:  0.100D+01
 Coeff-En:   0.100D+01
 Coeff:      0.100D+01
 Gap=     1.242 Goal=   None    Shift=    0.000
 GapD=    1.242 DampG=2.000 DampE=0.500 DampFc=1.0000 IDamp=-1.
 RMSDP=3.70D-02 MaxDP=1.29D-01              OVMax= 0.00D+00

 Cycle   2  Pass 1  IDiag  1:
 E= -39.7244249664974     Delta-E=       -0.060910621385 Rises=F Damp=F
 DIIS: error= 1.21D-02 at cycle   2 NSaved=   2.
 NSaved= 2 IEnMin= 2 EnMin= -39.7244249664974     IErMin= 2 ErrMin= 1.21D-02
 ErrMax= 1.21D-02  0.00D+00 EMaxC= 1.00D-01 BMatC= 1.63D-03 BMatP= 5.38D-02
 IDIUse=3 WtCom= 8.79D-01 WtEn= 1.21D-01
 Coeff-Com:  0.114D+00 0.886D+00
 Coeff-En:   0.000D+00 0.100D+01
 Coeff:      0.100D+00 0.900D+00
 Gap=     1.258 Goal=   None    Shift=    0.000
 RMSDP=5.56D-03 MaxDP=2.54D-02 DE=-6.09D-02 OVMax= 0.00D+00

 Cycle   3  Pass 1  IDiag  1:
 E= -39.7260664587367     Delta-E=       -0.001641492239 Rises=F Damp=F
 DIIS: error= 6.17D-04 at cycle   3 NSaved=   3.
 NSaved= 3 IEnMin= 3 EnMin= -39.7260664587367     IErMin= 3 ErrMin= 6.17D-04
 ErrMax= 6.17D-04  0.00D+00 EMaxC= 1.00D-01 BMatC= 5.36D-06 BMatP= 1.63D-03
 IDIUse=3 WtCom= 9.94D-01 WtEn= 6.17D-03
 Coeff-Com: -0.934D-02-0.129D-01 0.102D+01
 Coeff-En:   0.000D+00 0.000D+00 0.100D+01
 Coeff:     -0.928D-02-0.128D-01 0.102D+01
 Gap=     1.259 Goal=   None    Shift=    0.000
 RMSDP=3.67D-04 MaxDP=1.17D-03 DE=-1.64D-03 OVMax= 0.00D+00

 Cycle   4  Pass 1  IDiag  1:
 E= -39.7260744202805     Delta-E=       -0.000007961544 Rises=F Damp=F
 DIIS: error= 1.53D-04 at cycle   4 NSaved=   4.
 NSaved= 4 IEnMin= 4 EnMin= -39.7260744202805     IErMin= 4 ErrMin= 1.53D-04
 ErrMax= 1.53D-04  0.00D+00 EMaxC= 1.00D-01 BMatC= 1.22D-07 BMatP= 5.36D-06
 IDIUse=3 WtCom= 9.98D-01 WtEn= 1.53D-03
 Coeff-Com:  0.249D-02-0.588D-03-0.308D+00 0.131D+01
 Coeff-En:   0.000D+00 0.000D+00 0.000D+00 0.100D+01
 Coeff:      0.249D-02-0.587D-03-0.307D+00 0.131D+01
 Gap=     1.259 Goal=   None    Shift=    0.000
 RMSDP=7.52D-05 MaxDP=5.20D-04 DE=-7.96D-06 OVMax= 0.00D+00

 Cycle   5  Pass 1  IDiag  1:
 E= -39.7260746181375     Delta-E=       -0.000000197857 Rises=F Damp=F
 DIIS: error= 4.61D-07 at cycle   5 NSaved=   5.
 NSaved= 5 IEnMin= 5 EnMin= -39.7260746181375     IErMin= 5 ErrMin= 4.61D-07
 ErrMax= 4.61D-07  0.00D+00 EMaxC= 1.00D-01 BMatC= 1.95D-12 BMatP= 1.22D-07
 IDIUse=1 WtCom= 1.00D+00 WtEn= 0.00D+00
 Coeff-Com: -0.293D-05-0.433D-04 0.814D-04 0.179D-02 0.998D+00
 Coeff:     -0.293D-05-0.433D-04 0.814D-04 0.179D-02 0.998D+00
 Gap=     1.259 Goal=   None    Shift=    0.000
 RMSDP=1.71D-07 MaxDP=5.71D-07 DE=-1.98D-07 OVMax= 0.00D+00

 Cycle   6  Pass 1  IDiag  1:
 E= -39.7260746181392     Delta-E=       -0.000000000002 Rises=F Damp=F
 DIIS: error= 5.76D-10 at cycle   6 NSaved=   6.
 NSaved= 6 IEnMin= 6 EnMin= -39.7260746181392     IErMin= 6 ErrMin= 5.76D-10
 ErrMax= 5.76D-10  0.00D+00 EMaxC= 1.00D-01 BMatC= 4.22D-18 BMatP= 1.95D-12
 IDIUse=1 WtCom= 1.00D+00 WtEn= 0.00D+00
 Large coefficients: NSaved=  6 BigCof=    0.00 CofMax=   10.00 Det=-4.36D-28
 Inversion failed.  Reducing to  5 matrices.
 Coeff-Com: -0.177D-09 0.112D-06-0.205D-05 0.141D-02 0.999D+00
 Coeff:     -0.177D-09 0.112D-06-0.205D-05 0.141D-02 0.999D+00
 Gap=     1.259 Goal=   None    Shift=    0.000
 RMSDP=2.94D-10 MaxDP=1.13D-09 DE=-1.72D-12 OVMax= 0.00D+00

 SCF Done:  E(RHF) =  -39.7260746181     A.U. after    6 cycles
            NFock=  6  Conv=0.29D-09     -V/T= 2.0054
 KE= 3.951393448290D+01 PE=-1.193360467859D+02 EE= 2.638297513022D+01
 Leave Link  502 at Wed Nov 19 18:11:57 2025, MaxMem=   104857600 cpu:               0.1 elap:               0.2
 (Enter /gaussian/g16.c01/intel64-sandybridge/g16/l601.exe)
 Copying SCF densities to generalized density rwf, IOpCl= 0 IROHF=0.

 **********************************************************************

            Population analysis using the SCF Density.

 **********************************************************************

 Orbital symmetries:
       Occupied  (A1) (A1) (T2) (T2) (T2)
       Virtual   (T2) (T2) (T2) (A1)
 The electronic state is 1-A1.
 Alpha  occ. eigenvalues --  -11.02848  -0.92000  -0.52653  -0.52653  -0.52653
 Alpha virt. eigenvalues --    0.73280   0.73280   0.73280   0.78431
          Condensed to atoms (all electrons):
               1          2          3          4          5
     1  C    4.723751   0.389037   0.389037   0.389037   0.389037
     2  H    0.389037   0.602232  -0.020415  -0.020415  -0.020415
     3  H    0.389037  -0.020415   0.602232  -0.020415  -0.020415
     4  H    0.389037  -0.020415  -0.020415   0.602232  -0.020415
     5  H    0.389037  -0.020415  -0.020415  -0.020415   0.602232
 Mulliken charges:
               1
     1  C   -0.279899
     2  H    0.069975
     3  H    0.069975
     4  H    0.069975
     5  H    0.069975
 Sum of Mulliken charges =   0.00000
 Mulliken charges with hydrogens summed into heavy atoms:
               1
     1  C    0.000000
 Electronic spatial extent (au):  <R**2>=             33.7747
 Charge=              0.0000 electrons
 Dipole moment (field-independent basis, Debye):
    X=             -0.0000    Y=             -0.0000    Z=             -0.0000  Tot=              0.0000
 Quadrupole moment (field-independent basis, Debye-Ang):
   XX=             -7.8388   YY=             -7.8388   ZZ=             -7.8388
   XY=             -0.0000   XZ=             -0.0000   YZ=             -0.0000
 Traceless Quadrupole moment (field-independent basis, Debye-Ang):
   XX=              0.0000   YY=              0.0000   ZZ=              0.0000
   XY=             -0.0000   XZ=             -0.0000   YZ=             -0.0000
 Octapole moment (field-independent basis, Debye-Ang**2):
  XXX=              0.0000  YYY=             -0.0000  ZZZ=             -0.0000  XYY=             -0.0000
  XXY=             -0.0000  XXZ=             -0.0000  XZZ=              0.0000  YZZ=              0.0000
  YYZ=             -0.0000  XYZ=              0.5554
 Hexadecapole moment (field-independent basis, Debye-Ang**3):
 XXXX=            -13.4780 YYYY=            -13.4780 ZZZZ=            -13.4780 XXXY=              0.0000
 XXXZ=             -0.0000 YYYX=              0.0000 YYYZ=              0.0000 ZZZX=              0.0000
 ZZZY=              0.0000 XXYY=             -4.1323 XXZZ=             -4.1323 YYZZ=             -4.1323
 XXYZ=             -0.0000 YYXZ=             -0.0000 ZZXY=              0.0000
 N-N= 1.371306255466D+01 E-N=-1.193360467800D+02  KE= 3.951393448290D+01
 Symmetry A    KE= 3.364260112989D+01
 Symmetry B1   KE= 1.957111117669D+00
 Symmetry B2   KE= 1.957111117669D+00
 Symmetry B3   KE= 1.957111117669D+00
 No NMR shielding tensors so no spin-rotation constants.
 Leave Link  601 at Wed Nov 19 18:11:57 2025, MaxMem=   104857600 cpu:               0.0 elap:               0.1
 (Enter /gaussian/g16.c01/intel64-sandybridge/g16/l701.exe)
 ... and contract with generalized density number  0.
 Compute integral first derivatives.
 Leave Link  701 at Wed Nov 19 18:11:57 2025, MaxMem=   104857600 cpu:               0.1 elap:               0.1
 (Enter /gaussian/g16.c01/intel64-sandybridge/g16/l702.exe)
 L702 exits ... SP integral derivatives will be done elsewhere.
 Leave Link  702 at Wed Nov 19 18:11:57 2025, MaxMem=   104857600 cpu:               0.0 elap:               0.0
 (Enter /gaussian/g16.c01/intel64-sandybridge/g16/l703.exe)
 Integral derivatives from FoFJK, PRISM(SPDF).
 Compute integral first derivatives, UseDBF=F ICtDFT=           0.
 Calling FoFJK, ICntrl=      2127 FMM=F ISym2X=1 I1Cent= 0 IOpClX= 0 NMat=1 NMatS=1 NMatT=0.
 FoFJK:  IHMeth= 1 ICntrl=    2127 DoSepK=F KAlg= 0 I1Cent=           0 FoldK=F
 IRaf=         0 NMat=       1 IRICut=       1 DoRegI=T DoRafI=F ISym2E= 1 IDoP0=0 IntGTp=1.
 FoFCou: FMM=F IPFlag=           0 FMFlag=      100000 FMFlg1=         800
         NFxFlg=           0 DoJE=F BraDBF=F KetDBF=F FulRan=T
         wScrn=  0.000000 ICntrl=      2127 IOpCl=  0 I1Cent=           0 NGrid=           0
         NMat0=    1 NMatS0=      1 NMatT0=    0 NMatD0=    1 NMtDS0=    0 NMtDT0=    0
 Petite list used in FoFCou.
 Leave Link  703 at Wed Nov 19 18:11:57 2025, MaxMem=   104857600 cpu:               0.1 elap:               0.1
 (Enter /gaussian/g16.c01/intel64-sandybridge/g16/l716.exe)
 Dipole        =-2.22044605D-16-8.88178420D-16-6.66133815D-16
 ***** Axes restored to original set *****
 -------------------------------------------------------------------
 Center     Atomic                   Forces (Hartrees/Bohr)
 Number     Number              X              Y              Z
 -------------------------------------------------------------------
      1        6           0.000000000   -0.000000000   -0.000000000
      2        1          -0.000000000   -0.000000000    0.014011172
      3        1           0.000000000   -0.013209859   -0.004670391
      4        1          -0.011440074    0.006604930   -0.004670391
      5        1           0.011440074    0.006604930   -0.004670391
 -------------------------------------------------------------------
 Cartesian Forces:  Max     0.014011172 RMS     0.007235338
 Z-matrix is all fixed cartesians, so copy forces.
 Force constants in Cartesian coordinates: 
                1             2             3             4             5 
      1  0.712680D+00
      2  0.000000D+00  0.712680D+00
      3  0.000000D+00  0.000000D+00  0.712680D+00
      4 -0.797896D-01  0.000000D+00  0.000000D+00  0.593856D-01
      5  0.000000D+00 -0.797896D-01  0.000000D+00  0.000000D+00  0.593856D-01
      6  0.000000D+00  0.000000D+00 -0.374931D+00  0.000000D+00  0.000000D+00
      7 -0.797896D-01  0.000000D+00  0.000000D+00  0.456601D-03  0.000000D+00
      8  0.000000D+00 -0.342138D+00 -0.927540D-01  0.000000D+00  0.131461D-01
      9  0.000000D+00 -0.927540D-01 -0.112583D+00  0.000000D+00 -0.371827D-01
     10 -0.276551D+00  0.113600D+00 -0.803273D-01  0.997370D-02 -0.549470D-02
     11  0.113600D+00 -0.145377D+00  0.463770D-01 -0.549470D-02  0.362897D-02
     12 -0.803273D-01  0.463770D-01 -0.112583D+00 -0.322011D-01  0.185913D-01
     13 -0.276551D+00 -0.113600D+00  0.803273D-01  0.997370D-02  0.549470D-02
     14 -0.113600D+00 -0.145377D+00  0.463770D-01  0.549470D-02  0.362897D-02
     15  0.803273D-01  0.463770D-01 -0.112583D+00  0.322011D-01  0.185913D-01
                6             7             8             9            10 
      6  0.374931D+00
      7  0.000000D+00  0.593856D-01
      8  0.000000D+00  0.000000D+00  0.339870D+00
      9  0.000000D+00  0.000000D+00  0.991664D-01  0.944462D-01
     10  0.000000D+00  0.997370D-02 -0.183157D-02  0.518045D-02  0.269749D+00
     11  0.000000D+00  0.285280D-01 -0.543948D-02  0.153852D-01 -0.121454D+00
     12  0.000000D+00  0.159142D-01 -0.320618D-02  0.906844D-02  0.858806D-01
     13  0.000000D+00  0.997370D-02  0.183157D-02 -0.518045D-02 -0.131461D-01
     14  0.000000D+00 -0.285280D-01 -0.543948D-02  0.153852D-01  0.151798D-01
     15  0.000000D+00 -0.159142D-01 -0.320618D-02  0.906844D-02 -0.107337D-01
               11            12            13            14            15 
     11  0.129507D+00
     12 -0.495832D-01  0.944462D-01
     13 -0.151798D-01  0.107337D-01  0.269749D+00
     14  0.176803D-01 -0.121790D-01  0.121454D+00  0.129507D+00
     15 -0.121790D-01  0.906844D-02 -0.858806D-01 -0.495832D-01  0.944462D-01
 Leave Link  716 at Wed Nov 19 18:11:57 2025, MaxMem=   104857600 cpu:               0.0 elap:               0.1
 (Enter /gaussian/g16.c01/intel64-sandybridge/g16/l103.exe)

 GradGradGradGradGradGradGradGradGradGradGradGradGradGradGradGradGradGrad
 Berny optimization.
 Search for a local minimum.
 Step number   1 out of a maximum of    2
 All quantities printed in internal units (Hartrees-Bohrs-Radians)
 Second derivative matrix not updated -- first step.
 The second derivative matrix:
                          X1        Y1        Z1        X2        Y2
           X1           0.71268
           Y1          -0.00000   0.71268
           Z1          -0.00000   0.00000   0.71268
           X2          -0.07979  -0.00000   0.00000   0.05939
           Y2           0.00000  -0.07979   0.00000  -0.00000   0.05939
           Z2           0.00000   0.00000  -0.37493  -0.00000  -0.00000
           X3          -0.07979   0.00000   0.00000   0.00046   0.00000
           Y3           0.00000  -0.34214  -0.09275   0.00000   0.01315
           Z3           0.00000  -0.09275  -0.11258  -0.00000  -0.03718
           X4          -0.27655   0.11360  -0.08033   0.00997  -0.00549
           Y4           0.11360  -0.14538   0.04638  -0.00549   0.00363
           Z4          -0.08033   0.04638  -0.11258  -0.03220   0.01859
           X5          -0.27655  -0.11360   0.08033   0.00997   0.00549
           Y5          -0.11360  -0.14538   0.04638   0.00549   0.00363
           Z5           0.08033   0.04638  -0.11258   0.03220   0.01859
                          Z2        X3        Y3        Z3        X4
           Z2           0.37493
           X3           0.00000   0.05939
           Y3           0.00000  -0.00000   0.33987
           Z3          -0.00000  -0.00000   0.09917   0.09445
           X4           0.00000   0.00997  -0.00183   0.00518   0.26975
           Y4          -0.00000   0.02853  -0.00544   0.01539  -0.12145
           Z4          -0.00000   0.01591  -0.00321   0.00907   0.08588
           X5           0.00000   0.00997   0.00183  -0.00518  -0.01315
           Y5           0.00000  -0.02853  -0.00544   0.01539   0.01518
           Z5           0.00000  -0.01591  -0.00321   0.00907  -0.01073
                          Y4        Z4        X5        Y5        Z5
           Y4           0.12951
           Z4          -0.04958   0.09445
           X5          -0.01518   0.01073   0.26975
           Y5           0.01768  -0.01218   0.12145   0.12951
           Z5          -0.01218   0.00907  -0.08588  -0.04958   0.09445
 ITU=  0
     Eigenvalues ---    0.11786   0.11786   0.14213   0.14213   0.14213
     Eigenvalues ---    0.37493   0.87554   0.87554   0.87554
 Angle between quadratic step and forces=   0.00 degrees.
 ClnCor:  largest displacement from symmetrization is 1.61D-14 for atom     5.
 Linear search not attempted -- first point.
 ClnCor:  largest displacement from symmetrization is 2.47D-15 for atom     5.
 B after Tr=    -0.000000   -0.000000    0.000000
         Rot=    1.000000   -0.000000   -0.000000   -0.000000 Ang=   0.00 deg.
 Variable       Old X    -DE/DX   Delta X   Delta X   Delta X     New X
                                 (Linear)    (Quad)   (Total)
    X1        0.00000   0.00000   0.00000   0.00000   0.00000   0.00000
    Y1        0.00000  -0.00000   0.00000   0.00000  -0.00000   0.00000
    Z1        0.00000  -0.00000   0.00000   0.00000   0.00000   0.00000
    X2       -0.00000  -0.00000   0.00000  -0.00000  -0.00000  -0.00000
    Y2       -0.00000  -0.00000   0.00000  -0.00000  -0.00000  -0.00000
    Z2        2.01809   0.01401   0.00000   0.03737   0.03737   2.05546
    X3        0.00000   0.00000   0.00000   0.00000   0.00000   0.00000
    Y3       -1.90268  -0.01321   0.00000  -0.03523  -0.03523  -1.93791
    Z3       -0.67270  -0.00467   0.00000  -0.01246  -0.01246  -0.68515
    X4       -1.64777  -0.01144   0.00000  -0.03051  -0.03051  -1.67828
    Y4        0.95134   0.00660   0.00000   0.01762   0.01762   0.96895
    Z4       -0.67270  -0.00467   0.00000  -0.01246  -0.01246  -0.68515
    X5        1.64777   0.01144   0.00000   0.03051   0.03051   1.67828
    Y5        0.95134   0.00660   0.00000   0.01762   0.01762   0.96895
    Z5       -0.67270  -0.00467   0.00000  -0.01246  -0.01246  -0.68515
         Item               Value     Threshold  Converged?
 Maximum Force            0.014011     0.000450     NO 
 RMS     Force            0.007235     0.000300     NO 
 Maximum Displacement     0.037370     0.001800     NO 
 RMS     Displacement     0.019298     0.001200     NO 
 Predicted change in Energy=-1.047195D-03
 GradGradGradGradGradGradGradGradGradGradGradGradGradGradGradGradGradGrad

 Leave Link  103 at Wed Nov 19 18:11:58 2025, MaxMem=   104857600 cpu:               0.0 elap:               0.1
 (Enter /gaussian/g16.c01/intel64-sandybridge/g16/l9999.exe)
 Unable to Open any file for archive entry.
 1\1\GINC-THIOTIMOLINE-LARGE01\Force\RHF\STO-3G\C1H4\LCRISCI_VB\19-Nov-
 2025\0\\#p force hf/sto-3g\\title\\0,1\C,0.,0.,0.000000001\H,-0.000000
 0031,-0.0000000005,1.06792879\H,0.0000000006,-1.0068529179,-0.35597626
 25\H,-0.8719602036,0.5034264596,-0.3559762643\H,0.8719602061,0.5034264
 588,-0.3559762592\\Version=ES64L-G16RevC.01\State=1-A1\HF=-39.7260746\
 RMSD=2.937e-10\RMSF=7.235e-03\Dipole=0.,0.,0.\Quadrupole=0.,0.,0.,0.,0
 .,0.\PG=TD [O(C1),4C3(H1)]\\@
 The archive entry for this job was punched.


 COMMON SENSE IS NOT SO COMMON.   -- VOLTAIRE
 Job cpu time:       0 days  0 hours  0 minutes  0.8 seconds.
 Elapsed time:       0 days  0 hours  0 minutes  1.4 seconds.
 File lengths (MBytes):  RWF=      5 Int=      0 D2E=      0 Chk=      1 Scr=      1
 Normal termination of Gaussian 16 at Wed Nov 19 18:11:58 2025.
