%chk=test_parall.chk
%nprocs=1
#p force output=pickett External="CentralExt gau $PGAU/test_pr.dat $EGAU/test_en.dat 7 10 read parall 2" 

title

0 1
6                   0.000000    0.000000   -0.770410
1                   0.000000    1.011933   -1.174440
1                  -0.876360   -0.505967   -1.174440
1                   0.876360   -0.505967   -1.174440
6                   0.000000    0.000000    0.770410
1                  -0.876360   -0.505967    1.174440
1                   0.876360   -0.505967    1.174440
1                   0.000000    1.011933    1.174440







--link1--
%chk=test_parall.chk
%nprocs=1
#p force hf/sto-3g

title

0 1
6                   0.000000    0.000000   -0.770410
1                   0.000000    1.011933   -1.174440
1                  -0.876360   -0.505967   -1.174440
1                   0.876360   -0.505967   -1.174440
6                   0.000000    0.000000    0.770410
1                  -0.876360   -0.505967    1.174440
1                   0.876360   -0.505967    1.174440
1                   0.000000    1.011933    1.174440

