External Calculation                                                    
SP        RHF                                                         STO-3G              
Number of atoms                            I                6
Info1-9                                    I   N=           9
          20          15           0           0           0         110
           1           1           2
Full Title                                 C   N=           2
External Calculation    
Route                                      C   N=           2
#P hf/sto-3g scf=xqc    
Charge                                     I                0
Multiplicity                               I                1
Number of electrons                        I               46
Number of alpha electrons                  I               23
Number of beta electrons                   I               23
Number of basis functions                  I               30
Number of independent functions            I               30
Number of point charges in /Mol/           I                0
Number of translation vectors              I                0
Atomic numbers                             I   N=           6
           6           1           6           1          16          16
Nuclear charges                            R   N=           6
  6.00000000E+00  1.00000000E+00  6.00000000E+00  1.00000000E+00  1.60000000E+01
  1.60000000E+01
Current cartesian coordinates              R   N=          18
  7.22305795E-01  1.05726651E+00 -2.46519033E-32  2.73821003E+00  9.02177830E-01
  1.23259516E-32 -7.22305795E-01 -1.05734867E+00  2.46519033E-32 -2.73821003E+00
 -9.00370266E-01  0.00000000E+00  7.22305795E-01 -4.09505490E+00  0.00000000E+00
 -7.22305795E-01  4.09497274E+00  0.00000000E+00
Number of symbols in /Mol/                 I                0
Int Atom Types                             I   N=           6
           0           0           0           0           0           0
Force Field                                I                0
Atom Types                                 C   N=           6
                                                            
            
MM charges                                 R   N=           6
  0.00000000E+00  0.00000000E+00  0.00000000E+00  0.00000000E+00  0.00000000E+00
  0.00000000E+00
Integer atomic weights                     I   N=           6
          12           1          12           1          32          32
Real atomic weights                        R   N=           6
  1.20000000E+01  1.00782504E+00  1.20000000E+01  1.00782504E+00  3.19720718E+01
  3.19720718E+01
Atom fragment info                         I   N=           6
           0           0           0           0           0           0
Atom residue num                           I   N=           6
           0           0           0           0           0           0
Nuclear spins                              I   N=           6
           0           1           0           1           0           0
Nuclear ZEff                               R   N=           6
 -3.60000000E+00 -1.00000000E+00 -3.60000000E+00 -1.00000000E+00 -1.36000000E+01
 -1.36000000E+01
Nuclear ZNuc                               R   N=           6
  6.00000000E+00  1.00000000E+00  6.00000000E+00  1.00000000E+00  1.60000000E+01
  1.60000000E+01
Nuclear QMom                               R   N=           6
  0.00000000E+00  0.00000000E+00  0.00000000E+00  0.00000000E+00  0.00000000E+00
  0.00000000E+00
Nuclear GFac                               R   N=           6
  0.00000000E+00  2.79284600E+00  0.00000000E+00  2.79284600E+00  0.00000000E+00
  0.00000000E+00
MicOpt                                     I   N=           6
          -1          -1          -1          -1          -1          -1
Number of residues                         I                0
Number of secondary structures             I                0
SymInf integers                            I   N=          26
           1           2           1           1           1           1
           1          -1           0           0           0           0
           0           0           0           0           0           0
           0           0           0           0           0           0
           0           0
RotTr to input orientation                 R   N=          12
 -1.00000000E+00  0.00000000E+00 -1.85368030E-17  0.00000000E+00  1.00000000E+00
  1.21053644E-16  1.85368030E-17  1.21053644E-16 -1.00000000E+00  0.00000000E+00
  4.10810027E-05  0.00000000E+00
Number of contracted shells                I               12
Number of primitive shells                 I               36
Pure/Cartesian d shells                    I                0
Pure/Cartesian f shells                    I                0
Highest angular momentum                   I                1
Largest degree of contraction              I                3
Shell types                                I   N=          12
           0          -1           0           0          -1           0
           0          -1          -1           0          -1          -1
Number of primitives per shell             I   N=          12
           3           3           3           3           3           3
           3           3           3           3           3           3
Shell to atom map                          I   N=          12
           1           1           2           3           3           4
           5           5           5           6           6           6
Primitive exponents                        R   N=          36
  7.16168373E+01  1.30450963E+01  3.53051216E+00  2.94124936E+00  6.83483096E-01
  2.22289916E-01  3.42525091E+00  6.23913730E-01  1.68855404E-01  7.16168373E+01
  1.30450963E+01  3.53051216E+00  2.94124936E+00  6.83483096E-01  2.22289916E-01
  3.42525091E+00  6.23913730E-01  1.68855404E-01  5.33125736E+02  9.71095183E+01
  2.62816254E+01  3.33297517E+01  7.74511752E+00  2.51895260E+00  2.02919427E+00
  5.66140052E-01  2.21583379E-01  5.33125736E+02  9.71095183E+01  2.62816254E+01
  3.33297517E+01  7.74511752E+00  2.51895260E+00  2.02919427E+00  5.66140052E-01
  2.21583379E-01
Contraction coefficients                   R   N=          36
  1.54328967E-01  5.35328142E-01  4.44634542E-01 -9.99672292E-02  3.99512826E-01
  7.00115469E-01  1.54328967E-01  5.35328142E-01  4.44634542E-01  1.54328967E-01
  5.35328142E-01  4.44634542E-01 -9.99672292E-02  3.99512826E-01  7.00115469E-01
  1.54328967E-01  5.35328142E-01  4.44634542E-01  1.54328967E-01  5.35328142E-01
  4.44634542E-01 -9.99672292E-02  3.99512826E-01  7.00115469E-01 -2.19620369E-01
  2.25595434E-01  9.00398426E-01  1.54328967E-01  5.35328142E-01  4.44634542E-01
 -9.99672292E-02  3.99512826E-01  7.00115469E-01 -2.19620369E-01  2.25595434E-01
  9.00398426E-01
P(S=P) Contraction coefficients            R   N=          36
  0.00000000E+00  0.00000000E+00  0.00000000E+00  1.55916275E-01  6.07683719E-01
  3.91957393E-01  0.00000000E+00  0.00000000E+00  0.00000000E+00  0.00000000E+00
  0.00000000E+00  0.00000000E+00  1.55916275E-01  6.07683719E-01  3.91957393E-01
  0.00000000E+00  0.00000000E+00  0.00000000E+00  0.00000000E+00  0.00000000E+00
  0.00000000E+00  1.55916275E-01  6.07683719E-01  3.91957393E-01  1.05876043E-02
  5.95167005E-01  4.62001012E-01  0.00000000E+00  0.00000000E+00  0.00000000E+00
  1.55916275E-01  6.07683719E-01  3.91957393E-01  1.05876043E-02  5.95167005E-01
  4.62001012E-01
Coordinates of each shell                  R   N=          36
  7.22305795E-01  1.05726651E+00  1.19189276E-32  7.22305795E-01  1.05726651E+00
  1.19189276E-32  2.73821003E+00  9.02177830E-01  6.90131975E-33 -7.22305795E-01
 -1.05734867E+00 -1.19199403E-32 -7.22305795E-01 -1.05734867E+00 -1.19199403E-32
 -2.73821003E+00 -9.00370266E-01 -6.87903981E-33  7.22305795E-01 -4.09505490E+00
 -5.15883370E-32  7.22305795E-01 -4.09505490E+00 -5.15883370E-32  7.22305795E-01
 -4.09505490E+00 -5.15883370E-32 -7.22305795E-01  4.09497274E+00  5.15873243E-32
 -7.22305795E-01  4.09497274E+00  5.15873243E-32 -7.22305795E-01  4.09497274E+00
  5.15873243E-32
Num ILSW                                   I              100
ILSW                                       I   N=         100
           0           0           0           0           2           0
           0           0           0           0           0          -1
           5           0           0           0           0           0
           0           0           0           0           0           0
           1           0           0           0           0           0
           0           0      100000           0          -1           0
           0           0           0           0           0           0
           0           0           0           1           0           0
           0 -2000000000           1           0           0           0
           0           0           4          52           0           0
           0           0           0           0           0           0
           0           0           0           6           0           1
           0           0           0           0           0           0
           0           0           0           0           0           0
           0           0           0           0           0           0
           0           0           0           0           0           0
           0           0           0           0
Num RLSW                                   I               52
RLSW                                       R   N=          52
  1.00000000E+00  1.00000000E+00  1.00000000E+00  1.00000000E+00  1.00000000E+00
  0.00000000E+00  0.00000000E+00  1.00000000E+00  0.00000000E+00  0.00000000E+00
  0.00000000E+00  0.00000000E+00  1.00000000E+00  0.00000000E+00  0.00000000E+00
  0.00000000E+00  0.00000000E+00  1.00000000E+00  0.00000000E+00  0.00000000E+00
  0.00000000E+00  0.00000000E+00  1.00000000E+00  0.00000000E+00  0.00000000E+00
  0.00000000E+00  0.00000000E+00  1.00000000E+00  0.00000000E+00  0.00000000E+00
  0.00000000E+00  0.00000000E+00  1.00000000E+00  0.00000000E+00  0.00000000E+00
  0.00000000E+00  0.00000000E+00  0.00000000E+00  1.00000000E+00  1.00000000E+00
  0.00000000E+00  1.00000000E+00  0.00000000E+00  0.00000000E+00  0.00000000E+00
  0.00000000E+00  0.00000000E+00  0.00000000E+00  0.00000000E+00  0.00000000E+00
  0.00000000E+00  0.00000000E+00
MxBond                                     I                3
NBond                                      I   N=           6
           3           1           3           1           1           1
IBond                                      I   N=          18
           2           3           6           1           0           0
           1           4           5           3           0           0
           3           0           0           1           0           0
RBond                                      R   N=          18
  1.00000000E+00  2.00000000E+00  1.00000000E+00  1.00000000E+00  0.00000000E+00
  0.00000000E+00  2.00000000E+00  1.00000000E+00  1.00000000E+00  1.00000000E+00
  0.00000000E+00  0.00000000E+00  1.00000000E+00  0.00000000E+00  0.00000000E+00
  1.00000000E+00  0.00000000E+00  0.00000000E+00
Virial Ratio                               R      2.010923697034470E+00
SCF Energy                                 R     -8.621595570041757E+02
Total Energy                               R     -8.621595570041757E+02
RMS Density                                R      6.472625819401088E-09
Job Status                                 I                1
Nuclear derivative order                   I                0
External E-field                           R   N=          35
  0.00000000E+00  0.00000000E+00  0.00000000E+00  0.00000000E+00  0.00000000E+00
  0.00000000E+00  0.00000000E+00  0.00000000E+00  0.00000000E+00  0.00000000E+00
  0.00000000E+00  0.00000000E+00  0.00000000E+00  0.00000000E+00  0.00000000E+00
  0.00000000E+00  0.00000000E+00  0.00000000E+00  0.00000000E+00  0.00000000E+00
  0.00000000E+00  0.00000000E+00  0.00000000E+00  0.00000000E+00  0.00000000E+00
  0.00000000E+00  0.00000000E+00  0.00000000E+00  0.00000000E+00  0.00000000E+00
  0.00000000E+00  0.00000000E+00  0.00000000E+00  0.00000000E+00  0.00000000E+00
IOpCl                                      I                0
IROHF                                      I                0
Alpha Orbital Energies                     R   N=          30
 -9.07030608E+01 -9.07030545E+01 -1.10470890E+01 -1.10466380E+01 -8.61374993E+00
 -8.61370588E+00 -6.24455038E+00 -6.24453587E+00 -6.24433876E+00 -6.24429869E+00
 -6.24049985E+00 -6.24048302E+00 -1.02987724E+00 -8.75133029E-01 -7.52917335E-01
 -7.08185164E-01 -5.46507822E-01 -4.64020167E-01 -3.75980527E-01 -3.61244706E-01
 -2.52691542E-01 -2.45686520E-01 -1.93337899E-01  7.59436468E-02  3.18112340E-01
  4.48522297E-01  5.22357988E-01  6.57951565E-01  8.58212718E-01  9.22207874E-01
Alpha MO coefficients                      R   N=         900
 -6.54178707E-05  4.70572857E-04 -1.92782108E-04  3.96682267E-04  0.00000000E+00
  6.44250472E-06  6.90903365E-06 -7.18256853E-05  9.65889004E-06  3.51189101E-05
  0.00000000E+00  4.41637999E-05 -1.03723447E-01 -1.78602356E-03  6.59044483E-06
 -1.59985006E-05  0.00000000E+00  2.43367094E-04 -1.16341167E-05  3.47634687E-05
  0.00000000E+00  9.88739221E-01  1.70160701E-02  6.76169892E-05 -1.40653256E-04
  0.00000000E+00 -2.28123786E-03 -1.31227499E-04  2.78317842E-04  0.00000000E+00
 -6.82185092E-06  2.64590143E-05 -5.07288685E-05  4.82259841E-05  0.00000000E+00
  4.64120315E-05 -6.54060180E-05  4.65788267E-04  1.99129861E-04 -3.98067220E-04
  0.00000000E+00  1.59807108E-05  9.88739280E-01  1.70158643E-02 -6.77360428E-05
  1.40392197E-04  0.00000000E+00 -2.28037409E-03  1.31683987E-04 -2.77134357E-04
  0.00000000E+00  1.03723994E-01  1.78409768E-03  7.60906374E-06 -1.34841460E-05
  0.00000000E+00 -2.35167253E-04 -1.59477710E-05  2.35034502E-05  0.00000000E+00
  6.86476466E-01  1.85222375E-02  1.72775583E-03  1.17896242E-03  0.00000000E+00
 -4.80761630E-03  7.17070825E-01  1.98377389E-02 -1.63052292E-03 -9.86005790E-04
  0.00000000E+00 -5.02606105E-03 -5.58736441E-05  1.10875072E-04 -1.44687801E-04
  3.62685807E-04  0.00000000E+00 -2.88087408E-03  1.15676274E-03 -2.69303395E-03
  0.00000000E+00 -5.35480299E-05  1.07384518E-04  1.37454943E-04 -3.48103544E-04
  0.00000000E+00 -2.75141220E-03 -1.10144395E-03  2.57547745E-03  0.00000000E+00
  7.16580048E-01  3.05534904E-02 -2.17162253E-03 -4.30896053E-03  0.00000000E+00
 -5.10991228E-03 -6.85963862E-01 -2.97156051E-02 -2.24549396E-03 -4.35894388E-03
  0.00000000E+00  4.89495104E-03  5.21229573E-05 -7.72129721E-05  1.63599744E-04
 -3.26845356E-04  0.00000000E+00  2.90977735E-03 -1.24975387E-03  2.64123165E-03
  0.00000000E+00 -5.45190083E-05  8.19882472E-05  1.69724272E-04 -3.42445907E-04
  0.00000000E+00 -3.03319310E-03 -1.29891720E-03  2.75679782E-03  0.00000000E+00
  8.77723241E-04 -6.60569758E-03  2.20459522E-03 -4.98053631E-03  0.00000000E+00
  3.23340827E-04 -7.21897836E-04  5.58996893E-03  1.76734462E-03 -4.17338638E-03
  0.00000000E+00 -4.46652988E-04  2.35452139E-01 -6.70987795E-01  3.03311730E-03
 -6.27537230E-03  0.00000000E+00 -3.20917263E-02  1.72111932E-03 -3.74920898E-03
  0.00000000E+00 -2.82193831E-01  8.04191788E-01  3.63346572E-03 -7.52409563E-03
  0.00000000E+00  3.84340171E-02  2.06647843E-03 -4.46301578E-03  0.00000000E+00
  7.91192848E-04 -5.07768884E-03  2.23870019E-03 -4.05484475E-03  0.00000000E+00
 -7.09249523E-04  9.35498594E-04 -6.17810450E-03 -2.59793037E-03  4.88178400E-03
  0.00000000E+00 -6.41074900E-04 -2.82201117E-01  8.04213773E-01 -3.63080525E-03
  7.53901623E-03  0.00000000E+00  3.83036681E-02 -2.08422632E-03  4.32314719E-03
  0.00000000E+00 -2.35460865E-01  6.71014108E-01  3.02795256E-03 -6.29281189E-03
  0.00000000E+00  3.19356895E-02  1.74212832E-03 -3.58161882E-03  0.00000000E+00
  0.00000000E+00  0.00000000E+00  0.00000000E+00  0.00000000E+00 -3.46001855E-03
  0.00000000E+00  0.00000000E+00  0.00000000E+00  0.00000000E+00  0.00000000E+00
 -1.58618795E-03  0.00000000E+00  0.00000000E+00  0.00000000E+00  0.00000000E+00
  0.00000000E+00  4.46523118E-01  0.00000000E+00  0.00000000E+00  0.00000000E+00
  2.39833843E-02  0.00000000E+00  0.00000000E+00  0.00000000E+00  0.00000000E+00
  8.78110956E-01  0.00000000E+00  0.00000000E+00  0.00000000E+00  4.71367485E-02
  0.00000000E+00  0.00000000E+00  0.00000000E+00  0.00000000E+00  2.05353363E-03
  0.00000000E+00  0.00000000E+00  0.00000000E+00  0.00000000E+00  0.00000000E+00
 -3.69761960E-03  0.00000000E+00  0.00000000E+00  0.00000000E+00  0.00000000E+00
  0.00000000E+00  8.78117183E-01  0.00000000E+00  0.00000000E+00  0.00000000E+00
  4.71167408E-02  0.00000000E+00  0.00000000E+00  0.00000000E+00  0.00000000E+00
 -4.46534952E-01  0.00000000E+00  0.00000000E+00  0.00000000E+00 -2.39453778E-02
 -1.05900761E-03  1.05329433E-02 -3.41707861E-03  7.37741811E-03  0.00000000E+00
 -3.65004718E-04  8.67228368E-04 -8.83496443E-03 -2.76266965E-03  6.10044691E-03
  0.00000000E+00  4.56591461E-04  3.14020697E-03 -9.15557436E-03 -2.65864574E-01
  5.68894496E-01  0.00000000E+00  4.63807877E-03 -1.63300373E-02  3.49798859E-02
  0.00000000E+00 -3.78155161E-03  1.10251390E-02 -3.21657798E-01  6.85048626E-01
  0.00000000E+00 -5.55812496E-03 -1.97554565E-02  4.20898702E-02  0.00000000E+00
  9.41110584E-04 -8.22493730E-03  3.22720854E-03 -6.23414089E-03  0.00000000E+00
 -5.25798429E-04  1.12023916E-03 -1.00264061E-02 -3.80288502E-03  7.48863829E-03
  0.00000000E+00 -4.50795924E-04  3.76945326E-03 -1.09883907E-02 -3.27303068E-01
  6.82398322E-01  0.00000000E+00  5.41814528E-03 -2.00955446E-02  4.17870699E-02
  0.00000000E+00  3.12516335E-03 -9.10993232E-03  2.72628646E-01 -5.65719549E-01
  0.00000000E+00  4.46935391E-03  1.67372073E-02 -3.46155494E-02  0.00000000E+00
  1.47498848E-05  6.18844322E-04 -3.45724031E-03 -1.69468415E-03  0.00000000E+00
 -1.13987039E-05 -4.00391226E-05 -9.16000032E-04 -2.36543810E-03 -9.94272733E-04
  0.00000000E+00  4.98844625E-04 -2.57694094E-05  7.93501411E-05  4.61241508E-01
  2.14262649E-01  0.00000000E+00  1.04877412E-04  2.35442777E-02  1.10151783E-02
  0.00000000E+00  2.72695261E-05 -8.18610930E-05  7.64100016E-01  3.59847024E-01
  0.00000000E+00 -6.49305978E-05  3.90161018E-02  1.83932184E-02  0.00000000E+00
  5.79456500E-05  7.87394101E-04  1.47391897E-03  1.07711522E-03  0.00000000E+00
 -1.04152271E-03  4.41348421E-05  4.07781875E-04 -2.92144023E-03 -1.74387100E-03
  0.00000000E+00 -9.18553092E-04 -1.01891346E-05  2.67785533E-05  7.61929500E-01
  3.64440573E-01  0.00000000E+00 -5.93447072E-05  3.89192631E-02  1.85079657E-02
  0.00000000E+00  3.09566557E-06 -1.35924233E-05 -4.57660100E-01 -2.21841777E-01
  0.00000000E+00 -1.01686532E-04 -2.33847483E-02 -1.12033336E-02  0.00000000E+00
 -1.66568644E-01  4.50790538E-01 -6.44815425E-02 -7.25131534E-02  0.00000000E+00
  1.03797329E-01 -1.66559874E-01  4.50780916E-01  6.44640902E-02  7.25686127E-02
  0.00000000E+00  1.03799891E-01  2.43200919E-02 -8.36756185E-02  1.05475035E-02
 -2.88301152E-02  0.00000000E+00  2.22143860E-01 -2.38068363E-02  6.46100391E-02
  0.00000000E+00  2.43270459E-02 -8.36998238E-02 -1.05505566E-02  2.88374704E-02
  0.00000000E+00  2.22204534E-01  2.38128737E-02 -6.46254901E-02  0.00000000E+00
  8.98640152E-02 -2.75938012E-01  3.72899099E-03 -1.49903459E-01  0.00000000E+00
 -8.09885952E-02 -8.98962927E-02  2.76032278E-01  3.80036801E-03 -1.49830201E-01
  0.00000000E+00  8.09230760E-02  5.29855821E-02 -1.80467518E-01  1.79403871E-02
 -3.32884153E-02  0.00000000E+00  5.21353692E-01 -4.15679076E-02  7.73400381E-02
  0.00000000E+00 -5.29845040E-02  1.80463860E-01  1.79435568E-02 -3.32846633E-02
  0.00000000E+00 -5.21344063E-01 -4.15758523E-02  7.73317229E-02  0.00000000E+00
  6.23454025E-02 -1.75573082E-01  1.30472605E-02  2.21112497E-01  0.00000000E+00
 -7.01772546E-02  6.24233967E-02 -1.75821407E-01 -1.27570648E-02 -2.21202501E-01
  0.00000000E+00 -7.05084496E-02  5.96892964E-02 -2.00892778E-01  7.29144365E-03
 -8.32567521E-04  0.00000000E+00  6.28306166E-01 -1.74537458E-02 -2.21380617E-03
  0.00000000E+00  5.96640649E-02 -2.00807393E-01 -7.30600617E-03  8.23604273E-04
  0.00000000E+00  6.28047025E-01  1.74966371E-02  2.23346849E-03  0.00000000E+00
 -9.09337819E-02  2.89970450E-01  2.84797922E-01 -3.61691354E-02  0.00000000E+00
  3.08127046E-01  9.08369374E-02 -2.89660218E-01  2.84663338E-01 -3.61312990E-02
  0.00000000E+00 -3.07935147E-01  2.45612267E-02 -8.22247861E-02 -2.06766254E-02
 -5.21033017E-04  0.00000000E+00  2.65469506E-01  5.83370192E-02  8.40113268E-04
  0.00000000E+00 -2.46323815E-02  8.24620068E-02 -2.06949536E-02 -5.08413926E-04
  0.00000000E+00 -2.66250186E-01  5.83840939E-02  8.08875701E-04  0.00000000E+00
  5.96350937E-04 -2.10971583E-02 -3.99878866E-01 -2.38576175E-01  0.00000000E+00
 -3.43378055E-01  6.51688071E-04 -2.13271039E-02  4.00155245E-01  2.38359184E-01
  0.00000000E+00 -3.43543273E-01  8.95586880E-03 -2.92270349E-02 -3.85704667E-02
 -1.64122006E-03  0.00000000E+00  1.07643774E-01  1.12439176E-01  7.59716729E-03
  0.00000000E+00  8.97825558E-03 -2.92992540E-02  3.85627137E-02  1.59624052E-03
  0.00000000E+00  1.07923100E-01 -1.12408194E-01 -7.47546956E-03  0.00000000E+00
 -6.31120703E-02  2.55681560E-01 -2.10810967E-01  2.60026733E-01  0.00000000E+00
 -7.67931586E-02  6.31531509E-02 -2.55868325E-01 -2.10612672E-01  2.60290188E-01
  0.00000000E+00  7.67068221E-02  3.39310423E-02 -1.09110469E-01 -3.71075163E-02
  1.22737300E-01  0.00000000E+00  4.31742007E-01  1.02268256E-01 -3.54511005E-01
  0.00000000E+00 -3.39122528E-02  1.09050072E-01 -3.70485136E-02  1.22705484E-01
  0.00000000E+00 -4.31503037E-01  1.02095223E-01 -3.54428585E-01  0.00000000E+00
  0.00000000E+00  0.00000000E+00  0.00000000E+00  0.00000000E+00  5.36945199E-01
  0.00000000E+00  0.00000000E+00  0.00000000E+00  0.00000000E+00  0.00000000E+00
  5.36927151E-01  0.00000000E+00  0.00000000E+00  0.00000000E+00  0.00000000E+00
  0.00000000E+00 -1.03303687E-01  0.00000000E+00  0.00000000E+00  0.00000000E+00
  3.23497862E-01  0.00000000E+00  0.00000000E+00  0.00000000E+00  0.00000000E+00
 -1.03303190E-01  0.00000000E+00  0.00000000E+00  0.00000000E+00  3.23495159E-01
  2.28249878E-02 -1.32763697E-01  1.70637029E-01 -3.53885041E-01  0.00000000E+00
  1.90772368E-01  2.28273754E-02 -1.32749686E-01 -1.70414252E-01  3.53829453E-01
  0.00000000E+00  1.90749408E-01  1.86106234E-02 -5.80912908E-02 -8.67606799E-02
  1.26375107E-01  0.00000000E+00  2.60317758E-01  2.63895143E-01 -3.73534026E-01
  0.00000000E+00  1.86151577E-02 -5.81054271E-02  8.67537046E-02 -1.26455605E-01
  0.00000000E+00  2.60381532E-01 -2.63871604E-01  3.73784864E-01  0.00000000E+00
  1.44628104E-02 -6.15330549E-02 -1.56278421E-02  6.66473609E-02  0.00000000E+00
 -9.40991776E-02 -1.44736394E-02  6.15723534E-02 -1.55438457E-02  6.67519951E-02
  0.00000000E+00  9.39635039E-02  9.16155061E-04 -2.74984937E-03 -2.04986385E-01
 -8.02899758E-02  0.00000000E+00  1.44207391E-02  6.73700831E-01  2.67633321E-01
  0.00000000E+00 -9.14492197E-04  2.74481609E-03 -2.05274335E-01 -8.04322118E-02
  0.00000000E+00 -1.43954594E-02  6.74655336E-01  2.68098720E-01  0.00000000E+00
  1.46517613E-02 -5.32858545E-02  4.71253662E-02  1.05753799E-01  0.00000000E+00
  9.55018551E-02  1.46304113E-02 -5.31971408E-02 -4.70917625E-02 -1.05658151E-01
  0.00000000E+00  9.56799698E-02 -1.34105696E-03  3.98909057E-03 -1.84552998E-01
 -1.18808650E-01  0.00000000E+00 -2.12732574E-02  6.11851218E-01  3.87632995E-01
  0.00000000E+00 -1.34264950E-03  3.99400390E-03  1.84266263E-01  1.18674883E-01
  0.00000000E+00 -2.12967263E-02 -6.10909378E-01 -3.87188978E-01  0.00000000E+00
  0.00000000E+00  0.00000000E+00  0.00000000E+00  0.00000000E+00 -2.97332414E-01
  0.00000000E+00  0.00000000E+00  0.00000000E+00  0.00000000E+00  0.00000000E+00
  2.97296744E-01  0.00000000E+00  0.00000000E+00  0.00000000E+00  0.00000000E+00
  0.00000000E+00 -2.00131978E-01  0.00000000E+00  0.00000000E+00  0.00000000E+00
  6.46337383E-01  0.00000000E+00  0.00000000E+00  0.00000000E+00  0.00000000E+00
  2.00109149E-01  0.00000000E+00  0.00000000E+00  0.00000000E+00 -6.46260723E-01
  0.00000000E+00  0.00000000E+00  0.00000000E+00  0.00000000E+00 -3.52835716E-01
  0.00000000E+00  0.00000000E+00  0.00000000E+00  0.00000000E+00  0.00000000E+00
 -3.52865996E-01  0.00000000E+00  0.00000000E+00  0.00000000E+00  0.00000000E+00
  0.00000000E+00 -1.99951905E-01  0.00000000E+00  0.00000000E+00  0.00000000E+00
  6.61823355E-01  0.00000000E+00  0.00000000E+00  0.00000000E+00  0.00000000E+00
 -1.99975138E-01  0.00000000E+00  0.00000000E+00  0.00000000E+00  6.61897306E-01
  0.00000000E+00  0.00000000E+00  0.00000000E+00  0.00000000E+00 -7.56438291E-01
  0.00000000E+00  0.00000000E+00  0.00000000E+00  0.00000000E+00  0.00000000E+00
  7.56450998E-01  0.00000000E+00  0.00000000E+00  0.00000000E+00  0.00000000E+00
  0.00000000E+00  1.02836653E-01  0.00000000E+00  0.00000000E+00  0.00000000E+00
 -3.53616850E-01  0.00000000E+00  0.00000000E+00  0.00000000E+00  0.00000000E+00
 -1.02838179E-01  0.00000000E+00  0.00000000E+00  0.00000000E+00  3.53620928E-01
 -9.49658867E-02  5.03931804E-01 -3.02200268E-01  3.83210201E-01  0.00000000E+00
  3.83509586E-02  9.50364153E-02 -5.04355436E-01 -3.01910438E-01  3.83402475E-01
  0.00000000E+00 -3.80438473E-02  2.08446699E-02 -6.21157036E-02  7.75127382E-02
 -1.84372421E-01  0.00000000E+00  3.32265513E-01 -2.84893143E-01  6.77548949E-01
  0.00000000E+00 -2.08369335E-02  6.20922327E-02  7.74551709E-02 -1.84304473E-01
  0.00000000E+00 -3.32147639E-01 -2.84686957E-01  6.77305698E-01  0.00000000E+00
 -1.06534851E-01  6.26784330E-01 -3.99809386E-03  5.26198506E-01  0.00000000E+00
 -3.50670475E-01 -1.06625815E-01  6.27333741E-01  2.85863161E-03 -5.25937012E-01
  0.00000000E+00 -3.51921482E-01 -1.85788078E-02  5.44557819E-02 -9.07888713E-02
  1.48193513E-01  0.00000000E+00 -3.07384556E-01  3.37734847E-01 -5.54834447E-01
  0.00000000E+00 -1.85851229E-02  5.44724720E-02  9.07744393E-02 -1.48268134E-01
  0.00000000E+00 -3.07510361E-01 -3.37690080E-01  5.55124556E-01  0.00000000E+00
  1.28182114E-01 -8.08364153E-01 -4.70988330E-01  1.65636572E-01  0.00000000E+00
  9.08229161E-01 -1.28021098E-01  8.07280630E-01 -4.70749580E-01  1.66746060E-01
  0.00000000E+00 -9.07564067E-01 -2.15780493E-03  7.15107660E-03 -1.58640252E-02
  9.91227438E-03  0.00000000E+00 -2.73407212E-02  5.88998042E-02 -3.55892436E-02
  0.00000000E+00  2.18655775E-03 -7.23417197E-03 -1.59567295E-02  1.01266958E-02
  0.00000000E+00  2.78344301E-02  5.92633621E-02 -3.64149928E-02  0.00000000E+00
  5.14152186E-02 -3.83923606E-01 -8.24873983E-01  3.07526857E-01  0.00000000E+00
  8.19366219E-01  5.08335854E-02 -3.79712115E-01  8.28331894E-01 -3.03619833E-01
  0.00000000E+00  8.20154292E-01 -7.97871381E-03  2.17100010E-02 -7.67319924E-03
  5.89716375E-02  0.00000000E+00 -1.52459488E-01  3.37131647E-02 -2.38978403E-01
  0.00000000E+00 -7.98425254E-03  2.17268220E-02  7.80623646E-03 -5.89256666E-02
  0.00000000E+00 -1.52540419E-01 -3.42332379E-02  2.38786555E-01  0.00000000E+00
  1.13829736E-01 -8.44609051E-01  6.78991962E-01  8.99106831E-01  0.00000000E+00
 -1.38492139E-01 -1.14129076E-01  8.46835771E-01  6.74908908E-01  9.00348657E-01
  0.00000000E+00  1.34039084E-01  1.87515067E-03 -5.12217565E-03  3.01740554E-02
  8.41243437E-04  0.00000000E+00  3.51074830E-02 -1.19723732E-01 -3.37002508E-03
  0.00000000E+00 -1.84301751E-03  5.03560050E-03  3.01585956E-02  1.07596788E-03
  0.00000000E+00 -3.44837522E-02 -1.19647448E-01 -4.33050288E-03  0.00000000E+00
Orthonormal basis                          R   N=         900
  1.14101518E-01  3.59773338E-01 -6.14951256E-02 -1.18360643E-01  0.00000000E+00
  2.06938271E-01  1.14090666E-01  3.59740211E-01  6.13872290E-02  1.18499429E-01
  0.00000000E+00  2.07035910E-01  9.96378715E-03  2.84234678E-02 -8.03326869E-03
  3.01537409E-02  0.00000000E+00  9.48485437E-02 -3.20155104E-02  1.21404745E-01
  0.00000000E+00  9.97408708E-03  2.84521808E-02  8.03994327E-03 -3.01762363E-02
  0.00000000E+00  9.49298974E-02  3.20386298E-02 -1.21488283E-01  0.00000000E+00
  1.01691075E-01  2.25287310E-01  2.82433402E-01  7.21541735E-02  0.00000000E+00
  3.25306215E-01 -1.01682146E-01 -2.25243258E-01  2.82228291E-01  7.18339763E-02
  0.00000000E+00 -3.25111912E-01 -1.30612550E-02 -2.83337146E-02  3.82877933E-02
 -1.44587797E-02  0.00000000E+00 -6.31620633E-02  1.12772173E-01 -4.17081358E-02
  0.00000000E+00  1.30867000E-02  2.83881431E-02  3.83423031E-02 -1.44795396E-02
  0.00000000E+00  6.32680222E-02  1.12928060E-01 -4.17609532E-02  0.00000000E+00
  4.91287917E-02  1.12067104E-01 -2.23780967E-01  2.83278896E-01  0.00000000E+00
 -7.74893157E-02 -4.92319793E-02 -1.12307147E-01 -2.23959242E-01  2.83219254E-01
  0.00000000E+00  7.76206885E-02 -6.24376122E-02 -1.23607446E-01  2.74197124E-02
 -9.06220952E-02  0.00000000E+00 -2.20991578E-01  6.67503334E-02 -2.29667949E-01
  0.00000000E+00  6.24088501E-02  1.23550180E-01  2.74074549E-02 -9.05704160E-02
  0.00000000E+00  2.20882314E-01  6.67183893E-02 -2.29532258E-01  0.00000000E+00
  3.30892940E-02  1.66479130E-02 -1.66786214E-01 -3.63085158E-01  0.00000000E+00
 -9.03823051E-02  3.29425633E-02  1.64128762E-02  1.67097146E-01  3.63134817E-01
  0.00000000E+00 -9.05436373E-02 -1.48734372E-01 -2.15324651E-01  9.68595726E-02
 -4.41320745E-02  0.00000000E+00 -2.09058654E-01  1.78795270E-01 -7.39349597E-02
  0.00000000E+00 -1.48689981E-01 -2.15259989E-01 -9.67688080E-02  4.41206774E-02
  0.00000000E+00 -2.08988050E-01 -1.78622166E-01  7.39129100E-02  0.00000000E+00
 -5.92764597E-03 -1.61879565E-02 -2.93277667E-01 -9.05176081E-02  0.00000000E+00
 -2.31159192E-01 -6.00692846E-03 -1.63077897E-02  2.93378584E-01  9.05447180E-02
  0.00000000E+00 -2.31205914E-01  2.44791926E-01  2.95043581E-01  9.40968671E-02
  2.32574380E-02  0.00000000E+00  1.62603504E-01  1.46256126E-01  3.37121407E-02
  0.00000000E+00  2.45153829E-01  2.95480041E-01 -9.40528394E-02 -2.32351381E-02
  0.00000000E+00  1.62849318E-01 -1.46187606E-01 -3.36765502E-02  0.00000000E+00
  3.75843754E-02  4.20049086E-02 -4.51986042E-02  7.42739694E-02  0.00000000E+00
 -5.01449497E-03 -3.76092083E-02 -4.20531663E-02 -4.50046264E-02  7.44273507E-02
  0.00000000E+00  4.89214517E-03  3.37168949E-01  3.81121772E-01  5.31272902E-02
 -1.39169706E-01  0.00000000E+00  1.56781738E-01  7.53569428E-02 -1.98457004E-01
  0.00000000E+00 -3.36888554E-01 -3.80804863E-01  5.29783814E-02 -1.39106926E-01
  0.00000000E+00 -1.56652314E-01  7.51427549E-02 -1.98367991E-01  0.00000000E+00
  1.10834299E-02  4.11139638E-03  2.14031611E-01 -1.48934737E-01  0.00000000E+00
  1.89908877E-01  1.11225973E-02  4.15813633E-03 -2.13935659E-01  1.48867545E-01
  0.00000000E+00  1.89915965E-01  1.66551542E-01  1.62034170E-01  7.55920354E-02
 -2.91029876E-01  0.00000000E+00  1.83165738E-02  8.94046564E-02 -3.48236942E-01
  0.00000000E+00  1.66624069E-01  1.62104704E-01 -7.56086056E-02  2.91215368E-01
  0.00000000E+00  1.83242541E-02 -8.94232745E-02  3.48460835E-01  0.00000000E+00
 -5.23848146E-02 -4.25285744E-02 -4.95161470E-02  2.34528926E-02  0.00000000E+00
 -7.41227447E-02  5.23514372E-02  4.25042603E-02 -4.95344668E-02  2.33965318E-02
  0.00000000E+00  7.41298073E-02  6.32576417E-03  4.90935424E-03  4.18148446E-01
  1.71771412E-01  0.00000000E+00 -9.39859381E-04  3.96815857E-01  1.64311967E-01
  0.00000000E+00 -6.32910318E-03 -4.91204945E-03  4.18249248E-01  1.71720716E-01
  0.00000000E+00  9.38251861E-04  3.96910822E-01  1.64265270E-01  0.00000000E+00
  5.10664799E-02  2.99919931E-02 -1.78343874E-01 -1.07012887E-01  0.00000000E+00
 -1.44233010E-01  5.10174717E-02  2.99480880E-02  1.78358318E-01  1.07008842E-01
  0.00000000E+00 -1.44240486E-01  1.07042703E-02  7.54583616E-03 -4.00824816E-01
 -1.81196284E-01  0.00000000E+00 -5.60699522E-03 -3.50607246E-01 -1.57823477E-01
  0.00000000E+00  1.07456007E-02  7.57471425E-03  4.00846475E-01  1.81022376E-01
  0.00000000E+00 -5.63350950E-03  3.50626302E-01  1.57672015E-01  0.00000000E+00
  1.42886780E-01  8.07432233E-02 -7.02915166E-02  1.29986948E-01  0.00000000E+00
 -3.65281865E-03 -1.42962506E-01 -8.08063986E-02 -7.01481583E-02  1.30089458E-01
  0.00000000E+00  3.59572163E-03  2.63961928E-01  1.17866485E-01 -1.60629724E-01
  3.96937298E-01  0.00000000E+00 -2.65525966E-01 -8.91129041E-02  2.18844250E-01
  0.00000000E+00 -2.63858245E-01 -1.17820266E-01 -1.60450034E-01  3.96833990E-01
  0.00000000E+00  2.65420046E-01 -8.90151780E-02  2.18787530E-01  0.00000000E+00
  8.09329706E-02  5.80072410E-02 -1.28217901E-01  2.00481764E-01  0.00000000E+00
 -8.86153004E-02  8.09298872E-02  5.80024486E-02  1.28099216E-01 -2.00419031E-01
  0.00000000E+00 -8.86340774E-02 -3.33498848E-01 -1.06110429E-01  1.53095716E-01
 -2.81984999E-01  0.00000000E+00  3.78953198E-01  6.05654850E-02 -1.13897916E-01
  0.00000000E+00 -3.33619235E-01 -1.06148749E-01 -1.53099273E-01  2.82119314E-01
  0.00000000E+00  3.79089531E-01 -6.05685702E-02  1.13951334E-01  0.00000000E+00
 -6.39324244E-01 -2.46103482E-02  6.52502519E-02  6.11279347E-02  0.00000000E+00
  1.14166022E-01  6.39463356E-01  2.46012260E-02  6.53468942E-02  6.11689139E-02
  0.00000000E+00 -1.14228625E-01  1.62180280E-01  1.05618625E-03 -4.34491945E-02
 -4.71331606E-02  0.00000000E+00 -2.19655015E-01  1.38682549E-04  4.32575066E-03
  0.00000000E+00 -1.62104833E-01 -1.05583333E-03 -4.34602308E-02 -4.71218927E-02
  0.00000000E+00  2.19550243E-01  1.39737545E-04  4.32545270E-03  0.00000000E+00
  6.63972673E-01 -4.65724564E-02  4.98665006E-02  1.38253588E-01  0.00000000E+00
 -1.15508596E-01  6.63793550E-01 -4.65609678E-02 -4.99999865E-02 -1.38261542E-01
  0.00000000E+00 -1.15516908E-01  1.15544386E-01 -1.17806783E-02  8.87987751E-02
 -1.83011836E-02  0.00000000E+00 -1.66398144E-01 -1.40323540E-02  1.19760871E-03
  0.00000000E+00  1.15522367E-01 -1.17786779E-02 -8.87421300E-02  1.83330394E-02
  0.00000000E+00 -1.66370596E-01  1.40226132E-02 -1.20159993E-03  0.00000000E+00
 -1.88123094E-01  7.26859927E-02 -5.38352661E-02  1.79802981E-01  0.00000000E+00
  5.62166406E-02  1.88165335E-01 -7.27182690E-02 -5.36996985E-02  1.79785663E-01
  0.00000000E+00 -5.62399975E-02 -2.71116747E-01  1.10133320E-01 -2.15415451E-01
  4.33217931E-01  0.00000000E+00  3.48409685E-01  1.16028043E-01 -2.33324558E-01
  0.00000000E+00  2.71152805E-01 -1.10148209E-01 -2.15424066E-01  4.33286464E-01
  0.00000000E+00 -3.48460039E-01  1.16032250E-01 -2.33359848E-01  0.00000000E+00
  1.77409006E-01 -1.06200971E-01  1.15928956E-01 -1.63539044E-01  0.00000000E+00
  1.58714701E-02  1.77472830E-01 -1.06235645E-01 -1.15860511E-01  1.63569063E-01
  0.00000000E+00  1.58979536E-02 -2.21713293E-01  1.05913020E-01 -2.30436967E-01
  4.72388924E-01  0.00000000E+00  2.74887625E-01  1.44765293E-01 -2.95767106E-01
  0.00000000E+00 -2.21686058E-01  1.05900108E-01  2.30359934E-01 -4.72354986E-01
  0.00000000E+00  2.74855465E-01 -1.44715902E-01  2.95745640E-01  0.00000000E+00
  4.08407109E-02 -3.54612561E-02 -5.48727213E-03  3.13373233E-02  0.00000000E+00
 -9.05715103E-02 -4.07514139E-02  3.53907758E-02 -5.53931705E-03  3.12096654E-02
  0.00000000E+00  9.06290508E-02 -2.82591605E-03  2.22808711E-03 -5.15468456E-01
 -2.45130151E-01  0.00000000E+00  2.86720462E-03  5.27376798E-01  2.51308404E-01
  0.00000000E+00  2.83221901E-03 -2.23330971E-03 -5.14995104E-01 -2.44825584E-01
  0.00000000E+00 -2.87778207E-03  5.26890418E-01  2.50999103E-01  0.00000000E+00
 -5.60596695E-02  4.64117682E-02 -4.54651691E-02 -7.41736022E-02  0.00000000E+00
 -5.20968474E-02 -5.61081455E-02  4.64545109E-02  4.54016841E-02  7.42035611E-02
  0.00000000E+00 -5.20380199E-02 -3.16913291E-03  2.67692981E-03  5.04200751E-01
  2.55093771E-01  0.00000000E+00  5.23490596E-03 -5.26289545E-01 -2.64655085E-01
  0.00000000E+00 -3.17097184E-03  2.67819420E-03 -5.04722452E-01 -2.55315287E-01
  0.00000000E+00  5.23327596E-03  5.26832605E-01  2.64887150E-01  0.00000000E+00
  3.49054894E-02 -5.17997709E-02  4.71210851E-02 -1.31275817E-01  0.00000000E+00
 -3.99106835E-02 -3.49170926E-02  5.18282059E-02  4.70117015E-02 -1.31252702E-01
  0.00000000E+00  3.98820684E-02  5.10760938E-01 -5.97338497E-01 -8.14899200E-02
  1.71794958E-01  0.00000000E+00  2.09119579E-01  1.28630673E-01 -2.70880261E-01
  0.00000000E+00 -5.10869583E-01  5.97465752E-01 -8.15001645E-02  1.71835060E-01
  0.00000000E+00 -2.09161109E-01  1.28647116E-01 -2.70944772E-01  0.00000000E+00
  3.67157514E-02 -7.09107750E-02  6.90394571E-02 -1.03906283E-01  0.00000000E+00
  3.16955277E-04  3.67363599E-02 -7.09442053E-02 -6.89971727E-02  1.03936468E-01
  0.00000000E+00  3.45499723E-04 -5.23636292E-01  6.22219781E-01  6.44803778E-02
 -1.29465221E-01  0.00000000E+00 -2.48222229E-01 -1.03708300E-01  2.08925665E-01
  0.00000000E+00 -5.23522451E-01  6.22084583E-01 -6.44549587E-02  1.29442267E-01
  0.00000000E+00 -2.48167143E-01  1.03667908E-01 -2.08888898E-01  0.00000000E+00
 -5.94609241E-02  1.19075093E-01 -3.03033647E-01  5.20527656E-01  0.00000000E+00
  2.91907112E-01  5.94349557E-02 -1.19061320E-01 -3.02507003E-01  5.20311760E-01
  0.00000000E+00 -2.91654037E-01  1.34371554E-01 -2.38685371E-01  9.10942948E-02
 -2.08708086E-01  0.00000000E+00  5.01185583E-01 -2.28196465E-01  5.20426267E-01
  0.00000000E+00 -1.34448352E-01  2.38821100E-01  9.11561291E-02 -2.08825934E-01
  0.00000000E+00 -5.01481371E-01 -2.28349257E-01  5.20724993E-01  0.00000000E+00
  1.33239703E-01 -4.39169610E-01  3.63409677E-01 -5.68909046E-01  0.00000000E+00
 -5.90097061E-02  1.33466907E-01 -4.39812222E-01 -3.62074258E-01  5.70211250E-01
  0.00000000E+00 -5.75887293E-02  9.34200618E-02 -1.82769585E-01  9.28237923E-02
 -1.86097242E-01  0.00000000E+00  5.05018500E-01 -2.61840982E-01  5.28432646E-01
  0.00000000E+00  9.33086144E-02 -1.82549920E-01 -9.26529724E-02  1.85909889E-01
  0.00000000E+00  5.04437379E-01  2.61363565E-01 -5.27906818E-01  0.00000000E+00
 -6.07947392E-02  1.72078357E-01  7.39321061E-01  4.94627827E-01  0.00000000E+00
 -7.74095120E-01  6.08537612E-02 -1.72360622E-01  7.41405994E-01  4.92937835E-01
  0.00000000E+00  7.75786728E-01  2.10654149E-02 -4.36454356E-02  5.01108596E-02
 -3.08534480E-02  0.00000000E+00  1.25772598E-01 -1.47797681E-01  9.10979921E-02
  0.00000000E+00 -2.12277012E-02  4.39738213E-02  5.01987263E-02 -3.12381131E-02
  0.00000000E+00 -1.26845219E-01 -1.48082767E-01  9.22711661E-02  0.00000000E+00
  1.45544880E-01 -6.68701736E-01 -7.16788630E-01  5.57412010E-02  0.00000000E+00
  8.87277065E-01  1.45256398E-01 -6.67604104E-01  7.15559809E-01 -5.70511141E-02
  0.00000000E+00  8.85582127E-01  2.95315752E-03 -7.82818195E-03  2.68416977E-02
 -1.97217095E-03  0.00000000E+00  7.70401517E-03 -8.33242380E-02 -1.87981598E-05
  0.00000000E+00  3.00635780E-03 -7.94517475E-03 -2.69548099E-02  2.10642772E-03
  0.00000000E+00  8.15262104E-03  8.36995405E-02 -4.33375833E-04  0.00000000E+00
  2.43479829E-01 -1.31336744E+00  3.29632300E-01  6.34453333E-01  0.00000000E+00
  3.62359582E-01 -2.43537463E-01  1.31364864E+00  3.29215836E-01  6.34736516E-01
  0.00000000E+00 -3.62947650E-01 -1.15467041E-02  2.90257835E-02 -4.30941919E-03
  4.39818230E-02  0.00000000E+00 -1.18696465E-01  1.50072304E-02 -1.62152435E-01
  0.00000000E+00  1.15541115E-02 -2.90427331E-02 -4.30008213E-03  4.40113100E-02
  0.00000000E+00  1.18793022E-01  1.49805072E-02 -1.62267950E-01  0.00000000E+00
  0.00000000E+00  0.00000000E+00  0.00000000E+00  0.00000000E+00  4.14448169E-01
  0.00000000E+00  0.00000000E+00  0.00000000E+00  0.00000000E+00  0.00000000E+00
  4.14448169E-01  0.00000000E+00  0.00000000E+00  0.00000000E+00  0.00000000E+00
  0.00000000E+00  2.66663849E-01  0.00000000E+00  0.00000000E+00  0.00000000E+00
  3.56269639E-01  0.00000000E+00  0.00000000E+00  0.00000000E+00  0.00000000E+00
  2.66663849E-01  0.00000000E+00  0.00000000E+00  0.00000000E+00  3.56269639E-01
  0.00000000E+00  0.00000000E+00  0.00000000E+00  0.00000000E+00 -1.00533358E-01
  0.00000000E+00  0.00000000E+00  0.00000000E+00  0.00000000E+00  0.00000000E+00
  1.00533358E-01  0.00000000E+00  0.00000000E+00  0.00000000E+00  0.00000000E+00
  0.00000000E+00  4.28024345E-01  0.00000000E+00  0.00000000E+00  0.00000000E+00
  4.47559958E-01  0.00000000E+00  0.00000000E+00  0.00000000E+00  0.00000000E+00
 -4.28024345E-01  0.00000000E+00  0.00000000E+00  0.00000000E+00 -4.47559958E-01
  0.00000000E+00  0.00000000E+00  0.00000000E+00  0.00000000E+00  4.65576025E-01
  0.00000000E+00  0.00000000E+00  0.00000000E+00  0.00000000E+00  0.00000000E+00
  4.65576025E-01  0.00000000E+00  0.00000000E+00  0.00000000E+00  0.00000000E+00
  0.00000000E+00 -3.94933826E-01  0.00000000E+00  0.00000000E+00  0.00000000E+00
 -2.46000634E-01  0.00000000E+00  0.00000000E+00  0.00000000E+00  0.00000000E+00
 -3.94933826E-01  0.00000000E+00  0.00000000E+00  0.00000000E+00 -2.46000634E-01
  0.00000000E+00  0.00000000E+00  0.00000000E+00  0.00000000E+00  5.68487707E-01
  0.00000000E+00  0.00000000E+00  0.00000000E+00  0.00000000E+00  0.00000000E+00
 -5.68487707E-01  0.00000000E+00  0.00000000E+00  0.00000000E+00  0.00000000E+00
  0.00000000E+00  4.44053508E-01  0.00000000E+00  0.00000000E+00  0.00000000E+00
 -2.96974139E-01  0.00000000E+00  0.00000000E+00  0.00000000E+00  0.00000000E+00
 -4.44053508E-01  0.00000000E+00  0.00000000E+00  0.00000000E+00  2.96974139E-01
  0.00000000E+00  0.00000000E+00  0.00000000E+00  0.00000000E+00 -1.55829730E-01
  0.00000000E+00  0.00000000E+00  0.00000000E+00  0.00000000E+00  0.00000000E+00
 -1.55829730E-01  0.00000000E+00  0.00000000E+00  0.00000000E+00  0.00000000E+00
  0.00000000E+00 -5.55701663E-01  0.00000000E+00  0.00000000E+00  0.00000000E+00
  5.97213085E-01  0.00000000E+00  0.00000000E+00  0.00000000E+00  0.00000000E+00
 -5.55701663E-01  0.00000000E+00  0.00000000E+00  0.00000000E+00  5.97213085E-01
  0.00000000E+00  0.00000000E+00  0.00000000E+00  0.00000000E+00  5.72126190E-01
  0.00000000E+00  0.00000000E+00  0.00000000E+00  0.00000000E+00  0.00000000E+00
 -5.72126190E-01  0.00000000E+00  0.00000000E+00  0.00000000E+00  0.00000000E+00
  0.00000000E+00 -3.94307307E-01  0.00000000E+00  0.00000000E+00  0.00000000E+00
  5.05610231E-01  0.00000000E+00  0.00000000E+00  0.00000000E+00  0.00000000E+00
  3.94307307E-01  0.00000000E+00  0.00000000E+00  0.00000000E+00 -5.05610231E-01
Total SCF Density                          R   N=         465
  2.07529037E+00 -2.46937023E-01  9.71717077E-01  6.11441067E-03 -3.91927000E-02
  6.42864176E-01 -1.74698668E-02  1.36406572E-01 -3.84090229E-02  6.86959372E-01
  0.00000000E+00  1.74172672E-33 -1.46391685E-33  8.52660647E-33  7.53465800E-01
 -1.09779282E-01  2.67093968E-01  5.43731390E-01 -4.75211416E-02  0.00000000E+00
  5.90853049E-01  2.50841555E-02 -5.87216426E-02  6.21125121E-02  9.72830478E-02
  0.00000000E+00  3.13943958E-02  2.07529066E+00 -5.87222882E-02  5.01181484E-02
 -1.52761072E-01 -2.36611677E-01  0.00000000E+00 -1.23270878E-01 -2.46951773E-01
  9.71812518E-01 -6.21608936E-02  1.52989438E-01 -1.39811538E-01 -2.28577473E-01
  1.84799042E-33 -1.23513956E-01 -6.10125752E-03  3.90898295E-02  6.42804076E-01
 -9.72978868E-02  2.36677855E-01 -2.28466706E-01 -3.03026905E-01 -1.47839233E-32
 -5.32632530E-02  1.75093911E-02 -1.36566933E-01 -3.84011979E-02  6.86981708E-01
  0.00000000E+00  2.68156225E-33 -2.60065578E-33 -3.38291561E-33  3.99804785E-01
  0.00000000E+00  0.00000000E+00 -1.74354484E-33 -1.46372780E-33  8.52686973E-33
  7.53384615E-01  3.14246034E-02 -1.23448397E-01  1.23511980E-01  5.33135063E-02
  0.00000000E+00  1.26091669E-01 -1.09769093E-01  2.67102948E-01 -5.43716409E-01
  4.76969601E-02  0.00000000E+00  5.90889693E-01  9.26706949E-04 -2.25368522E-03
 -2.74909667E-03  5.20106173E-03  0.00000000E+00 -8.28284867E-04 -1.76894820E-03
  4.46935565E-04  5.27277837E-03 -1.04411966E-02  0.00000000E+00 -3.67739953E-03
  2.26521739E+00 -3.39708346E-03  8.47304421E-03  8.01596387E-03 -1.76916099E-02
  0.00000000E+00  3.77536735E-03  6.72219413E-03 -2.08036288E-03 -1.81786091E-02
  3.68623673E-02  0.00000000E+00  1.33857236E-02 -7.97314097E-01  2.40065617E+00
 -6.19561559E-03  3.71969714E-02 -8.16043591E-03 -7.79975040E-03  3.97102421E-35
 -1.31218967E-02 -1.93570558E-02  7.79904646E-02  2.49793775E-02 -1.04828279E-01
 -1.09935488E-33 -7.02122900E-02 -4.88433616E-03  1.45802140E-02  2.11699817E+00
 -1.17583299E-02  4.57855259E-02 -1.27265290E-02 -4.68823536E-02 -3.17681937E-34
  2.02025815E-02  3.90303374E-02 -1.61274280E-01 -9.81829097E-02  1.88719105E-01
  8.79483907E-33  1.88484954E-02  9.88998393E-03 -2.94250819E-02  4.77821243E-02
  2.04334070E+00  0.00000000E+00  5.07039169E-34 -1.44293439E-34 -5.65852205E-34
  8.59114022E-03  0.00000000E+00  0.00000000E+00 -2.10802231E-33 -1.24868462E-33
  2.48765610E-33 -2.37840705E-01  0.00000000E+00  0.00000000E+00 -3.85156513E-34
 -2.67279198E-33  2.51124986E-32  2.04239428E+00  7.29006660E-03 -6.39186915E-03
 -3.88814087E-02  5.64485557E-02  0.00000000E+00 -1.06958016E-02  1.64666000E-02
 -1.78550924E-01 -1.55532181E-02  4.63336788E-02  0.00000000E+00 -3.13393104E-02
  1.53880140E-01 -5.48060898E-01 -6.84763744E-02  1.38970338E-01  0.00000000E+00
  2.11076882E+00  2.41616692E-02 -1.29155962E-01  2.91031392E-02  3.59725970E-02
 -1.70677365E-34  3.79871677E-02  5.06319383E-02 -1.80553619E-01 -9.14089133E-02
  2.66034082E-01  3.38011357E-33  2.37595787E-01  1.55824001E-02 -4.68773066E-02
 -4.65863241E-01 -1.65627071E-01 -1.02325254E-33  1.97772291E-01  1.85945800E+00
  3.88480819E-02 -1.39674983E-01  3.67422382E-02  1.60421773E-01  1.36541892E-33
 -6.80222591E-02 -1.01094463E-01  3.71398837E-01  2.46633836E-01 -5.03305035E-01
 -2.70409086E-32 -5.18895834E-02 -3.14854256E-02  9.43786366E-02 -1.65830474E-01
 -2.10266262E-01  8.18602035E-33 -3.99333555E-01  5.56770210E-01  1.00158520E+00
  0.00000000E+00 -1.52263081E-33  4.08042566E-34  1.92192645E-33 -3.69253145E-02
  0.00000000E+00  0.00000000E+00  4.85603100E-33  3.18083447E-33 -6.61360393E-33
  7.31273045E-01  0.00000000E+00  0.00000000E+00  1.23553244E-33 -1.32624243E-33
 -2.33654287E-33 -2.21376290E-01 -5.22688255E-33  3.99777402E-33  1.14876504E-32
  1.05039614E+00 -1.76892119E-03  4.49096930E-04 -5.27777500E-03  1.04429532E-02
  0.00000000E+00 -3.68630557E-03  9.27054171E-04 -2.25551637E-03  2.75173419E-03
 -5.20217742E-03  0.00000000E+00 -8.28520598E-04  4.45751062E-05 -1.87325466E-04
 -4.28324275E-05 -1.16655218E-03  0.00000000E+00 -8.90155206E-05  3.36236476E-04
  3.47483181E-03  0.00000000E+00  2.26521739E+00  6.72187415E-03 -2.08624128E-03
  1.81951874E-02 -3.68674568E-02  0.00000000E+00  1.34127290E-02 -3.39820039E-03
  8.47876209E-03 -8.02379965E-03  1.76951202E-02  0.00000000E+00  3.77728772E-03
 -1.87311970E-04  7.45549187E-04  3.17029567E-05  3.93954715E-03  0.00000000E+00
 -2.65502023E-04 -7.80190258E-04 -1.18843107E-02  0.00000000E+00 -7.97314143E-01
  2.40065643E+00  1.93442186E-02 -7.79332269E-02  2.50404405E-02 -1.04823574E-01
 -1.09937328E-33  7.01896368E-02  6.19808341E-03 -3.72078325E-02 -8.13440908E-03
 -7.80215998E-03  3.96012342E-35  1.31475659E-02  4.29952810E-05 -3.22672550E-05
  2.06513992E-03  1.29188156E-03 -2.71693048E-34  1.75592755E-03 -7.46224516E-03
 -3.39479777E-03  8.86918135E-34  4.88291505E-03 -1.45756638E-02  2.11701315E+00
 -3.90247127E-02  1.61255051E-01 -9.82403322E-02  1.88722260E-01  8.79498628E-33
 -1.88774522E-02  1.17585167E-02 -4.57902997E-02 -1.27115802E-02 -4.68840544E-02
 -3.16809873E-34 -2.02067486E-02  1.16644304E-03 -3.93926609E-03  1.29189641E-03
 -1.67214441E-02  2.17354439E-33  1.22895732E-02 -3.09069327E-03  5.53839054E-02
 -7.09534508E-33 -9.88950255E-03  2.94233649E-02  4.77692235E-02  2.04334806E+00
  0.00000000E+00  2.10769710E-33 -1.24948649E-33  2.48768774E-33 -2.37844686E-01
  0.00000000E+00  0.00000000E+00 -5.07081276E-34 -1.44149281E-34 -5.65869457E-34
  8.56755682E-03  0.00000000E+00  0.00000000E+00 -4.85054877E-35  1.27420009E-35
 -2.08098171E-34 -5.87796234E-02  1.48775250E-34 -2.65983267E-35  6.87889854E-34
  1.91880927E-01  0.00000000E+00  3.85128338E-34 -2.67297408E-33  2.51126093E-32
  2.04237507E+00  1.64638336E-02 -1.78511041E-01  1.54962153E-02 -4.63004501E-02
  0.00000000E+00 -3.14713852E-02  7.29238401E-03 -6.39904203E-03  3.89082945E-02
 -5.64556692E-02  0.00000000E+00 -1.07204434E-02 -8.88476072E-05 -2.66171688E-04
 -1.75436313E-03 -1.22919780E-02  0.00000000E+00 -1.03695040E-02  7.74663457E-03
  3.36560302E-02  0.00000000E+00  1.53879722E-01 -5.48060118E-01  6.84580998E-02
 -1.38966327E-01  0.00000000E+00  2.11075655E+00 -5.05910603E-02  1.80378386E-01
 -9.16102871E-02  2.66023525E-01  3.38015651E-33 -2.37548378E-01 -2.41689083E-02
  1.29182593E-01  2.90214662E-02  3.59769817E-02 -1.70320935E-34 -3.80540447E-02
 -3.36740218E-04  7.81931501E-04 -7.46234735E-03 -3.09096268E-03  8.86913795E-34
 -7.75139914E-03  2.63094125E-02  7.21360406E-03 -2.89398123E-33 -1.55778324E-02
  4.68626152E-02 -4.65914853E-01 -1.65584461E-01 -1.02296482E-33 -1.97714727E-01
  1.85963505E+00  1.01078288E-01 -3.71344028E-01  2.46823934E-01 -5.03326703E-01
 -2.70412520E-32  5.19955525E-02 -3.88470980E-02  1.39677454E-01  3.66978137E-02
  1.60422908E-01  1.36256748E-33  6.80558936E-02 -3.47457823E-03  1.18837045E-02
 -3.39453493E-03  5.53846456E-02 -7.09531036E-33 -3.36492766E-02  7.21163028E-03
 -1.81081221E-01  2.31518498E-32  3.14842597E-02 -9.43742188E-02 -1.65787275E-01
 -2.10288701E-01  8.18371858E-33  3.99327012E-01  5.56628638E-01  1.00165165E+00
  0.00000000E+00 -4.85508544E-33  3.18348787E-33 -6.61385474E-33  7.31282334E-01
  0.00000000E+00  0.00000000E+00  1.52262024E-33  4.07620828E-34  1.92193369E-33
 -3.68482022E-02  0.00000000E+00  0.00000000E+00  1.45273210E-34 -3.03433068E-35
  6.87430845E-34  1.91879988E-01 -4.02816435E-34  4.83541379E-35 -2.24311269E-33
 -6.26100402E-01  0.00000000E+00 -1.23545535E-33 -1.32563044E-33 -2.33688510E-33
 -2.21314043E-01  5.22671321E-33  3.99575620E-33  1.14886876E-32  1.05019459E+00
Mulliken Charges                           R   N=           6
 -1.51268923E-01  7.45870763E-02 -1.51252528E-01  7.45833724E-02  7.66746697E-02
  7.66763324E-02
ONIOM Charges                              I   N=          16
           0           0           0           0           0           0
           0           0           0           0           0           0
           0           0           0           0
ONIOM Multiplicities                       I   N=          16
           1           0           0           0           0           0
           0           0           0           0           0           0
           0           0           0           0
Atom Layers                                I   N=           6
           1           1           1           1           1           1
Atom Modifiers                             I   N=           6
           0           0           0           0           0           0
Int Atom Modified Types                    I   N=           6
           0           0           0           0           0           0
Force Field                                I                0
Atom Modified Types                        C   N=           6
                                                            
            
Link Atoms                                 I   N=           6
           0           0           0           0           0           0
Atom Modified MM Charges                   R   N=           6
  0.00000000E+00  0.00000000E+00  0.00000000E+00  0.00000000E+00  0.00000000E+00
  0.00000000E+00
Link Distances                             R   N=          24
  0.00000000E+00  0.00000000E+00  0.00000000E+00  0.00000000E+00  0.00000000E+00
  0.00000000E+00  0.00000000E+00  0.00000000E+00  0.00000000E+00  0.00000000E+00
  0.00000000E+00  0.00000000E+00  0.00000000E+00  0.00000000E+00  0.00000000E+00
  0.00000000E+00  0.00000000E+00  0.00000000E+00  0.00000000E+00  0.00000000E+00
  0.00000000E+00  0.00000000E+00  0.00000000E+00  0.00000000E+00
Cartesian Gradient                         R   N=          18
  0.00000000E+00  0.00000000E+00  0.00000000E+00  0.00000000E+00  0.00000000E+00
  0.00000000E+00  0.00000000E+00  0.00000000E+00  0.00000000E+00  0.00000000E+00
  0.00000000E+00  0.00000000E+00  0.00000000E+00  0.00000000E+00  0.00000000E+00
  0.00000000E+00  0.00000000E+00  0.00000000E+00
Nonadiabatic coupling                      R   N=          18
  0.00000000E+00  0.00000000E+00  0.00000000E+00  0.00000000E+00  0.00000000E+00
  0.00000000E+00  0.00000000E+00  0.00000000E+00  0.00000000E+00  0.00000000E+00
  0.00000000E+00  0.00000000E+00  0.00000000E+00  0.00000000E+00  0.00000000E+00
  0.00000000E+00  0.00000000E+00  0.00000000E+00
Dipole Moment                              R   N=           3
 -1.47615851E-05  2.57825645E-04  2.56991277E-33
Quadrupole Moment                          R   N=           6
  5.70845242E-01 -2.42534056E+00  1.85449532E+00  3.39629421E-01  1.84889275E-32
 -1.47911420E-31
QEq coupling tensors                       R   N=          36
 -4.43567814E-02 -3.90383791E-02  7.41759188E-04 -1.54074396E-33 -6.35556882E-33
  4.36150222E-02 -3.55059332E-01  3.39338652E-02  1.75489522E-01  0.00000000E+00
 -6.16297582E-33  1.79569810E-01 -4.43395531E-02 -3.89827034E-02  8.19123298E-04
  4.62223187E-33  2.88889492E-33  4.35204298E-02 -3.54834566E-01  3.43411393E-02
  1.75351055E-01  0.00000000E+00 -6.16297582E-33  1.79483511E-01  2.85601271E+00
  2.74496792E+00 -1.37865094E+00 -4.93038066E-32  2.46519033E-32 -1.47736177E+00
  2.85681041E+00  2.74422506E+00 -1.37827528E+00  4.93038066E-32  0.00000000E+00
 -1.47853513E+00
ClPar MaxAn                                I              200
ClPar NIntPar                              I                4
ClPar NRealPar                             I               16
ClPar NBits                                I               30
ClPar LenBitVec                            I                1
ClPar Read BitMap                          I   N=         200
           0           0           0           0           0           0
           0           0           0           0           0           0
           0           0           0           0           0           0
           0           0           0           0           0           0
           0           0           0           0           0           0
           0           0           0           0           0           0
           0           0           0           0           0           0
           0           0           0           0           0           0
           0           0           0           0           0           0
           0           0           0           0           0           0
           0           0           0           0           0           0
           0           0           0           0           0           0
           0           0           0           0           0           0
           0           0           0           0           0           0
           0           0           0           0           0           0
           0           0           0           0           0           0
           0           0           0           0           0           0
           0           0           0           0           0           0
           0           0           0           0           0           0
           0           0           0           0           0           0
           0           0           0           0           0           0
           0           0           0           0           0           0
           0           0           0           0           0           0
           0           0           0           0           0           0
           0           0           0           0           0           0
           0           0           0           0           0           0
           0           0           0           0           0           0
           0           0           0           0           0           0
           0           0           0           0           0           0
           0           0           0           0           0           0
           0           0           0           0           0           0
           0           0           0           0           0           0
           0           0           0           0           0           0
           0           0
ClPar Default BitMap                       I   N=         200
        2016        2016        2016        2016        2016        2016
        2016        2016        2016        2016        2016        2016
        2016        2016        2016        2016        2016        2016
        2016        2016        2016        2016        2016        2016
        2016        2016        2016        2016        2016        2016
        2016        2016        2016        2016        2016        2016
        2016        2016        2016        2016        2016        2016
        2016        2016        2016        2016        2016        2016
        2016        2016        2016        2016        2016        2016
        2016        2016        2016        2016        2016        2016
        2016        2016        2016        2016        2016        2016
        2016        2016        2016        2016        2016        2016
        2016        2016        2016        2016        2016        2016
        2016        2016        2016        2016        2016        2016
        2016        2016         480         480         480         480
         480         480         480         480         480         480
         480         480         480         480         480         480
         480         480         480         480         480         480
         480         480         480         480         480         480
         480         480         480         480         480         480
         480         480         480         480         480         480
         480         480         480         480         480         480
         480         480         480         480         480         480
         480         480         480         480         480         480
         480         480         480         480         480         480
         480         480         480         480         480         480
         480         480         480         480         480         480
         480         480         480         480         480         480
         480         480         480         480         480         480
         480         480         480         480         480         480
         480         480         480         480         480         480
         480         480         480         480         480         480
         480         480         480         480         480         480
         480         480
ClPar Int Params                           I   N=         800
           0           0           0           0           0           0
           0           0           0           0           0           0
           0           0           0           0           0           0
           0           0           0           0           0           0
           0           0           0           0           0           0
           0           0           0           0           0           0
           0           0           0           0           0           0
           0           0           0           0           0           0
           0           0           0           0           0           0
           0           0           0           0           0           0
           0           0           0           0           0           0
           0           0           0           0           0           0
           0           0           0           0           0           0
           0           0           0           0           0           0
           0           0           0           0           0           0
           0           0           0           0           0           0
           0           0           0           0           0           0
           0           0           0           0           0           0
           0           0           0           0           0           0
           0           0           0           0           0           0
           0           0           0           0           0           0
           0           0           0           0           0           0
           0           0           0           0           0           0
           0           0           0           0           0           0
           0           0           0           0           0           0
           0           0           0           0           0           0
           0           0           0           0           0           0
           0           0           0           0           0           0
           0           0           0           0           0           0
           0           0           0           0           0           0
           0           0           0           0           0           0
           0           0           0           0           0           0
           0           0           0           0           0           0
           0           0           0           0           0           0
           0           0           0           0           0           0
           0           0           0           0           0           0
           0           0           0           0           0           0
           0           0           0           0           0           0
           0           0           0           0           0           0
           0           0           0           0           0           0
           0           0           0           0           0           0
           0           0           0           0           0           0
           0           0           0           0           0           0
           0           0           0           0           0           0
           0           0           0           0           0           0
           0           0           0           0           0           0
           0           0           0           0           0           0
           0           0           0           0           0           0
           0           0           0           0           0           0
           0           0           0           0           0           0
           0           0           0           0           0           0
           0           0           0           0           0           0
           0           0           0           0           0           0
           0           0           0           0           0           0
           0           0           0           0           0           0
           0           0           0           0           0           0
           0           0           0           0           0           0
           0           0           0           0           0           0
           0           0           0           0           0           0
           0           0           0           0           0           0
           0           0           0           0           0           0
           0           0           0           0           0           0
           0           0           0           0           0           0
           0           0           0           0           0           0
           0           0           0           0           0           0
           0           0           0           0           0           0
           0           0           0           0           0           0
           0           0           0           0           0           0
           0           0           0           0           0           0
           0           0           0           0           0           0
           0           0           0           0           0           0
           0           0           0           0           0           0
           0           0           0           0           0           0
           0           0           0           0           0           0
           0           0           0           0           0           0
           0           0           0           0           0           0
           0           0           0           0           0           0
           0           0           0           0           0           0
           0           0           0           0           0           0
           0           0           0           0           0           0
           0           0           0           0           0           0
           0           0           0           0           0           0
           0           0           0           0           0           0
           0           0           0           0           0           0
           0           0           0           0           0           0
           0           0           0           0           0           0
           0           0           0           0           0           0
           0           0           0           0           0           0
           0           0           0           0           0           0
           0           0           0           0           0           0
           0           0           0           0           0           0
           0           0           0           0           0           0
           0           0           0           0           0           0
           0           0           0           0           0           0
           0           0           0           0           0           0
           0           0           0           0           0           0
           0           0           0           0           0           0
           0           0           0           0           0           0
           0           0           0           0           0           0
           0           0           0           0           0           0
           0           0           0           0           0           0
           0           0           0           0           0           0
           0           0           0           0           0           0
           0           0           0           0           0           0
           0           0           0           0           0           0
           0           0           0           0           0           0
           0           0           0           0           0           0
           0           0           0           0           0           0
           0           0           0           0           0           0
           0           0           0           0           0           0
           0           0           0           0           0           0
           0           0           0           0           0           0
           0           0           0           0           0           0
           0           0           0           0           0           0
           0           0           0           0           0           0
           0           0           0           0           0           0
           0           0           0           0           0           0
           0           0           0           0           0           0
           0           0           0           0           0           0
           0           0           0           0           0           0
           0           0           0           0           0           0
           0           0           0           0           0           0
           0           0           0           0           0           0
           0           0           0           0           0           0
           0           0           0           0           0           0
           0           0           0           0           0           0
           0           0           0           0           0           0
           0           0           0           0           0           0
           0           0           0           0           0           0
           0           0           0           0           0           0
           0           0           0           0           0           0
           0           0           0           0           0           0
           0           0           0           0           0           0
           0           0
ClPar Real Params                          R   N=        3200
  0.00000000E+00  0.00000000E+00  0.00000000E+00  0.00000000E+00  0.00000000E+00
  0.00000000E+00  0.00000000E+00  0.00000000E+00  0.00000000E+00  0.00000000E+00
  0.00000000E+00  0.00000000E+00  0.00000000E+00  0.00000000E+00  0.00000000E+00
  0.00000000E+00  0.00000000E+00  0.00000000E+00  0.00000000E+00  0.00000000E+00
  0.00000000E+00  0.00000000E+00  0.00000000E+00  0.00000000E+00  0.00000000E+00
  0.00000000E+00  0.00000000E+00  0.00000000E+00  0.00000000E+00  0.00000000E+00
  0.00000000E+00  0.00000000E+00  0.00000000E+00  0.00000000E+00  0.00000000E+00
  0.00000000E+00  0.00000000E+00  0.00000000E+00  0.00000000E+00  0.00000000E+00
  0.00000000E+00  0.00000000E+00  0.00000000E+00  0.00000000E+00  0.00000000E+00
  0.00000000E+00  0.00000000E+00  0.00000000E+00  0.00000000E+00  0.00000000E+00
  0.00000000E+00  0.00000000E+00  0.00000000E+00  0.00000000E+00  0.00000000E+00
  0.00000000E+00  0.00000000E+00  0.00000000E+00  0.00000000E+00  0.00000000E+00
  0.00000000E+00  0.00000000E+00  0.00000000E+00  0.00000000E+00  0.00000000E+00
  0.00000000E+00  0.00000000E+00  0.00000000E+00  0.00000000E+00  0.00000000E+00
  0.00000000E+00  0.00000000E+00  0.00000000E+00  0.00000000E+00  0.00000000E+00
  0.00000000E+00  0.00000000E+00  0.00000000E+00  0.00000000E+00  0.00000000E+00
  0.00000000E+00  0.00000000E+00  0.00000000E+00  0.00000000E+00  0.00000000E+00
  0.00000000E+00  0.00000000E+00  0.00000000E+00  0.00000000E+00  0.00000000E+00
  0.00000000E+00  0.00000000E+00  0.00000000E+00  0.00000000E+00  0.00000000E+00
  0.00000000E+00  0.00000000E+00  0.00000000E+00  0.00000000E+00  0.00000000E+00
  0.00000000E+00  0.00000000E+00  0.00000000E+00  0.00000000E+00  0.00000000E+00
  0.00000000E+00  0.00000000E+00  0.00000000E+00  0.00000000E+00  0.00000000E+00
  0.00000000E+00  0.00000000E+00  0.00000000E+00  0.00000000E+00  0.00000000E+00
  0.00000000E+00  0.00000000E+00  0.00000000E+00  0.00000000E+00  0.00000000E+00
  0.00000000E+00  0.00000000E+00  0.00000000E+00  0.00000000E+00  0.00000000E+00
  0.00000000E+00  0.00000000E+00  0.00000000E+00  0.00000000E+00  0.00000000E+00
  0.00000000E+00  0.00000000E+00  0.00000000E+00  0.00000000E+00  0.00000000E+00
  0.00000000E+00  0.00000000E+00  0.00000000E+00  0.00000000E+00  0.00000000E+00
  0.00000000E+00  0.00000000E+00  0.00000000E+00  0.00000000E+00  0.00000000E+00
  0.00000000E+00  0.00000000E+00  0.00000000E+00  0.00000000E+00  0.00000000E+00
  0.00000000E+00  0.00000000E+00  0.00000000E+00  0.00000000E+00  0.00000000E+00
  0.00000000E+00  0.00000000E+00  0.00000000E+00  0.00000000E+00  0.00000000E+00
  0.00000000E+00  0.00000000E+00  0.00000000E+00  0.00000000E+00  0.00000000E+00
  0.00000000E+00  0.00000000E+00  0.00000000E+00  0.00000000E+00  0.00000000E+00
  0.00000000E+00  0.00000000E+00  0.00000000E+00  0.00000000E+00  0.00000000E+00
  0.00000000E+00  0.00000000E+00  0.00000000E+00  0.00000000E+00  0.00000000E+00
  0.00000000E+00  0.00000000E+00  0.00000000E+00  0.00000000E+00  0.00000000E+00
  0.00000000E+00  0.00000000E+00  0.00000000E+00  0.00000000E+00  0.00000000E+00
  0.00000000E+00  0.00000000E+00  0.00000000E+00  0.00000000E+00  0.00000000E+00
  0.00000000E+00  0.00000000E+00  0.00000000E+00  0.00000000E+00  0.00000000E+00
  2.26000000E-01  4.43000000E-01  1.01000000E-01  1.47000000E-01  1.92000000E-01
  2.40000000E-01  2.75000000E-01  3.03000000E-01  3.25000000E-01  4.13000000E-01
  9.60000000E-02  1.35000000E-01  1.73000000E-01  2.11000000E-01  2.48000000E-01
  2.86000000E-01  3.23000000E-01  3.60000000E-01  8.20000000E-02  1.04000000E-01
  1.17000000E-01  1.23000000E-01  1.29000000E-01  1.34000000E-01  1.40000000E-01
  1.44000000E-01  1.48000000E-01  1.52000000E-01  1.55000000E-01  1.76000000E-01
  1.98000000E-01  2.19000000E-01  2.39000000E-01  2.60000000E-01  2.80000000E-01
  3.00000000E-01  7.90000000E-02  9.90000000E-02  1.19000000E-01  1.26000000E-01
  1.33000000E-01  1.40000000E-01  1.47000000E-01  1.53000000E-01  1.58000000E-01
  1.63000000E-01  1.57000000E-01  1.70000000E-01  1.87000000E-01  2.03000000E-01
  2.19000000E-01  2.34000000E-01  2.50000000E-01  2.65000000E-01  7.40000000E-02
  9.20000000E-02  1.05000000E-01  1.06000000E-01  1.07000000E-01  1.08000000E-01
  1.09000000E-01  1.10000000E-01  1.11000000E-01  1.12000000E-01  1.13000000E-01
  1.14000000E-01  1.15000000E-01  1.16000000E-01  1.17000000E-01  1.17000000E-01
  1.26000000E-01  1.36000000E-01  1.46000000E-01  1.55000000E-01  1.65000000E-01
  1.73000000E-01  1.82000000E-01  1.90000000E-01  1.62000000E-01  1.78000000E-01
  1.10000000E-01  1.35000000E-01  1.59000000E-01  1.83000000E-01  2.07000000E-01
  2.31000000E-01  6.90000000E-02  9.40000000E-02  1.02000000E-01  1.03000000E-01
  1.05000000E-01  1.07000000E-01  1.09000000E-01  1.11000000E-01  1.13000000E-01
  1.15000000E-01  1.17000000E-01  1.19000000E-01  1.20000000E-01  1.22000000E-01
  1.24000000E-01  1.26000000E-01  1.28000000E-01  1.28000000E-01  1.28000000E-01
  1.28000000E-01  1.28000000E-01  1.28000000E-01  1.28000000E-01  1.28000000E-01
  1.28000000E-01  1.28000000E-01  1.28000000E-01  1.28000000E-01  1.28000000E-01
  1.28000000E-01  1.28000000E-01  1.28000000E-01  1.28000000E-01  1.28000000E-01
  1.28000000E-01  1.28000000E-01  1.28000000E-01  1.28000000E-01  1.28000000E-01
  1.28000000E-01  1.28000000E-01  1.28000000E-01  1.28000000E-01  1.28000000E-01
  1.28000000E-01  1.28000000E-01  1.28000000E-01  1.28000000E-01  1.28000000E-01
  1.28000000E-01  1.28000000E-01  1.28000000E-01  1.28000000E-01  1.28000000E-01
  1.28000000E-01  1.28000000E-01  1.28000000E-01  1.28000000E-01  1.28000000E-01
  1.28000000E-01  1.28000000E-01  1.28000000E-01  1.28000000E-01  1.28000000E-01
  1.28000000E-01  1.28000000E-01  1.28000000E-01  1.28000000E-01  1.28000000E-01
  1.28000000E-01  1.28000000E-01  1.28000000E-01  1.28000000E-01  1.28000000E-01
  1.28000000E-01  1.28000000E-01  1.28000000E-01  1.28000000E-01  1.28000000E-01
  1.28000000E-01  1.28000000E-01  1.28000000E-01  1.28000000E-01  1.28000000E-01
  1.28000000E-01  1.28000000E-01  1.28000000E-01  1.28000000E-01  1.28000000E-01
  1.28000000E-01  1.28000000E-01  1.28000000E-01  1.28000000E-01  1.28000000E-01
  1.28000000E-01  1.28000000E-01  1.28000000E-01  1.28000000E-01  1.28000000E-01
  1.28000000E-01  1.28000000E-01  1.28000000E-01  1.28000000E-01  1.28000000E-01
  1.28000000E-01  1.28000000E-01  1.28000000E-01  1.28000000E-01  1.28000000E-01
  1.28000000E-01  1.28000000E-01  1.28000000E-01  1.28000000E-01  1.28000000E-01
  5.47000000E-01  5.92000000E-01  5.99000000E-01  6.68000000E-01  6.98000000E-01
  7.18000000E-01  7.26000000E-01  7.36000000E-01  7.43000000E-01  7.45000000E-01
  6.07000000E-01  6.66000000E-01  6.93000000E-01  7.09000000E-01  7.20000000E-01
  7.29000000E-01  7.35000000E-01  7.40000000E-01  6.08000000E-01  7.34000000E-01
  7.46000000E-01  7.55000000E-01  7.61000000E-01  7.65000000E-01  7.67000000E-01
  7.60000000E-01  7.49000000E-01  7.33000000E-01  7.08000000E-01  6.48000000E-01
  6.88000000E-01  7.09000000E-01  7.22000000E-01  7.31000000E-01  7.38000000E-01
  7.44000000E-01  6.09000000E-01  7.30000000E-01  7.41000000E-01  7.52000000E-01
  7.58000000E-01  7.63000000E-01  7.66000000E-01  7.58000000E-01  7.48000000E-01
  7.33000000E-01  7.01000000E-01  6.45000000E-01  6.86000000E-01  7.08000000E-01
  7.22000000E-01  7.31000000E-01  7.38000000E-01  7.44000000E-01  6.08000000E-01
  7.28000000E-01  7.32000000E-01  7.32000000E-01  7.32000000E-01  7.32000000E-01
  7.32000000E-01  7.32000000E-01  7.32000000E-01  7.32000000E-01  7.32000000E-01
  7.31000000E-01  7.31000000E-01  7.31000000E-01  7.31000000E-01  7.46000000E-01
  7.37000000E-01  7.46000000E-01  7.51000000E-01  7.55000000E-01  7.58000000E-01
  7.47000000E-01  7.32000000E-01  7.11000000E-01  7.41000000E-01  7.07000000E-01
  7.47000000E-01  7.43000000E-01  7.42000000E-01  7.42000000E-01  7.43000000E-01
  7.44000000E-01  6.05000000E-01  7.24000000E-01  7.26000000E-01  7.26000000E-01
  7.27000000E-01  7.27000000E-01  7.27000000E-01  7.28000000E-01  7.28000000E-01
  7.28000000E-01  7.28000000E-01  7.28000000E-01  7.29000000E-01  7.29000000E-01
  7.29000000E-01  7.29000000E-01  7.29000000E-01  7.29000000E-01  7.29000000E-01
  7.29000000E-01  7.29000000E-01  7.29000000E-01  7.29000000E-01  7.29000000E-01
  7.29000000E-01  7.29000000E-01  7.29000000E-01  7.29000000E-01  7.29000000E-01
  7.29000000E-01  7.29000000E-01  7.29000000E-01  7.29000000E-01  7.29000000E-01
  7.29000000E-01  7.29000000E-01  7.29000000E-01  7.29000000E-01  7.29000000E-01
  7.29000000E-01  7.29000000E-01  7.29000000E-01  7.29000000E-01  7.29000000E-01
  7.29000000E-01  7.29000000E-01  7.29000000E-01  7.29000000E-01  7.29000000E-01
  7.29000000E-01  7.29000000E-01  7.29000000E-01  7.29000000E-01  7.29000000E-01
  7.29000000E-01  7.29000000E-01  7.29000000E-01  7.29000000E-01  7.29000000E-01
  7.29000000E-01  7.29000000E-01  7.29000000E-01  7.29000000E-01  7.29000000E-01
  7.29000000E-01  7.29000000E-01  7.29000000E-01  7.29000000E-01  7.29000000E-01
  7.29000000E-01  7.29000000E-01  7.29000000E-01  7.29000000E-01  7.29000000E-01
  7.29000000E-01  7.29000000E-01  7.29000000E-01  7.29000000E-01  7.29000000E-01
  7.29000000E-01  7.29000000E-01  7.29000000E-01  7.29000000E-01  7.29000000E-01
  7.29000000E-01  7.29000000E-01  7.29000000E-01  7.29000000E-01  7.29000000E-01
  7.29000000E-01  7.29000000E-01  7.29000000E-01  7.29000000E-01  7.29000000E-01
  7.29000000E-01  7.29000000E-01  7.29000000E-01  7.29000000E-01  7.29000000E-01
  7.29000000E-01  7.29000000E-01  7.29000000E-01  7.29000000E-01  7.29000000E-01
  7.29000000E-01  7.29000000E-01  7.29000000E-01  7.29000000E-01  7.29000000E-01
  7.29000000E-01  7.29000000E-01  7.29000000E-01  7.29000000E-01  7.29000000E-01
  1.00000000E+00  1.70400000E+00  3.23000000E-01  3.89000000E-01  4.67000000E-01
  5.67000000E-01  6.36000000E-01  6.64000000E-01  6.96000000E-01  8.79000000E-01
  3.07000000E-01  3.48000000E-01  4.00000000E-01  4.54000000E-01  5.09000000E-01
  5.65000000E-01  6.21000000E-01  6.77000000E-01  2.56000000E-01  3.50000000E-01
  3.64000000E-01  3.62000000E-01  3.62000000E-01  3.62000000E-01  3.62000000E-01
  3.65000000E-01  3.69000000E-01  3.75000000E-01  3.86000000E-01  4.46000000E-01
  4.55000000E-01  4.74000000E-01  4.96000000E-01  5.20000000E-01  5.45000000E-01
  5.70000000E-01  2.45000000E-01  3.22000000E-01  3.55000000E-01  3.59000000E-01
  3.64000000E-01  3.70000000E-01  3.76000000E-01  3.85000000E-01  3.95000000E-01
  4.08000000E-01  3.76000000E-01  4.23000000E-01  4.22000000E-01  4.32000000E-01
  4.45000000E-01  4.59000000E-01  4.75000000E-01  4.91000000E-01  2.28000000E-01
  2.92000000E-01  2.89000000E-01  2.92000000E-01  2.95000000E-01  2.98000000E-01
  3.00000000E-01  3.03000000E-01  3.06000000E-01  3.09000000E-01  3.12000000E-01
  3.15000000E-01  3.18000000E-01  3.21000000E-01  3.24000000E-01  3.61000000E-01
  3.69000000E-01  3.70000000E-01  3.72000000E-01  3.75000000E-01  3.78000000E-01
  3.85000000E-01  3.94000000E-01  4.07000000E-01  5.26000000E-01  6.21000000E-01
  3.36000000E-01  3.54000000E-01  3.71000000E-01  3.86000000E-01  4.02000000E-01
  4.17000000E-01  2.09000000E-01  2.94000000E-01  2.65000000E-01  2.72000000E-01
  2.78000000E-01  2.84000000E-01  2.91000000E-01  2.97000000E-01  3.03000000E-01
  3.10000000E-01  3.16000000E-01  3.22000000E-01  3.29000000E-01  3.35000000E-01
  3.41000000E-01  3.48000000E-01  3.54000000E-01  3.54000000E-01  3.54000000E-01
  3.54000000E-01  3.54000000E-01  3.54000000E-01  3.54000000E-01  3.54000000E-01
  3.54000000E-01  3.54000000E-01  3.54000000E-01  3.54000000E-01  3.54000000E-01
  3.54000000E-01  3.54000000E-01  3.54000000E-01  3.54000000E-01  3.54000000E-01
  3.54000000E-01  3.54000000E-01  3.54000000E-01  3.54000000E-01  3.54000000E-01
  3.54000000E-01  3.54000000E-01  3.54000000E-01  3.54000000E-01  3.54000000E-01
  3.54000000E-01  3.54000000E-01  3.54000000E-01  3.54000000E-01  3.54000000E-01
  3.54000000E-01  3.54000000E-01  3.54000000E-01  3.54000000E-01  3.54000000E-01
  3.54000000E-01  3.54000000E-01  3.54000000E-01  3.54000000E-01  3.54000000E-01
  3.54000000E-01  3.54000000E-01  3.54000000E-01  3.54000000E-01  3.54000000E-01
  3.54000000E-01  3.54000000E-01  3.54000000E-01  3.54000000E-01  3.54000000E-01
  3.54000000E-01  3.54000000E-01  3.54000000E-01  3.54000000E-01  3.54000000E-01
  3.54000000E-01  3.54000000E-01  3.54000000E-01  3.54000000E-01  3.54000000E-01
  3.54000000E-01  3.54000000E-01  3.54000000E-01  3.54000000E-01  3.54000000E-01
  3.54000000E-01  3.54000000E-01  3.54000000E-01  3.54000000E-01  3.54000000E-01
  3.54000000E-01  3.54000000E-01  3.54000000E-01  3.54000000E-01  3.54000000E-01
  3.54000000E-01  3.54000000E-01  3.54000000E-01  3.54000000E-01  3.54000000E-01
  3.54000000E-01  3.54000000E-01  3.54000000E-01  3.54000000E-01  3.54000000E-01
  3.54000000E-01  3.54000000E-01  3.54000000E-01  3.54000000E-01  3.54000000E-01
  3.54000000E-01  3.54000000E-01  3.54000000E-01  3.54000000E-01  3.54000000E-01
  2.74000000E-01  2.96000000E-01  5.80000000E-02  4.40000000E-02  3.90000000E-02
  3.90000000E-02  3.60000000E-02  3.20000000E-02  2.90000000E-02  3.30000000E-02
  5.50000000E-02  3.90000000E-02  3.30000000E-02  3.00000000E-02  2.80000000E-02
  2.60000000E-02  2.50000000E-02  2.50000000E-02  4.50000000E-02  4.40000000E-02
  3.30000000E-02  2.50000000E-02  2.10000000E-02  1.80000000E-02  1.50000000E-02
  1.80000000E-02  2.10000000E-02  2.50000000E-02  3.30000000E-02  5.00000000E-02
  3.80000000E-02  3.10000000E-02  2.70000000E-02  2.40000000E-02  2.20000000E-02
  2.10000000E-02  4.30000000E-02  4.00000000E-02  3.20000000E-02  2.50000000E-02
  2.10000000E-02  1.80000000E-02  1.60000000E-02  1.90000000E-02  2.20000000E-02
  2.80000000E-02  3.10000000E-02  4.70000000E-02  3.40000000E-02  2.80000000E-02
  2.40000000E-02  2.10000000E-02  1.90000000E-02  1.80000000E-02  3.90000000E-02
  3.60000000E-02  2.50000000E-02  2.50000000E-02  2.50000000E-02  2.60000000E-02
  2.60000000E-02  2.60000000E-02  2.70000000E-02  2.70000000E-02  2.70000000E-02
  2.70000000E-02  2.80000000E-02  2.80000000E-02  2.80000000E-02  3.30000000E-02
  3.30000000E-02  2.60000000E-02  2.10000000E-02  1.80000000E-02  1.60000000E-02
  1.80000000E-02  2.20000000E-02  2.60000000E-02  4.90000000E-02  8.20000000E-02
  3.00000000E-02  2.40000000E-02  2.10000000E-02  1.80000000E-02  1.60000000E-02
  1.50000000E-02  3.50000000E-02  3.60000000E-02  2.20000000E-02  2.30000000E-02
  2.40000000E-02  2.40000000E-02  2.50000000E-02  2.50000000E-02  2.60000000E-02
  2.70000000E-02  2.70000000E-02  2.80000000E-02  2.80000000E-02  2.90000000E-02
  3.00000000E-02  3.00000000E-02  3.10000000E-02  3.10000000E-02  3.10000000E-02
  3.10000000E-02  3.10000000E-02  3.10000000E-02  3.10000000E-02  3.10000000E-02
  3.10000000E-02  3.10000000E-02  3.10000000E-02  3.10000000E-02  3.10000000E-02
  3.10000000E-02  3.10000000E-02  3.10000000E-02  3.10000000E-02  3.10000000E-02
  3.10000000E-02  3.10000000E-02  3.10000000E-02  3.10000000E-02  3.10000000E-02
  3.10000000E-02  3.10000000E-02  3.10000000E-02  3.10000000E-02  3.10000000E-02
  3.10000000E-02  3.10000000E-02  3.10000000E-02  3.10000000E-02  3.10000000E-02
  3.10000000E-02  3.10000000E-02  3.10000000E-02  3.10000000E-02  3.10000000E-02
  3.10000000E-02  3.10000000E-02  3.10000000E-02  3.10000000E-02  3.10000000E-02
  3.10000000E-02  3.10000000E-02  3.10000000E-02  3.10000000E-02  3.10000000E-02
  3.10000000E-02  3.10000000E-02  3.10000000E-02  3.10000000E-02  3.10000000E-02
  3.10000000E-02  3.10000000E-02  3.10000000E-02  3.10000000E-02  3.10000000E-02
  3.10000000E-02  3.10000000E-02  3.10000000E-02  3.10000000E-02  3.10000000E-02
  3.10000000E-02  3.10000000E-02  3.10000000E-02  3.10000000E-02  3.10000000E-02
  3.10000000E-02  3.10000000E-02  3.10000000E-02  3.10000000E-02  3.10000000E-02
  3.10000000E-02  3.10000000E-02  3.10000000E-02  3.10000000E-02  3.10000000E-02
  3.10000000E-02  3.10000000E-02  3.10000000E-02  3.10000000E-02  3.10000000E-02
  3.10000000E-02  3.10000000E-02  3.10000000E-02  3.10000000E-02  3.10000000E-02
  3.10000000E-02  3.10000000E-02  3.10000000E-02  3.10000000E-02  3.10000000E-02
  3.10000000E-02  3.10000000E-02  3.10000000E-02  3.10000000E-02  3.10000000E-02
 -5.92770000E-01 -9.17860000E-01 -2.48668000E+00 -8.36430000E-01 -3.18470000E-01
 -4.55790000E-01 -5.70730000E-01 -6.77940000E-01 -7.69860000E-01 -8.51140000E-01
 -1.51908000E+00 -3.18830000E-01 -2.17900000E-01 -3.01260000E-01 -3.72750000E-01
 -4.15890000E-01 -4.45930000E-01 -5.91320000E-01 -9.56370000E-01 -2.88450000E-01
 -4.87320000E-01 -6.34280000E-01 -7.17490000E-01 -7.91980000E-01 -8.68490000E-01
 -9.17520000E-01 -9.54890000E-01 -9.88460000E-01 -1.50055000E+00 -2.92560000E-01
 -2.14960000E-01 -2.91180000E-01 -3.42080000E-01 -3.84480000E-01 -4.34940000E-01
 -5.24310000E-01 -8.10070000E-01 -2.58460000E-01 -4.35550000E-01 -5.32740000E-01
 -6.08450000E-01 -6.10260000E-01 -7.58920000E-01 -8.90130000E-01 -8.45780000E-01
 -8.69340000E-01 -1.38234000E+00 -2.64850000E-01 -1.97280000E-01 -2.65040000E-01
 -2.94470000E-01 -3.16570000E-01 -3.63590000E-01 -4.57840000E-01 -8.61830000E-01
 -1.33004000E+00 -6.82880000E-01 -6.25540000E-01 -6.35430000E-01 -8.79690000E-01
 -9.02690000E-01 -9.59650000E-01 -1.01869000E+00 -6.81170000E-01 -7.96500000E-01
 -9.04950000E-01 -8.34790000E-01 -9.01560000E-01 -9.74130000E-01 -1.03326000E+00
 -7.15490000E-01 -7.83960000E-01 -8.28380000E-01 -5.61040000E-01 -1.03841000E+00
 -8.62500000E-01 -9.59300000E-01 -1.01755000E+00 -7.64900000E-01 -1.29467000E+00
 -1.92740000E-01 -2.56010000E-01 -3.19820000E-01 -1.94660000E-01 -2.60090000E-01
 -4.27990000E-01  0.00000000E+00  0.00000000E+00  0.00000000E+00  0.00000000E+00
  0.00000000E+00  0.00000000E+00  0.00000000E+00  0.00000000E+00  0.00000000E+00
  0.00000000E+00  0.00000000E+00  0.00000000E+00  0.00000000E+00  0.00000000E+00
  0.00000000E+00  0.00000000E+00  0.00000000E+00  0.00000000E+00  0.00000000E+00
  0.00000000E+00  0.00000000E+00  0.00000000E+00  0.00000000E+00  0.00000000E+00
  0.00000000E+00  0.00000000E+00  0.00000000E+00  0.00000000E+00  0.00000000E+00
  0.00000000E+00  0.00000000E+00  0.00000000E+00  0.00000000E+00  0.00000000E+00
  0.00000000E+00  0.00000000E+00  0.00000000E+00  0.00000000E+00  0.00000000E+00
  0.00000000E+00  0.00000000E+00  0.00000000E+00  0.00000000E+00  0.00000000E+00
  0.00000000E+00  0.00000000E+00  0.00000000E+00  0.00000000E+00  0.00000000E+00
  0.00000000E+00  0.00000000E+00  0.00000000E+00  0.00000000E+00  0.00000000E+00
  0.00000000E+00  0.00000000E+00  0.00000000E+00  0.00000000E+00  0.00000000E+00
  0.00000000E+00  0.00000000E+00  0.00000000E+00  0.00000000E+00  0.00000000E+00
  0.00000000E+00  0.00000000E+00  0.00000000E+00  0.00000000E+00  0.00000000E+00
  0.00000000E+00  0.00000000E+00  0.00000000E+00  0.00000000E+00  0.00000000E+00
  0.00000000E+00  0.00000000E+00  0.00000000E+00  0.00000000E+00  0.00000000E+00
  0.00000000E+00  0.00000000E+00  0.00000000E+00  0.00000000E+00  0.00000000E+00
  0.00000000E+00  0.00000000E+00  0.00000000E+00  0.00000000E+00  0.00000000E+00
  0.00000000E+00  0.00000000E+00  0.00000000E+00  0.00000000E+00  0.00000000E+00
  0.00000000E+00  0.00000000E+00  0.00000000E+00  0.00000000E+00  0.00000000E+00
  0.00000000E+00  0.00000000E+00  0.00000000E+00  0.00000000E+00  0.00000000E+00
  0.00000000E+00  0.00000000E+00  0.00000000E+00  0.00000000E+00  0.00000000E+00
  0.00000000E+00  0.00000000E+00  0.00000000E+00  0.00000000E+00  0.00000000E+00
  1.90440000E+00  1.36430000E+00  4.84000000E-01  7.31600000E+00  9.24030000E+00
  8.78200000E+00  5.61290000E+00  4.83340000E+00  3.24870000E+00  2.71090000E+00
  2.01130000E+00  1.50282000E+01  1.46788000E+01  2.13546000E+01  2.38290000E+01
  1.98022000E+01  1.50468000E+01  1.09745000E+01  1.27219000E+01  1.51949000E+01
  1.57342000E+01  2.79222000E+01  1.61366000E+01  2.21252000E+01  2.45676000E+01
  1.96016000E+01  1.79818000E+01  1.72396000E+01  5.01500000E+00  1.92898000E+01
  2.34477000E+01  2.23993000E+01  2.96586000E+01  2.60081000E+01  2.15580000E+01
  1.69594000E+01  1.56479000E+01  1.86897000E+01  1.93530000E+01  3.43444000E+01
  1.98480000E+01  2.72140000E+01  3.02182000E+01  2.41099000E+01  2.21176000E+01
  2.12047000E+01  7.56690000E+00  2.37264000E+01  2.93879000E+01  3.01278000E+01
  4.19382000E+01  3.85203000E+01  3.39511000E+01  2.75774000E+01  1.56460000E+01
  1.04460000E+01  2.01830000E+01  4.99540000E+01  4.76430000E+01  1.18690000E+01
  1.08670000E+01  9.96100000E+00  9.18700000E+00  3.67980000E+01  1.34070000E+01
  9.38200000E+00  9.81700000E+00  8.90800000E+00  8.40700000E+00  8.05800000E+00
  1.29600000E+01  2.67920000E+01  2.49300000E+01  3.45630000E+01  1.11860000E+01
  1.09440000E+01  1.01270000E+01  9.40400000E+00  1.36660000E+01  7.81000000E+00
  6.93600000E+01  5.86630000E+01  4.79690000E+01  4.52740000E+01  3.92290000E+01
  3.30660000E+01  0.00000000E+00  0.00000000E+00  0.00000000E+00  0.00000000E+00
  0.00000000E+00  0.00000000E+00  0.00000000E+00  0.00000000E+00  0.00000000E+00
  0.00000000E+00  0.00000000E+00  0.00000000E+00  0.00000000E+00  0.00000000E+00
  0.00000000E+00  0.00000000E+00  0.00000000E+00  0.00000000E+00  0.00000000E+00
  0.00000000E+00  0.00000000E+00  0.00000000E+00  0.00000000E+00  0.00000000E+00
  0.00000000E+00  0.00000000E+00  0.00000000E+00  0.00000000E+00  0.00000000E+00
  0.00000000E+00  0.00000000E+00  0.00000000E+00  0.00000000E+00  0.00000000E+00
  0.00000000E+00  0.00000000E+00  0.00000000E+00  0.00000000E+00  0.00000000E+00
  0.00000000E+00  0.00000000E+00  0.00000000E+00  0.00000000E+00  0.00000000E+00
  0.00000000E+00  0.00000000E+00  0.00000000E+00  0.00000000E+00  0.00000000E+00
  0.00000000E+00  0.00000000E+00  0.00000000E+00  0.00000000E+00  0.00000000E+00
  0.00000000E+00  0.00000000E+00  0.00000000E+00  0.00000000E+00  0.00000000E+00
  0.00000000E+00  0.00000000E+00  0.00000000E+00  0.00000000E+00  0.00000000E+00
  0.00000000E+00  0.00000000E+00  0.00000000E+00  0.00000000E+00  0.00000000E+00
  0.00000000E+00  0.00000000E+00  0.00000000E+00  0.00000000E+00  0.00000000E+00
  0.00000000E+00  0.00000000E+00  0.00000000E+00  0.00000000E+00  0.00000000E+00
  0.00000000E+00  0.00000000E+00  0.00000000E+00  0.00000000E+00  0.00000000E+00
  0.00000000E+00  0.00000000E+00  0.00000000E+00  0.00000000E+00  0.00000000E+00
  0.00000000E+00  0.00000000E+00  0.00000000E+00  0.00000000E+00  0.00000000E+00
  0.00000000E+00  0.00000000E+00  0.00000000E+00  0.00000000E+00  0.00000000E+00
  0.00000000E+00  0.00000000E+00  0.00000000E+00  0.00000000E+00  0.00000000E+00
  0.00000000E+00  0.00000000E+00  0.00000000E+00  0.00000000E+00  0.00000000E+00
  0.00000000E+00  0.00000000E+00  0.00000000E+00  0.00000000E+00  0.00000000E+00
  0.00000000E+00  0.00000000E+00  0.00000000E+00  0.00000000E+00  0.00000000E+00
  0.00000000E+00  0.00000000E+00  0.00000000E+00  0.00000000E+00  0.00000000E+00
  0.00000000E+00  0.00000000E+00  0.00000000E+00  0.00000000E+00  0.00000000E+00
  0.00000000E+00  0.00000000E+00  0.00000000E+00  0.00000000E+00  0.00000000E+00
  0.00000000E+00  0.00000000E+00  0.00000000E+00  0.00000000E+00  0.00000000E+00
  0.00000000E+00  0.00000000E+00  0.00000000E+00  0.00000000E+00  0.00000000E+00
  0.00000000E+00  0.00000000E+00  0.00000000E+00  0.00000000E+00  0.00000000E+00
  0.00000000E+00  0.00000000E+00  0.00000000E+00  0.00000000E+00  0.00000000E+00
  0.00000000E+00  0.00000000E+00  0.00000000E+00  0.00000000E+00  0.00000000E+00
  0.00000000E+00  0.00000000E+00  0.00000000E+00  0.00000000E+00  0.00000000E+00
  0.00000000E+00  0.00000000E+00  0.00000000E+00  0.00000000E+00  0.00000000E+00
  0.00000000E+00  0.00000000E+00  0.00000000E+00  0.00000000E+00  0.00000000E+00
  0.00000000E+00  0.00000000E+00  0.00000000E+00  0.00000000E+00  0.00000000E+00
  0.00000000E+00  0.00000000E+00  0.00000000E+00  0.00000000E+00  0.00000000E+00
  0.00000000E+00  0.00000000E+00  0.00000000E+00  0.00000000E+00  0.00000000E+00
  0.00000000E+00  0.00000000E+00  0.00000000E+00  0.00000000E+00  0.00000000E+00
  0.00000000E+00  0.00000000E+00  0.00000000E+00  0.00000000E+00  0.00000000E+00
  0.00000000E+00  0.00000000E+00  0.00000000E+00  0.00000000E+00  0.00000000E+00
  0.00000000E+00  0.00000000E+00  0.00000000E+00  0.00000000E+00  0.00000000E+00
  0.00000000E+00  0.00000000E+00  0.00000000E+00  0.00000000E+00  0.00000000E+00
  0.00000000E+00  0.00000000E+00  0.00000000E+00  0.00000000E+00  0.00000000E+00
  0.00000000E+00  0.00000000E+00  0.00000000E+00  0.00000000E+00  0.00000000E+00
  0.00000000E+00  0.00000000E+00  0.00000000E+00  0.00000000E+00  0.00000000E+00
  0.00000000E+00  0.00000000E+00  0.00000000E+00  0.00000000E+00  0.00000000E+00
  0.00000000E+00  0.00000000E+00  0.00000000E+00  0.00000000E+00  0.00000000E+00
  0.00000000E+00  0.00000000E+00  0.00000000E+00  0.00000000E+00  0.00000000E+00
  0.00000000E+00  0.00000000E+00  0.00000000E+00  0.00000000E+00  0.00000000E+00
  0.00000000E+00  0.00000000E+00  0.00000000E+00  0.00000000E+00  0.00000000E+00
  0.00000000E+00  0.00000000E+00  0.00000000E+00  0.00000000E+00  0.00000000E+00
  0.00000000E+00  0.00000000E+00  0.00000000E+00  0.00000000E+00  0.00000000E+00
  0.00000000E+00  0.00000000E+00  0.00000000E+00  0.00000000E+00  0.00000000E+00
  0.00000000E+00  0.00000000E+00  0.00000000E+00  0.00000000E+00  0.00000000E+00
  0.00000000E+00  0.00000000E+00  0.00000000E+00  0.00000000E+00  0.00000000E+00
  0.00000000E+00  0.00000000E+00  0.00000000E+00  0.00000000E+00  0.00000000E+00
  0.00000000E+00  0.00000000E+00  0.00000000E+00  0.00000000E+00  0.00000000E+00
  0.00000000E+00  0.00000000E+00  0.00000000E+00  0.00000000E+00  0.00000000E+00
  0.00000000E+00  0.00000000E+00  0.00000000E+00  0.00000000E+00  0.00000000E+00
  0.00000000E+00  0.00000000E+00  0.00000000E+00  0.00000000E+00  0.00000000E+00
  0.00000000E+00  0.00000000E+00  0.00000000E+00  0.00000000E+00  0.00000000E+00
  0.00000000E+00  0.00000000E+00  0.00000000E+00  0.00000000E+00  0.00000000E+00
  0.00000000E+00  0.00000000E+00  0.00000000E+00  0.00000000E+00  0.00000000E+00
  0.00000000E+00  0.00000000E+00  0.00000000E+00  0.00000000E+00  0.00000000E+00
  0.00000000E+00  0.00000000E+00  0.00000000E+00  0.00000000E+00  0.00000000E+00
  0.00000000E+00  0.00000000E+00  0.00000000E+00  0.00000000E+00  0.00000000E+00
  0.00000000E+00  0.00000000E+00  0.00000000E+00  0.00000000E+00  0.00000000E+00
  0.00000000E+00  0.00000000E+00  0.00000000E+00  0.00000000E+00  0.00000000E+00
  0.00000000E+00  0.00000000E+00  0.00000000E+00  0.00000000E+00  0.00000000E+00
  0.00000000E+00  0.00000000E+00  0.00000000E+00  0.00000000E+00  0.00000000E+00
  0.00000000E+00  0.00000000E+00  0.00000000E+00  0.00000000E+00  0.00000000E+00
  0.00000000E+00  0.00000000E+00  0.00000000E+00  0.00000000E+00  0.00000000E+00
  0.00000000E+00  0.00000000E+00  0.00000000E+00  0.00000000E+00  0.00000000E+00
  0.00000000E+00  0.00000000E+00  0.00000000E+00  0.00000000E+00  0.00000000E+00
  0.00000000E+00  0.00000000E+00  0.00000000E+00  0.00000000E+00  0.00000000E+00
  0.00000000E+00  0.00000000E+00  0.00000000E+00  0.00000000E+00  0.00000000E+00
  0.00000000E+00  0.00000000E+00  0.00000000E+00  0.00000000E+00  0.00000000E+00
  0.00000000E+00  0.00000000E+00  0.00000000E+00  0.00000000E+00  0.00000000E+00
  0.00000000E+00  0.00000000E+00  0.00000000E+00  0.00000000E+00  0.00000000E+00
  0.00000000E+00  0.00000000E+00  0.00000000E+00  0.00000000E+00  0.00000000E+00
  0.00000000E+00  0.00000000E+00  0.00000000E+00  0.00000000E+00  0.00000000E+00
  0.00000000E+00  0.00000000E+00  0.00000000E+00  0.00000000E+00  0.00000000E+00
  0.00000000E+00  0.00000000E+00  0.00000000E+00  0.00000000E+00  0.00000000E+00
  0.00000000E+00  0.00000000E+00  0.00000000E+00  0.00000000E+00  0.00000000E+00
  0.00000000E+00  0.00000000E+00  0.00000000E+00  0.00000000E+00  0.00000000E+00
  0.00000000E+00  0.00000000E+00  0.00000000E+00  0.00000000E+00  0.00000000E+00
  0.00000000E+00  0.00000000E+00  0.00000000E+00  0.00000000E+00  0.00000000E+00
  0.00000000E+00  0.00000000E+00  0.00000000E+00  0.00000000E+00  0.00000000E+00
  0.00000000E+00  0.00000000E+00  0.00000000E+00  0.00000000E+00  0.00000000E+00
  0.00000000E+00  0.00000000E+00  0.00000000E+00  0.00000000E+00  0.00000000E+00
  0.00000000E+00  0.00000000E+00  0.00000000E+00  0.00000000E+00  0.00000000E+00
  0.00000000E+00  0.00000000E+00  0.00000000E+00  0.00000000E+00  0.00000000E+00
  0.00000000E+00  0.00000000E+00  0.00000000E+00  0.00000000E+00  0.00000000E+00
  0.00000000E+00  0.00000000E+00  0.00000000E+00  0.00000000E+00  0.00000000E+00
  0.00000000E+00  0.00000000E+00  0.00000000E+00  0.00000000E+00  0.00000000E+00
  0.00000000E+00  0.00000000E+00  0.00000000E+00  0.00000000E+00  0.00000000E+00
  0.00000000E+00  0.00000000E+00  0.00000000E+00  0.00000000E+00  0.00000000E+00
  0.00000000E+00  0.00000000E+00  0.00000000E+00  0.00000000E+00  0.00000000E+00
  0.00000000E+00  0.00000000E+00  0.00000000E+00  0.00000000E+00  0.00000000E+00
  0.00000000E+00  0.00000000E+00  0.00000000E+00  0.00000000E+00  0.00000000E+00
  0.00000000E+00  0.00000000E+00  0.00000000E+00  0.00000000E+00  0.00000000E+00
  0.00000000E+00  0.00000000E+00  0.00000000E+00  0.00000000E+00  0.00000000E+00
  0.00000000E+00  0.00000000E+00  0.00000000E+00  0.00000000E+00  0.00000000E+00
  0.00000000E+00  0.00000000E+00  0.00000000E+00  0.00000000E+00  0.00000000E+00
  0.00000000E+00  0.00000000E+00  0.00000000E+00  0.00000000E+00  0.00000000E+00
  0.00000000E+00  0.00000000E+00  0.00000000E+00  0.00000000E+00  0.00000000E+00
  0.00000000E+00  0.00000000E+00  0.00000000E+00  0.00000000E+00  0.00000000E+00
  0.00000000E+00  0.00000000E+00  0.00000000E+00  0.00000000E+00  0.00000000E+00
  0.00000000E+00  0.00000000E+00  0.00000000E+00  0.00000000E+00  0.00000000E+00
  0.00000000E+00  0.00000000E+00  0.00000000E+00  0.00000000E+00  0.00000000E+00
  0.00000000E+00  0.00000000E+00  0.00000000E+00  0.00000000E+00  0.00000000E+00
  0.00000000E+00  0.00000000E+00  0.00000000E+00  0.00000000E+00  0.00000000E+00
  0.00000000E+00  0.00000000E+00  0.00000000E+00  0.00000000E+00  0.00000000E+00
  0.00000000E+00  0.00000000E+00  0.00000000E+00  0.00000000E+00  0.00000000E+00
  0.00000000E+00  0.00000000E+00  0.00000000E+00  0.00000000E+00  0.00000000E+00
  0.00000000E+00  0.00000000E+00  0.00000000E+00  0.00000000E+00  0.00000000E+00
  0.00000000E+00  0.00000000E+00  0.00000000E+00  0.00000000E+00  0.00000000E+00
  0.00000000E+00  0.00000000E+00  0.00000000E+00  0.00000000E+00  0.00000000E+00
  0.00000000E+00  0.00000000E+00  0.00000000E+00  0.00000000E+00  0.00000000E+00
  0.00000000E+00  0.00000000E+00  0.00000000E+00  0.00000000E+00  0.00000000E+00
  0.00000000E+00  0.00000000E+00  0.00000000E+00  0.00000000E+00  0.00000000E+00
  0.00000000E+00  0.00000000E+00  0.00000000E+00  0.00000000E+00  0.00000000E+00
  0.00000000E+00  0.00000000E+00  0.00000000E+00  0.00000000E+00  0.00000000E+00
  0.00000000E+00  0.00000000E+00  0.00000000E+00  0.00000000E+00  0.00000000E+00
  0.00000000E+00  0.00000000E+00  0.00000000E+00  0.00000000E+00  0.00000000E+00
  0.00000000E+00  0.00000000E+00  0.00000000E+00  0.00000000E+00  0.00000000E+00
  0.00000000E+00  0.00000000E+00  0.00000000E+00  0.00000000E+00  0.00000000E+00
  0.00000000E+00  0.00000000E+00  0.00000000E+00  0.00000000E+00  0.00000000E+00
  0.00000000E+00  0.00000000E+00  0.00000000E+00  0.00000000E+00  0.00000000E+00
  0.00000000E+00  0.00000000E+00  0.00000000E+00  0.00000000E+00  0.00000000E+00
  0.00000000E+00  0.00000000E+00  0.00000000E+00  0.00000000E+00  0.00000000E+00
  0.00000000E+00  0.00000000E+00  0.00000000E+00  0.00000000E+00  0.00000000E+00
  0.00000000E+00  0.00000000E+00  0.00000000E+00  0.00000000E+00  0.00000000E+00
  0.00000000E+00  0.00000000E+00  0.00000000E+00  0.00000000E+00  0.00000000E+00
  0.00000000E+00  0.00000000E+00  0.00000000E+00  0.00000000E+00  0.00000000E+00
  0.00000000E+00  0.00000000E+00  0.00000000E+00  0.00000000E+00  0.00000000E+00
  0.00000000E+00  0.00000000E+00  0.00000000E+00  0.00000000E+00  0.00000000E+00
  0.00000000E+00  0.00000000E+00  0.00000000E+00  0.00000000E+00  0.00000000E+00
  0.00000000E+00  0.00000000E+00  0.00000000E+00  0.00000000E+00  0.00000000E+00
  0.00000000E+00  0.00000000E+00  0.00000000E+00  0.00000000E+00  0.00000000E+00
  0.00000000E+00  0.00000000E+00  0.00000000E+00  0.00000000E+00  0.00000000E+00
  0.00000000E+00  0.00000000E+00  0.00000000E+00  0.00000000E+00  0.00000000E+00
  0.00000000E+00  0.00000000E+00  0.00000000E+00  0.00000000E+00  0.00000000E+00
  0.00000000E+00  0.00000000E+00  0.00000000E+00  0.00000000E+00  0.00000000E+00
  0.00000000E+00  0.00000000E+00  0.00000000E+00  0.00000000E+00  0.00000000E+00
  0.00000000E+00  0.00000000E+00  0.00000000E+00  0.00000000E+00  0.00000000E+00
  0.00000000E+00  0.00000000E+00  0.00000000E+00  0.00000000E+00  0.00000000E+00
  0.00000000E+00  0.00000000E+00  0.00000000E+00  0.00000000E+00  0.00000000E+00
  0.00000000E+00  0.00000000E+00  0.00000000E+00  0.00000000E+00  0.00000000E+00
  0.00000000E+00  0.00000000E+00  0.00000000E+00  0.00000000E+00  0.00000000E+00
  0.00000000E+00  0.00000000E+00  0.00000000E+00  0.00000000E+00  0.00000000E+00
  0.00000000E+00  0.00000000E+00  0.00000000E+00  0.00000000E+00  0.00000000E+00
  0.00000000E+00  0.00000000E+00  0.00000000E+00  0.00000000E+00  0.00000000E+00
  0.00000000E+00  0.00000000E+00  0.00000000E+00  0.00000000E+00  0.00000000E+00
  0.00000000E+00  0.00000000E+00  0.00000000E+00  0.00000000E+00  0.00000000E+00
  0.00000000E+00  0.00000000E+00  0.00000000E+00  0.00000000E+00  0.00000000E+00
  0.00000000E+00  0.00000000E+00  0.00000000E+00  0.00000000E+00  0.00000000E+00
  0.00000000E+00  0.00000000E+00  0.00000000E+00  0.00000000E+00  0.00000000E+00
  0.00000000E+00  0.00000000E+00  0.00000000E+00  0.00000000E+00  0.00000000E+00
  0.00000000E+00  0.00000000E+00  0.00000000E+00  0.00000000E+00  0.00000000E+00
  0.00000000E+00  0.00000000E+00  0.00000000E+00  0.00000000E+00  0.00000000E+00
  0.00000000E+00  0.00000000E+00  0.00000000E+00  0.00000000E+00  0.00000000E+00
  0.00000000E+00  0.00000000E+00  0.00000000E+00  0.00000000E+00  0.00000000E+00
  0.00000000E+00  0.00000000E+00  0.00000000E+00  0.00000000E+00  0.00000000E+00
  0.00000000E+00  0.00000000E+00  0.00000000E+00  0.00000000E+00  0.00000000E+00
  0.00000000E+00  0.00000000E+00  0.00000000E+00  0.00000000E+00  0.00000000E+00
  0.00000000E+00  0.00000000E+00  0.00000000E+00  0.00000000E+00  0.00000000E+00
  0.00000000E+00  0.00000000E+00  0.00000000E+00  0.00000000E+00  0.00000000E+00
  0.00000000E+00  0.00000000E+00  0.00000000E+00  0.00000000E+00  0.00000000E+00
  0.00000000E+00  0.00000000E+00  0.00000000E+00  0.00000000E+00  0.00000000E+00
  0.00000000E+00  0.00000000E+00  0.00000000E+00  0.00000000E+00  0.00000000E+00
  0.00000000E+00  0.00000000E+00  0.00000000E+00  0.00000000E+00  0.00000000E+00
  0.00000000E+00  0.00000000E+00  0.00000000E+00  0.00000000E+00  0.00000000E+00
  0.00000000E+00  0.00000000E+00  0.00000000E+00  0.00000000E+00  0.00000000E+00
  0.00000000E+00  0.00000000E+00  0.00000000E+00  0.00000000E+00  0.00000000E+00
  0.00000000E+00  0.00000000E+00  0.00000000E+00  0.00000000E+00  0.00000000E+00
  0.00000000E+00  0.00000000E+00  0.00000000E+00  0.00000000E+00  0.00000000E+00
  0.00000000E+00  0.00000000E+00  0.00000000E+00  0.00000000E+00  0.00000000E+00
  0.00000000E+00  0.00000000E+00  0.00000000E+00  0.00000000E+00  0.00000000E+00
  0.00000000E+00  0.00000000E+00  0.00000000E+00  0.00000000E+00  0.00000000E+00
  0.00000000E+00  0.00000000E+00  0.00000000E+00  0.00000000E+00  0.00000000E+00
  0.00000000E+00  0.00000000E+00  0.00000000E+00  0.00000000E+00  0.00000000E+00
  0.00000000E+00  0.00000000E+00  0.00000000E+00  0.00000000E+00  0.00000000E+00
  0.00000000E+00  0.00000000E+00  0.00000000E+00  0.00000000E+00  0.00000000E+00
  0.00000000E+00  0.00000000E+00  0.00000000E+00  0.00000000E+00  0.00000000E+00
  0.00000000E+00  0.00000000E+00  0.00000000E+00  0.00000000E+00  0.00000000E+00
  0.00000000E+00  0.00000000E+00  0.00000000E+00  0.00000000E+00  0.00000000E+00
  0.00000000E+00  0.00000000E+00  0.00000000E+00  0.00000000E+00  0.00000000E+00
  0.00000000E+00  0.00000000E+00  0.00000000E+00  0.00000000E+00  0.00000000E+00
  0.00000000E+00  0.00000000E+00  0.00000000E+00  0.00000000E+00  0.00000000E+00
  0.00000000E+00  0.00000000E+00  0.00000000E+00  0.00000000E+00  0.00000000E+00
  0.00000000E+00  0.00000000E+00  0.00000000E+00  0.00000000E+00  0.00000000E+00
  0.00000000E+00  0.00000000E+00  0.00000000E+00  0.00000000E+00  0.00000000E+00
  0.00000000E+00  0.00000000E+00  0.00000000E+00  0.00000000E+00  0.00000000E+00
  0.00000000E+00  0.00000000E+00  0.00000000E+00  0.00000000E+00  0.00000000E+00
  0.00000000E+00  0.00000000E+00  0.00000000E+00  0.00000000E+00  0.00000000E+00
  0.00000000E+00  0.00000000E+00  0.00000000E+00  0.00000000E+00  0.00000000E+00
  0.00000000E+00  0.00000000E+00  0.00000000E+00  0.00000000E+00  0.00000000E+00
  0.00000000E+00  0.00000000E+00  0.00000000E+00  0.00000000E+00  0.00000000E+00
  0.00000000E+00  0.00000000E+00  0.00000000E+00  0.00000000E+00  0.00000000E+00
  0.00000000E+00  0.00000000E+00  0.00000000E+00  0.00000000E+00  0.00000000E+00
  0.00000000E+00  0.00000000E+00  0.00000000E+00  0.00000000E+00  0.00000000E+00
  0.00000000E+00  0.00000000E+00  0.00000000E+00  0.00000000E+00  0.00000000E+00
  0.00000000E+00  0.00000000E+00  0.00000000E+00  0.00000000E+00  0.00000000E+00
  0.00000000E+00  0.00000000E+00  0.00000000E+00  0.00000000E+00  0.00000000E+00
  0.00000000E+00  0.00000000E+00  0.00000000E+00  0.00000000E+00  0.00000000E+00
  0.00000000E+00  0.00000000E+00  0.00000000E+00  0.00000000E+00  0.00000000E+00
  0.00000000E+00  0.00000000E+00  0.00000000E+00  0.00000000E+00  0.00000000E+00
  0.00000000E+00  0.00000000E+00  0.00000000E+00  0.00000000E+00  0.00000000E+00
  0.00000000E+00  0.00000000E+00  0.00000000E+00  0.00000000E+00  0.00000000E+00
  0.00000000E+00  0.00000000E+00  0.00000000E+00  0.00000000E+00  0.00000000E+00
  0.00000000E+00  0.00000000E+00  0.00000000E+00  0.00000000E+00  0.00000000E+00
  0.00000000E+00  0.00000000E+00  0.00000000E+00  0.00000000E+00  0.00000000E+00
  0.00000000E+00  0.00000000E+00  0.00000000E+00  0.00000000E+00  0.00000000E+00
  0.00000000E+00  0.00000000E+00  0.00000000E+00  0.00000000E+00  0.00000000E+00
  0.00000000E+00  0.00000000E+00  0.00000000E+00  0.00000000E+00  0.00000000E+00
  0.00000000E+00  0.00000000E+00  0.00000000E+00  0.00000000E+00  0.00000000E+00
  0.00000000E+00  0.00000000E+00  0.00000000E+00  0.00000000E+00  0.00000000E+00
  0.00000000E+00  0.00000000E+00  0.00000000E+00  0.00000000E+00  0.00000000E+00
  0.00000000E+00  0.00000000E+00  0.00000000E+00  0.00000000E+00  0.00000000E+00
  0.00000000E+00  0.00000000E+00  0.00000000E+00  0.00000000E+00  0.00000000E+00
  0.00000000E+00  0.00000000E+00  0.00000000E+00  0.00000000E+00  0.00000000E+00
  0.00000000E+00  0.00000000E+00  0.00000000E+00  0.00000000E+00  0.00000000E+00
  0.00000000E+00  0.00000000E+00  0.00000000E+00  0.00000000E+00  0.00000000E+00
  0.00000000E+00  0.00000000E+00  0.00000000E+00  0.00000000E+00  0.00000000E+00
  0.00000000E+00  0.00000000E+00  0.00000000E+00  0.00000000E+00  0.00000000E+00
  0.00000000E+00  0.00000000E+00  0.00000000E+00  0.00000000E+00  0.00000000E+00
  0.00000000E+00  0.00000000E+00  0.00000000E+00  0.00000000E+00  0.00000000E+00
  0.00000000E+00  0.00000000E+00  0.00000000E+00  0.00000000E+00  0.00000000E+00
  0.00000000E+00  0.00000000E+00  0.00000000E+00  0.00000000E+00  0.00000000E+00
  0.00000000E+00  0.00000000E+00  0.00000000E+00  0.00000000E+00  0.00000000E+00
  0.00000000E+00  0.00000000E+00  0.00000000E+00  0.00000000E+00  0.00000000E+00
  0.00000000E+00  0.00000000E+00  0.00000000E+00  0.00000000E+00  0.00000000E+00
  0.00000000E+00  0.00000000E+00  0.00000000E+00  0.00000000E+00  0.00000000E+00
  0.00000000E+00  0.00000000E+00  0.00000000E+00  0.00000000E+00  0.00000000E+00
  0.00000000E+00  0.00000000E+00  0.00000000E+00  0.00000000E+00  0.00000000E+00
  0.00000000E+00  0.00000000E+00  0.00000000E+00  0.00000000E+00  0.00000000E+00
  0.00000000E+00  0.00000000E+00  0.00000000E+00  0.00000000E+00  0.00000000E+00
  0.00000000E+00  0.00000000E+00  0.00000000E+00  0.00000000E+00  0.00000000E+00
  0.00000000E+00  0.00000000E+00  0.00000000E+00  0.00000000E+00  0.00000000E+00
  0.00000000E+00  0.00000000E+00  0.00000000E+00  0.00000000E+00  0.00000000E+00
  0.00000000E+00  0.00000000E+00  0.00000000E+00  0.00000000E+00  0.00000000E+00
  0.00000000E+00  0.00000000E+00  0.00000000E+00  0.00000000E+00  0.00000000E+00
  0.00000000E+00  0.00000000E+00  0.00000000E+00  0.00000000E+00  0.00000000E+00
  0.00000000E+00  0.00000000E+00  0.00000000E+00  0.00000000E+00  0.00000000E+00
  0.00000000E+00  0.00000000E+00  0.00000000E+00  0.00000000E+00  0.00000000E+00
  0.00000000E+00  0.00000000E+00  0.00000000E+00  0.00000000E+00  0.00000000E+00
  0.00000000E+00  0.00000000E+00  0.00000000E+00  0.00000000E+00  0.00000000E+00
  0.00000000E+00  0.00000000E+00  0.00000000E+00  0.00000000E+00  0.00000000E+00
  0.00000000E+00  0.00000000E+00  0.00000000E+00  0.00000000E+00  0.00000000E+00
  0.00000000E+00  0.00000000E+00  0.00000000E+00  0.00000000E+00  0.00000000E+00
  0.00000000E+00  0.00000000E+00  0.00000000E+00  0.00000000E+00  0.00000000E+00
  0.00000000E+00  0.00000000E+00  0.00000000E+00  0.00000000E+00  0.00000000E+00
  0.00000000E+00  0.00000000E+00  0.00000000E+00  0.00000000E+00  0.00000000E+00
  0.00000000E+00  0.00000000E+00  0.00000000E+00  0.00000000E+00  0.00000000E+00
  0.00000000E+00  0.00000000E+00  0.00000000E+00  0.00000000E+00  0.00000000E+00
  0.00000000E+00  0.00000000E+00  0.00000000E+00  0.00000000E+00  0.00000000E+00
  0.00000000E+00  0.00000000E+00  0.00000000E+00  0.00000000E+00  0.00000000E+00
  0.00000000E+00  0.00000000E+00  0.00000000E+00  0.00000000E+00  0.00000000E+00
  0.00000000E+00  0.00000000E+00  0.00000000E+00  0.00000000E+00  0.00000000E+00
  0.00000000E+00  0.00000000E+00  0.00000000E+00  0.00000000E+00  0.00000000E+00
  0.00000000E+00  0.00000000E+00  0.00000000E+00  0.00000000E+00  0.00000000E+00
  0.00000000E+00  0.00000000E+00  0.00000000E+00  0.00000000E+00  0.00000000E+00
  0.00000000E+00  0.00000000E+00  0.00000000E+00  0.00000000E+00  0.00000000E+00
  0.00000000E+00  0.00000000E+00  0.00000000E+00  0.00000000E+00  0.00000000E+00
  0.00000000E+00  0.00000000E+00  0.00000000E+00  0.00000000E+00  0.00000000E+00
  0.00000000E+00  0.00000000E+00  0.00000000E+00  0.00000000E+00  0.00000000E+00
  0.00000000E+00  0.00000000E+00  0.00000000E+00  0.00000000E+00  0.00000000E+00
  0.00000000E+00  0.00000000E+00  0.00000000E+00  0.00000000E+00  0.00000000E+00
  0.00000000E+00  0.00000000E+00  0.00000000E+00  0.00000000E+00  0.00000000E+00
  0.00000000E+00  0.00000000E+00  0.00000000E+00  0.00000000E+00  0.00000000E+00
  0.00000000E+00  0.00000000E+00  0.00000000E+00  0.00000000E+00  0.00000000E+00
  0.00000000E+00  0.00000000E+00  0.00000000E+00  0.00000000E+00  0.00000000E+00
  0.00000000E+00  0.00000000E+00  0.00000000E+00  0.00000000E+00  0.00000000E+00
  0.00000000E+00  0.00000000E+00  0.00000000E+00  0.00000000E+00  0.00000000E+00
  0.00000000E+00  0.00000000E+00  0.00000000E+00  0.00000000E+00  0.00000000E+00
  0.00000000E+00  0.00000000E+00  0.00000000E+00  0.00000000E+00  0.00000000E+00
  0.00000000E+00  0.00000000E+00  0.00000000E+00  0.00000000E+00  0.00000000E+00
  0.00000000E+00  0.00000000E+00  0.00000000E+00  0.00000000E+00  0.00000000E+00
  0.00000000E+00  0.00000000E+00  0.00000000E+00  0.00000000E+00  0.00000000E+00
  0.00000000E+00  0.00000000E+00  0.00000000E+00  0.00000000E+00  0.00000000E+00
  0.00000000E+00  0.00000000E+00  0.00000000E+00  0.00000000E+00  0.00000000E+00
  0.00000000E+00  0.00000000E+00  0.00000000E+00  0.00000000E+00  0.00000000E+00
  0.00000000E+00  0.00000000E+00  0.00000000E+00  0.00000000E+00  0.00000000E+00
  0.00000000E+00  0.00000000E+00  0.00000000E+00  0.00000000E+00  0.00000000E+00
  0.00000000E+00  0.00000000E+00  0.00000000E+00  0.00000000E+00  0.00000000E+00
  0.00000000E+00  0.00000000E+00  0.00000000E+00  0.00000000E+00  0.00000000E+00
  0.00000000E+00  0.00000000E+00  0.00000000E+00  0.00000000E+00  0.00000000E+00
  0.00000000E+00  0.00000000E+00  0.00000000E+00  0.00000000E+00  0.00000000E+00
  0.00000000E+00  0.00000000E+00  0.00000000E+00  0.00000000E+00  0.00000000E+00
  0.00000000E+00  0.00000000E+00  0.00000000E+00  0.00000000E+00  0.00000000E+00
  0.00000000E+00  0.00000000E+00  0.00000000E+00  0.00000000E+00  0.00000000E+00
  0.00000000E+00  0.00000000E+00  0.00000000E+00  0.00000000E+00  0.00000000E+00
  0.00000000E+00  0.00000000E+00  0.00000000E+00  0.00000000E+00  0.00000000E+00
  0.00000000E+00  0.00000000E+00  0.00000000E+00  0.00000000E+00  0.00000000E+00
  0.00000000E+00  0.00000000E+00  0.00000000E+00  0.00000000E+00  0.00000000E+00
  0.00000000E+00  0.00000000E+00  0.00000000E+00  0.00000000E+00  0.00000000E+00
  0.00000000E+00  0.00000000E+00  0.00000000E+00  0.00000000E+00  0.00000000E+00
  0.00000000E+00  0.00000000E+00  0.00000000E+00  0.00000000E+00  0.00000000E+00
  0.00000000E+00  0.00000000E+00  0.00000000E+00  0.00000000E+00  0.00000000E+00
  0.00000000E+00  0.00000000E+00  0.00000000E+00  0.00000000E+00  0.00000000E+00
  0.00000000E+00  0.00000000E+00  0.00000000E+00  0.00000000E+00  0.00000000E+00
  0.00000000E+00  0.00000000E+00  0.00000000E+00  0.00000000E+00  0.00000000E+00
  0.00000000E+00  0.00000000E+00  0.00000000E+00  0.00000000E+00  0.00000000E+00
  0.00000000E+00  0.00000000E+00  0.00000000E+00  0.00000000E+00  0.00000000E+00
  0.00000000E+00  0.00000000E+00  0.00000000E+00  0.00000000E+00  0.00000000E+00
  0.00000000E+00  0.00000000E+00  0.00000000E+00  0.00000000E+00  0.00000000E+00
  0.00000000E+00  0.00000000E+00  0.00000000E+00  0.00000000E+00  0.00000000E+00
  0.00000000E+00  0.00000000E+00  0.00000000E+00  0.00000000E+00  0.00000000E+00
  0.00000000E+00  0.00000000E+00  0.00000000E+00  0.00000000E+00  0.00000000E+00
  0.00000000E+00  0.00000000E+00  0.00000000E+00  0.00000000E+00  0.00000000E+00
  0.00000000E+00  0.00000000E+00  0.00000000E+00  0.00000000E+00  0.00000000E+00
  0.00000000E+00  0.00000000E+00  0.00000000E+00  0.00000000E+00  0.00000000E+00
  0.00000000E+00  0.00000000E+00  0.00000000E+00  0.00000000E+00  0.00000000E+00
  0.00000000E+00  0.00000000E+00  0.00000000E+00  0.00000000E+00  0.00000000E+00
  0.00000000E+00  0.00000000E+00  0.00000000E+00  0.00000000E+00  0.00000000E+00
  0.00000000E+00  0.00000000E+00  0.00000000E+00  0.00000000E+00  0.00000000E+00
  0.00000000E+00  0.00000000E+00  0.00000000E+00  0.00000000E+00  0.00000000E+00
  0.00000000E+00  0.00000000E+00  0.00000000E+00  0.00000000E+00  0.00000000E+00
  0.00000000E+00  0.00000000E+00  0.00000000E+00  0.00000000E+00  0.00000000E+00
  0.00000000E+00  0.00000000E+00  0.00000000E+00  0.00000000E+00  0.00000000E+00
  0.00000000E+00  0.00000000E+00  0.00000000E+00  0.00000000E+00  0.00000000E+00
  0.00000000E+00  0.00000000E+00  0.00000000E+00  0.00000000E+00  0.00000000E+00
  0.00000000E+00  0.00000000E+00  0.00000000E+00  0.00000000E+00  0.00000000E+00
  0.00000000E+00  0.00000000E+00  0.00000000E+00  0.00000000E+00  0.00000000E+00
  0.00000000E+00  0.00000000E+00  0.00000000E+00  0.00000000E+00  0.00000000E+00
  0.00000000E+00  0.00000000E+00  0.00000000E+00  0.00000000E+00  0.00000000E+00
  0.00000000E+00  0.00000000E+00  0.00000000E+00  0.00000000E+00  0.00000000E+00
  0.00000000E+00  0.00000000E+00  0.00000000E+00  0.00000000E+00  0.00000000E+00
  0.00000000E+00  0.00000000E+00  0.00000000E+00  0.00000000E+00  0.00000000E+00
  0.00000000E+00  0.00000000E+00  0.00000000E+00  0.00000000E+00  0.00000000E+00
  0.00000000E+00  0.00000000E+00  0.00000000E+00  0.00000000E+00  0.00000000E+00
  0.00000000E+00  0.00000000E+00  0.00000000E+00  0.00000000E+00  0.00000000E+00
  0.00000000E+00  0.00000000E+00  0.00000000E+00  0.00000000E+00  0.00000000E+00
  0.00000000E+00  0.00000000E+00  0.00000000E+00  0.00000000E+00  0.00000000E+00
  0.00000000E+00  0.00000000E+00  0.00000000E+00  0.00000000E+00  0.00000000E+00
  0.00000000E+00  0.00000000E+00  0.00000000E+00  0.00000000E+00  0.00000000E+00
  0.00000000E+00  0.00000000E+00  0.00000000E+00  0.00000000E+00  0.00000000E+00
  0.00000000E+00  0.00000000E+00  0.00000000E+00  0.00000000E+00  0.00000000E+00
  0.00000000E+00  0.00000000E+00  0.00000000E+00  0.00000000E+00  0.00000000E+00
  0.00000000E+00  0.00000000E+00  0.00000000E+00  0.00000000E+00  0.00000000E+00
  0.00000000E+00  0.00000000E+00  0.00000000E+00  0.00000000E+00  0.00000000E+00
  0.00000000E+00  0.00000000E+00  0.00000000E+00  0.00000000E+00  0.00000000E+00
  0.00000000E+00  0.00000000E+00  0.00000000E+00  0.00000000E+00  0.00000000E+00
  0.00000000E+00  0.00000000E+00  0.00000000E+00  0.00000000E+00  0.00000000E+00
  0.00000000E+00  0.00000000E+00  0.00000000E+00  0.00000000E+00  0.00000000E+00
  0.00000000E+00  0.00000000E+00  0.00000000E+00  0.00000000E+00  0.00000000E+00
  0.00000000E+00  0.00000000E+00  0.00000000E+00  0.00000000E+00  0.00000000E+00
  0.00000000E+00  0.00000000E+00  0.00000000E+00  0.00000000E+00  0.00000000E+00
  0.00000000E+00  0.00000000E+00  0.00000000E+00  0.00000000E+00  0.00000000E+00
  0.00000000E+00  0.00000000E+00  0.00000000E+00  0.00000000E+00  0.00000000E+00
  0.00000000E+00  0.00000000E+00  0.00000000E+00  0.00000000E+00  0.00000000E+00
  0.00000000E+00  0.00000000E+00  0.00000000E+00  0.00000000E+00  0.00000000E+00
  0.00000000E+00  0.00000000E+00  0.00000000E+00  0.00000000E+00  0.00000000E+00
  0.00000000E+00  0.00000000E+00  0.00000000E+00  0.00000000E+00  0.00000000E+00
  0.00000000E+00  0.00000000E+00  0.00000000E+00  0.00000000E+00  0.00000000E+00
  0.00000000E+00  0.00000000E+00  0.00000000E+00  0.00000000E+00  0.00000000E+00
  0.00000000E+00  0.00000000E+00  0.00000000E+00  0.00000000E+00  0.00000000E+00
  0.00000000E+00  0.00000000E+00  0.00000000E+00  0.00000000E+00  0.00000000E+00
  0.00000000E+00  0.00000000E+00  0.00000000E+00  0.00000000E+00  0.00000000E+00
  0.00000000E+00  0.00000000E+00  0.00000000E+00  0.00000000E+00  0.00000000E+00
  0.00000000E+00  0.00000000E+00  0.00000000E+00  0.00000000E+00  0.00000000E+00
  0.00000000E+00  0.00000000E+00  0.00000000E+00  0.00000000E+00  0.00000000E+00
  0.00000000E+00  0.00000000E+00  0.00000000E+00  0.00000000E+00  0.00000000E+00
  0.00000000E+00  0.00000000E+00  0.00000000E+00  0.00000000E+00  0.00000000E+00
  0.00000000E+00  0.00000000E+00  0.00000000E+00  0.00000000E+00  0.00000000E+00
  0.00000000E+00  0.00000000E+00  0.00000000E+00  0.00000000E+00  0.00000000E+00
  0.00000000E+00  0.00000000E+00  0.00000000E+00  0.00000000E+00  0.00000000E+00
  0.00000000E+00  0.00000000E+00  0.00000000E+00  0.00000000E+00  0.00000000E+00
  0.00000000E+00  0.00000000E+00  0.00000000E+00  0.00000000E+00  0.00000000E+00
  0.00000000E+00  0.00000000E+00  0.00000000E+00  0.00000000E+00  0.00000000E+00
  0.00000000E+00  0.00000000E+00  0.00000000E+00  0.00000000E+00  0.00000000E+00
  0.00000000E+00  0.00000000E+00  0.00000000E+00  0.00000000E+00  0.00000000E+00
  0.00000000E+00  0.00000000E+00  0.00000000E+00  0.00000000E+00  0.00000000E+00
  0.00000000E+00  0.00000000E+00  0.00000000E+00  0.00000000E+00  0.00000000E+00
  0.00000000E+00  0.00000000E+00  0.00000000E+00  0.00000000E+00  0.00000000E+00
  0.00000000E+00  0.00000000E+00  0.00000000E+00  0.00000000E+00  0.00000000E+00
  0.00000000E+00  0.00000000E+00  0.00000000E+00  0.00000000E+00  0.00000000E+00
  0.00000000E+00  0.00000000E+00  0.00000000E+00  0.00000000E+00  0.00000000E+00
  0.00000000E+00  0.00000000E+00  0.00000000E+00  0.00000000E+00  0.00000000E+00
  0.00000000E+00  0.00000000E+00  0.00000000E+00  0.00000000E+00  0.00000000E+00
  0.00000000E+00  0.00000000E+00  0.00000000E+00  0.00000000E+00  0.00000000E+00
Gaussian Version                           C   N=           2
ES64L-G16RevC.01        
