 Entering Gaussian System, Link 0=g16
 Input=GauExternal.gjf
 Output=GauExternal.log
 Initial command:
 /gaussian/g16.c01/intel64-sandybridge/g16/l1.exe "/home/barone/lcrisci_vb/ACTUAL_PROJECTS/MRCC_new_Interface_project/TestingOldVersion/Symmetry/C2H2S2_C2h/Iterations/Iteration_1/task_atom_1_ixyz_2_down/Gau-4155725.inp" -scrdir="/home/barone/lcrisci_vb/ACTUAL_PROJECTS/MRCC_new_Interface_project/TestingOldVersion/Symmetry/C2H2S2_C2h/Iterations/Iteration_1/task_atom_1_ixyz_2_down/"
 Entering Link 1 = /gaussian/g16.c01/intel64-sandybridge/g16/l1.exe PID=   4155731.
  
 Copyright (c) 1988-2019, Gaussian, Inc.  All Rights Reserved.
  
 This is part of the Gaussian(R) 16 program.  It is based on
 the Gaussian(R) 09 system (copyright 2009, Gaussian, Inc.),
 the Gaussian(R) 03 system (copyright 2003, Gaussian, Inc.),
 the Gaussian(R) 98 system (copyright 1998, Gaussian, Inc.),
 the Gaussian(R) 94 system (copyright 1995, Gaussian, Inc.),
 the Gaussian 92(TM) system (copyright 1992, Gaussian, Inc.),
 the Gaussian 90(TM) system (copyright 1990, Gaussian, Inc.),
 the Gaussian 88(TM) system (copyright 1988, Gaussian, Inc.),
 the Gaussian 86(TM) system (copyright 1986, Carnegie Mellon
 University), and the Gaussian 82(TM) system (copyright 1983,
 Carnegie Mellon University). Gaussian is a federally registered
 trademark of Gaussian, Inc.
  
 This software contains proprietary and confidential information,
 including trade secrets, belonging to Gaussian, Inc.
  
 This software is provided under written license and may be
 used, copied, transmitted, or stored only in accord with that
 written license.
  
 The following legend is applicable only to US Government
 contracts under FAR:
  
                    RESTRICTED RIGHTS LEGEND
  
 Use, reproduction and disclosure by the US Government is
 subject to restrictions as set forth in subparagraphs (a)
 and (c) of the Commercial Computer Software - Restricted
 Rights clause in FAR 52.227-19.
  
 Gaussian, Inc.
 340 Quinnipiac St., Bldg. 40, Wallingford CT 06492
  
  
 ---------------------------------------------------------------
 Warning -- This program may not be used in any manner that
 competes with the business of Gaussian, Inc. or will provide
 assistance to any competitor of Gaussian, Inc.  The licensee
 of this program is prohibited from giving any competitor of
 Gaussian, Inc. access to this program.  By using this program,
 the user acknowledges that Gaussian, Inc. is engaged in the
 business of creating and licensing software in the field of
 computational chemistry and represents and warrants to the
 licensee that it is not a competitor of Gaussian, Inc. and that
 it will not use this program in any manner prohibited above.
 ---------------------------------------------------------------
  

 Cite this work as:
 Gaussian 16, Revision C.01,
 M. J. Frisch, G. W. Trucks, H. B. Schlegel, G. E. Scuseria, 
 M. A. Robb, J. R. Cheeseman, G. Scalmani, V. Barone, 
 G. A. Petersson, H. Nakatsuji, X. Li, M. Caricato, A. V. Marenich, 
 J. Bloino, B. G. Janesko, R. Gomperts, B. Mennucci, H. P. Hratchian, 
 J. V. Ortiz, A. F. Izmaylov, J. L. Sonnenberg, D. Williams-Young, 
 F. Ding, F. Lipparini, F. Egidi, J. Goings, B. Peng, A. Petrone, 
 T. Henderson, D. Ranasinghe, V. G. Zakrzewski, J. Gao, N. Rega, 
 G. Zheng, W. Liang, M. Hada, M. Ehara, K. Toyota, R. Fukuda, 
 J. Hasegawa, M. Ishida, T. Nakajima, Y. Honda, O. Kitao, H. Nakai, 
 T. Vreven, K. Throssell, J. A. Montgomery, Jr., J. E. Peralta, 
 F. Ogliaro, M. J. Bearpark, J. J. Heyd, E. N. Brothers, K. N. Kudin, 
 V. N. Staroverov, T. A. Keith, R. Kobayashi, J. Normand, 
 K. Raghavachari, A. P. Rendell, J. C. Burant, S. S. Iyengar, 
 J. Tomasi, M. Cossi, J. M. Millam, M. Klene, C. Adamo, R. Cammi, 
 J. W. Ochterski, R. L. Martin, K. Morokuma, O. Farkas, 
 J. B. Foresman, and D. J. Fox, Gaussian, Inc., Wallingford CT, 2019.
 
 ******************************************
 Gaussian 16:  ES64L-G16RevC.01  3-Jul-2019
                19-Nov-2025 
 ******************************************
 %nproc=2
 Will use up to    2 processors via shared memory.
 %mem=20GB
 %chk=GauExternal.chk
 --------------------
 #P hf/sto-3g scf=xqc
 --------------------
 1/38=1,172=1/1;
 2/12=2,17=6,18=5,40=1/2;
 3/6=3,11=9,25=1,30=1/1,2,3;
 4//1;
 5/5=2,8=3,13=1,38=5/2,8;
 6/7=2,8=2,9=2,10=2,28=1/1;
 99/5=1,9=1/99;
 Leave Link    1 at Wed Nov 19 18:18:12 2025, MaxMem=  2684354560 cpu:               0.0 elap:               0.3
 (Enter /gaussian/g16.c01/intel64-sandybridge/g16/l101.exe)
 --------------------
 External Calculation
 --------------------
 Symbolic Z-matrix:
 Charge =  0 Multiplicity = 1
 C                    -0.38223   0.5585    0. 
 H                    -1.449     0.47643   0. 
 C                     0.38223  -0.5595    0. 
 H                     1.449    -0.47643   0. 
 S                    -0.38223  -2.16699   0. 
 S                     0.38223   2.16699   0. 
 
 ITRead=  0  0  0  0  0  0
 MicOpt= -1 -1 -1 -1 -1 -1
 NAtoms=      6 NQM=        6 NQMF=       0 NMMI=      0 NMMIF=      0
                NMic=       0 NMicF=      0.
                    Isotopes and Nuclear Properties:
 (Nuclear quadrupole moments (NQMom) in fm**2, nuclear magnetic moments (NMagM)
  in nuclear magnetons)

  Atom         1           2           3           4           5           6
 IAtWgt=          12           1          12           1          32          32
 AtmWgt=  12.0000000   1.0078250  12.0000000   1.0078250  31.9720718  31.9720718
 NucSpn=           0           1           0           1           0           0
 AtZEff=  -0.0000000  -0.0000000  -0.0000000  -0.0000000  -0.0000000  -0.0000000
 NQMom=    0.0000000   0.0000000   0.0000000   0.0000000   0.0000000   0.0000000
 NMagM=    0.0000000   2.7928460   0.0000000   2.7928460   0.0000000   0.0000000
 AtZNuc=   6.0000000   1.0000000   6.0000000   1.0000000  16.0000000  16.0000000
 Leave Link  101 at Wed Nov 19 18:18:13 2025, MaxMem=  2684354560 cpu:               0.4 elap:               0.4
 (Enter /gaussian/g16.c01/intel64-sandybridge/g16/l202.exe)
                          Input orientation:                          
 ---------------------------------------------------------------------
 Center     Atomic      Atomic             Coordinates (Angstroms)
 Number     Number       Type             X           Y           Z
 ---------------------------------------------------------------------
      1          6           0       -0.382228    0.558503    0.000000
      2          1           0       -1.448998    0.476434    0.000000
      3          6           0        0.382228   -0.559503    0.000000
      4          1           0        1.448998   -0.476434    0.000000
      5         16           0       -0.382228   -2.166988    0.000000
      6         16           0        0.382228    2.166988    0.000000
 ---------------------------------------------------------------------
                    Distance matrix (angstroms):
                    1          2          3          4          5
     1  C    0.000000
     2  H    1.069923   0.000000
     3  C    1.354374   2.103938   0.000000
     4  H    2.103446   3.050630   1.070000   0.000000
     5  S    2.725491   2.850557   1.780000   2.492261   0.000000
     6  S    1.780903   2.492261   2.726491   2.850557   4.400879
                    6
     6  S    0.000000
 Stoichiometry    C2H2S2
 Framework group  CS[SG(C2H2S2)]
 Deg. of freedom     9
 Full point group                 CS      NOp   2
 Largest Abelian subgroup         CS      NOp   2
 Largest concise Abelian subgroup C1      NOp   1
                         Standard orientation:                         
 ---------------------------------------------------------------------
 Center     Atomic      Atomic             Coordinates (Angstroms)
 Number     Number       Type             X           Y           Z
 ---------------------------------------------------------------------
      1          6           0        0.382228    0.558634   -0.000000
      2          1           0        1.448998    0.476564   -0.000000
      3          6           0       -0.382228   -0.559373    0.000000
      4          1           0       -1.448998   -0.476303    0.000000
      5         16           0        0.382228   -2.166858    0.000000
      6         16           0       -0.382228    2.167118   -0.000000
 ---------------------------------------------------------------------
 Rotational constants (GHZ):          51.3014733           1.6020495           1.5535355
 Leave Link  202 at Wed Nov 19 18:18:13 2025, MaxMem=  2684354560 cpu:               0.0 elap:               0.1
 (Enter /gaussian/g16.c01/intel64-sandybridge/g16/l301.exe)
 Standard basis: STO-3G (5D, 7F)
 Ernie: Thresh=  0.10000D-02 Tol=  0.10000D-05 Strict=F.
 There are    24 symmetry adapted cartesian basis functions of A'  symmetry.
 There are     6 symmetry adapted cartesian basis functions of A"  symmetry.
 There are    24 symmetry adapted basis functions of A'  symmetry.
 There are     6 symmetry adapted basis functions of A"  symmetry.
    30 basis functions,    90 primitive gaussians,    30 cartesian basis functions
    23 alpha electrons       23 beta electrons
       nuclear repulsion energy       161.0469818661 Hartrees.
 IExCor=    0 DFT=F Ex=HF Corr=None ExCW=0 ScaHFX=  1.000000
 ScaDFX=  1.000000  1.000000  1.000000  1.000000 ScalE2=  1.000000  1.000000
 IRadAn=      5 IRanWt=     -1 IRanGd=            0 ICorTp=0 IEmpDi=  4
 NAtoms=    6 NActive=    6 NUniq=    6 SFac= 1.00D+00 NAtFMM=   60 NAOKFM=F Big=F
 Integral buffers will be    131072 words long.
 Raffenetti 1 integral format.
 Two-electron integral symmetry is turned on.
 Leave Link  301 at Wed Nov 19 18:18:13 2025, MaxMem=  2684354560 cpu:               0.1 elap:               0.1
 (Enter /gaussian/g16.c01/intel64-sandybridge/g16/l302.exe)
 NPDir=0 NMtPBC=     1 NCelOv=     1 NCel=       1 NClECP=     1 NCelD=      1
         NCelK=      1 NCelE2=     1 NClLst=     1 CellRange=     0.0.
 One-electron integrals computed using PRISM.
 One-electron integral symmetry used in STVInt
 NBasis=    30 RedAO= T EigKep=  2.02D-01  NBF=    24     6
 NBsUse=    30 1.00D-06 EigRej= -1.00D+00 NBFU=    24     6
 Leave Link  302 at Wed Nov 19 18:18:13 2025, MaxMem=  2684354560 cpu:               0.1 elap:               0.2
 (Enter /gaussian/g16.c01/intel64-sandybridge/g16/l303.exe)
 DipDrv:  MaxL=1.
 Leave Link  303 at Wed Nov 19 18:18:13 2025, MaxMem=  2684354560 cpu:               0.0 elap:               0.1
 (Enter /gaussian/g16.c01/intel64-sandybridge/g16/l401.exe)
 ExpMin= 1.69D-01 ExpMax= 5.33D+02 ExpMxC= 5.33D+02 IAcc=3 IRadAn=         5 AccDes= 0.00D+00
 Harris functional with IExCor=  205 and IRadAn=       5 diagonalized for initial guess.
 HarFok:  IExCor=  205 AccDes= 0.00D+00 IRadAn=         5 IDoV= 1 UseB2=F ITyADJ=14
 ICtDFT=  3500011 ScaDFX=  1.000000  1.000000  1.000000  1.000000
 FoFCou: FMM=F IPFlag=           0 FMFlag=      100000 FMFlg1=           0
         NFxFlg=           0 DoJE=T BraDBF=F KetDBF=T FulRan=T
         wScrn=  0.000000 ICntrl=       500 IOpCl=  0 I1Cent=   200000004 NGrid=           0
         NMat0=    1 NMatS0=      1 NMatT0=    0 NMatD0=    1 NMtDS0=    0 NMtDT0=    0
 Petite list used in FoFCou.
 Harris En= -861.414609487089    
 JPrj=0 DoOrth=F DoCkMO=F.
 Initial guess orbital symmetries:
       Occupied  (A') (A') (A') (A') (A') (A') (A') (A') (A') (A')
                 (A") (A") (A') (A') (A') (A') (A') (A') (A") (A')
                 (A") (A') (A')
       Virtual   (A") (A") (A') (A') (A') (A') (A')
 The electronic state of the initial guess is 1-A'.
 Leave Link  401 at Wed Nov 19 18:18:14 2025, MaxMem=  2684354560 cpu:               0.2 elap:               0.2
 (Enter /gaussian/g16.c01/intel64-sandybridge/g16/l502.exe)
 Keep R1 ints in memory in symmetry-blocked form, NReq=920697.
 FoFCou: FMM=F IPFlag=           0 FMFlag=           0 FMFlg1=           0
         NFxFlg=           0 DoJE=F BraDBF=F KetDBF=F FulRan=T
         wScrn=  0.000000 ICntrl=       600 IOpCl=  0 I1Cent=           0 NGrid=           0
         NMat0=    1 NMatS0=    465 NMatT0=    0 NMatD0=    1 NMtDS0=    0 NMtDT0=    0
 Petite list used in FoFCou.
 Closed shell SCF:
 Using DIIS extrapolation, IDIIS=  1040.
 NGot=  2684354560 LenX=  2684288363 LenY=  2684287022
 Requested convergence on RMS density matrix=1.00D-08 within  32 cycles.
 Requested convergence on MAX density matrix=1.00D-06.
 Requested convergence on             energy=1.00D-06.
 No special actions if energy rises.

 Cycle   1  Pass 1  IDiag  1:
 E= -862.106947527204    
 DIIS: error= 4.30D-02 at cycle   1 NSaved=   1.
 NSaved= 1 IEnMin= 1 EnMin= -862.106947527204     IErMin= 1 ErrMin= 4.30D-02
 ErrMax= 4.30D-02  0.00D+00 EMaxC= 1.00D-01 BMatC= 5.84D-02 BMatP= 5.84D-02
 IDIUse=3 WtCom= 5.70D-01 WtEn= 4.30D-01
 Coeff-Com:  0.100D+01
 Coeff-En:   0.100D+01
 Coeff:      0.100D+01
 Gap=     0.246 Goal=   None    Shift=    0.000
 GapD=    0.246 DampG=1.000 DampE=0.500 DampFc=0.5000 IDamp=-1.
 Damping current iteration by 5.00D-01
 RMSDP=1.33D-02 MaxDP=9.90D-02              OVMax= 0.00D+00

 Cycle   2  Pass 1  IDiag  1:
 E= -862.133197146035     Delta-E=       -0.026249618831 Rises=F Damp=T
 DIIS: error= 2.54D-02 at cycle   2 NSaved=   2.
 NSaved= 2 IEnMin= 2 EnMin= -862.133197146035     IErMin= 2 ErrMin= 2.54D-02
 ErrMax= 2.54D-02  0.00D+00 EMaxC= 1.00D-01 BMatC= 1.03D-02 BMatP= 5.84D-02
 IDIUse=3 WtCom= 7.46D-01 WtEn= 2.54D-01
 Coeff-Com: -0.426D+00 0.143D+01
 Coeff-En:   0.000D+00 0.100D+01
 Coeff:     -0.317D+00 0.132D+01
 Gap=     0.256 Goal=   None    Shift=    0.000
 RMSDP=3.09D-03 MaxDP=2.03D-02 DE=-2.62D-02 OVMax= 0.00D+00

 Cycle   3  Pass 1  IDiag  1:
 E= -862.158113915420     Delta-E=       -0.024916769385 Rises=F Damp=F
 DIIS: error= 4.15D-03 at cycle   3 NSaved=   3.
 NSaved= 3 IEnMin= 3 EnMin= -862.158113915420     IErMin= 3 ErrMin= 4.15D-03
 ErrMax= 4.15D-03  0.00D+00 EMaxC= 1.00D-01 BMatC= 4.52D-04 BMatP= 1.03D-02
 IDIUse=3 WtCom= 9.58D-01 WtEn= 4.15D-02
 Coeff-Com: -0.129D+00 0.182D+00 0.947D+00
 Coeff-En:   0.000D+00 0.000D+00 0.100D+01
 Coeff:     -0.124D+00 0.174D+00 0.949D+00
 Gap=     0.265 Goal=   None    Shift=    0.000
 RMSDP=1.27D-03 MaxDP=1.09D-02 DE=-2.49D-02 OVMax= 0.00D+00

 Cycle   4  Pass 1  IDiag  1:
 E= -862.159061924067     Delta-E=       -0.000948008647 Rises=F Damp=F
 DIIS: error= 9.83D-04 at cycle   4 NSaved=   4.
 NSaved= 4 IEnMin= 4 EnMin= -862.159061924067     IErMin= 4 ErrMin= 9.83D-04
 ErrMax= 9.83D-04  0.00D+00 EMaxC= 1.00D-01 BMatC= 2.91D-05 BMatP= 4.52D-04
 IDIUse=3 WtCom= 9.90D-01 WtEn= 9.83D-03
 Coeff-Com:  0.108D+00-0.183D+00-0.466D+00 0.154D+01
 Coeff-En:   0.000D+00 0.000D+00 0.000D+00 0.100D+01
 Coeff:      0.106D+00-0.181D+00-0.461D+00 0.154D+01
 Gap=     0.268 Goal=   None    Shift=    0.000
 RMSDP=6.44D-04 MaxDP=5.28D-03 DE=-9.48D-04 OVMax= 0.00D+00

 Cycle   5  Pass 1  IDiag  1:
 E= -862.159196715762     Delta-E=       -0.000134791695 Rises=F Damp=F
 DIIS: error= 4.14D-04 at cycle   5 NSaved=   5.
 NSaved= 5 IEnMin= 5 EnMin= -862.159196715762     IErMin= 5 ErrMin= 4.14D-04
 ErrMax= 4.14D-04  0.00D+00 EMaxC= 1.00D-01 BMatC= 3.88D-06 BMatP= 2.91D-05
 IDIUse=3 WtCom= 9.96D-01 WtEn= 4.14D-03
 Coeff-Com: -0.535D-01 0.909D-01 0.297D+00-0.126D+01 0.193D+01
 Coeff-En:   0.000D+00 0.000D+00 0.000D+00 0.000D+00 0.100D+01
 Coeff:     -0.533D-01 0.905D-01 0.296D+00-0.126D+01 0.192D+01
 Gap=     0.269 Goal=   None    Shift=    0.000
 RMSDP=3.23D-04 MaxDP=2.23D-03 DE=-1.35D-04 OVMax= 0.00D+00

 Cycle   6  Pass 1  IDiag  1:
 E= -862.159213918169     Delta-E=       -0.000017202407 Rises=F Damp=F
 DIIS: error= 6.29D-05 at cycle   6 NSaved=   6.
 NSaved= 6 IEnMin= 6 EnMin= -862.159213918169     IErMin= 6 ErrMin= 6.29D-05
 ErrMax= 6.29D-05  0.00D+00 EMaxC= 1.00D-01 BMatC= 8.15D-08 BMatP= 3.88D-06
 IDIUse=1 WtCom= 1.00D+00 WtEn= 0.00D+00
 Coeff-Com: -0.120D-01 0.202D-01 0.659D-01-0.246D+00 0.321D+00 0.851D+00
 Coeff:     -0.120D-01 0.202D-01 0.659D-01-0.246D+00 0.321D+00 0.851D+00
 Gap=     0.269 Goal=   None    Shift=    0.000
 RMSDP=2.75D-05 MaxDP=3.70D-04 DE=-1.72D-05 OVMax= 0.00D+00

 Cycle   7  Pass 1  IDiag  1:
 E= -862.159214157488     Delta-E=       -0.000000239319 Rises=F Damp=F
 DIIS: error= 3.52D-05 at cycle   7 NSaved=   7.
 NSaved= 7 IEnMin= 7 EnMin= -862.159214157488     IErMin= 7 ErrMin= 3.52D-05
 ErrMax= 3.52D-05  0.00D+00 EMaxC= 1.00D-01 BMatC= 2.34D-08 BMatP= 8.15D-08
 IDIUse=1 WtCom= 1.00D+00 WtEn= 0.00D+00
 Coeff-Com:  0.392D-02-0.681D-02-0.205D-01 0.102D+00-0.159D+00 0.230D+00
 Coeff-Com:  0.851D+00
 Coeff:      0.392D-02-0.681D-02-0.205D-01 0.102D+00-0.159D+00 0.230D+00
 Coeff:      0.851D+00
 Gap=     0.269 Goal=   None    Shift=    0.000
 RMSDP=1.55D-05 MaxDP=1.46D-04 DE=-2.39D-07 OVMax= 0.00D+00

 Cycle   8  Pass 1  IDiag  1:
 E= -862.159214242945     Delta-E=       -0.000000085457 Rises=F Damp=F
 DIIS: error= 1.46D-05 at cycle   8 NSaved=   8.
 NSaved= 8 IEnMin= 8 EnMin= -862.159214242945     IErMin= 8 ErrMin= 1.46D-05
 ErrMax= 1.46D-05  0.00D+00 EMaxC= 1.00D-01 BMatC= 3.64D-09 BMatP= 2.34D-08
 IDIUse=1 WtCom= 1.00D+00 WtEn= 0.00D+00
 Coeff-Com: -0.106D-02 0.184D-02 0.586D-02-0.339D-01 0.442D-01-0.284D+00
 Coeff-Com: -0.270D+00 0.154D+01
 Coeff:     -0.106D-02 0.184D-02 0.586D-02-0.339D-01 0.442D-01-0.284D+00
 Coeff:     -0.270D+00 0.154D+01
 Gap=     0.269 Goal=   None    Shift=    0.000
 RMSDP=1.09D-05 MaxDP=8.09D-05 DE=-8.55D-08 OVMax= 0.00D+00

 Cycle   9  Pass 1  IDiag  1:
 E= -862.159214262710     Delta-E=       -0.000000019764 Rises=F Damp=F
 DIIS: error= 1.21D-06 at cycle   9 NSaved=   9.
 NSaved= 9 IEnMin= 9 EnMin= -862.159214262710     IErMin= 9 ErrMin= 1.21D-06
 ErrMax= 1.21D-06  0.00D+00 EMaxC= 1.00D-01 BMatC= 2.66D-11 BMatP= 3.64D-09
 IDIUse=1 WtCom= 1.00D+00 WtEn= 0.00D+00
 Coeff-Com:  0.421D-04-0.802D-04-0.204D-03 0.308D-02-0.126D-02 0.575D-01
 Coeff-Com:  0.423D-01-0.367D+00 0.127D+01
 Coeff:      0.421D-04-0.802D-04-0.204D-03 0.308D-02-0.126D-02 0.575D-01
 Coeff:      0.423D-01-0.367D+00 0.127D+01
 Gap=     0.269 Goal=   None    Shift=    0.000
 RMSDP=9.81D-07 MaxDP=1.11D-05 DE=-1.98D-08 OVMax= 0.00D+00

 Cycle  10  Pass 1  IDiag  1:
 E= -862.159214262882     Delta-E=       -0.000000000172 Rises=F Damp=F
 DIIS: error= 9.03D-08 at cycle  10 NSaved=  10.
 NSaved=10 IEnMin=10 EnMin= -862.159214262882     IErMin=10 ErrMin= 9.03D-08
 ErrMax= 9.03D-08  0.00D+00 EMaxC= 1.00D-01 BMatC= 2.85D-13 BMatP= 2.66D-11
 IDIUse=1 WtCom= 1.00D+00 WtEn= 0.00D+00
 Coeff-Com:  0.121D-04-0.212D-04-0.734D-04 0.517D-03-0.590D-03 0.597D-02
 Coeff-Com:  0.624D-02-0.365D-01 0.667D-01 0.958D+00
 Coeff:      0.121D-04-0.212D-04-0.734D-04 0.517D-03-0.590D-03 0.597D-02
 Coeff:      0.624D-02-0.365D-01 0.667D-01 0.958D+00
 Gap=     0.269 Goal=   None    Shift=    0.000
 RMSDP=6.29D-08 MaxDP=9.88D-07 DE=-1.72D-10 OVMax= 0.00D+00

 Cycle  11  Pass 1  IDiag  1:
 E= -862.159214262882     Delta-E=       -0.000000000000 Rises=F Damp=F
 DIIS: error= 8.49D-08 at cycle  11 NSaved=  11.
 NSaved=11 IEnMin=11 EnMin= -862.159214262882     IErMin=11 ErrMin= 8.49D-08
 ErrMax= 8.49D-08  0.00D+00 EMaxC= 1.00D-01 BMatC= 1.64D-13 BMatP= 2.85D-13
 IDIUse=1 WtCom= 1.00D+00 WtEn= 0.00D+00
 Coeff-Com: -0.743D-05 0.138D-04 0.362D-04-0.451D-03 0.252D-03-0.821D-02
 Coeff-Com: -0.407D-02 0.471D-01-0.156D+00-0.558D-01 0.118D+01
 Coeff:     -0.743D-05 0.138D-04 0.362D-04-0.451D-03 0.252D-03-0.821D-02
 Coeff:     -0.407D-02 0.471D-01-0.156D+00-0.558D-01 0.118D+01
 Gap=     0.269 Goal=   None    Shift=    0.000
 RMSDP=3.73D-08 MaxDP=3.19D-07 DE=-2.27D-13 OVMax= 0.00D+00

 Cycle  12  Pass 1  IDiag  1:
 E= -862.159214262883     Delta-E=       -0.000000000001 Rises=F Damp=F
 DIIS: error= 4.40D-08 at cycle  12 NSaved=  12.
 NSaved=12 IEnMin=12 EnMin= -862.159214262883     IErMin=12 ErrMin= 4.40D-08
 ErrMax= 4.40D-08  0.00D+00 EMaxC= 1.00D-01 BMatC= 4.51D-14 BMatP= 1.64D-13
 IDIUse=1 WtCom= 1.00D+00 WtEn= 0.00D+00
 Coeff-Com:  0.234D-05-0.474D-05-0.625D-05 0.208D-03 0.716D-05 0.447D-02
 Coeff-Com:  0.268D-02-0.286D-01 0.998D-01-0.451D-01-0.138D+01 0.235D+01
 Coeff:      0.234D-05-0.474D-05-0.625D-05 0.208D-03 0.716D-05 0.447D-02
 Coeff:      0.268D-02-0.286D-01 0.998D-01-0.451D-01-0.138D+01 0.235D+01
 Gap=     0.269 Goal=   None    Shift=    0.000
 RMSDP=4.47D-08 MaxDP=4.70D-07 DE=-6.82D-13 OVMax= 0.00D+00

 Cycle  13  Pass 1  IDiag  1:
 E= -862.159214262884     Delta-E=       -0.000000000001 Rises=F Damp=F
 DIIS: error= 6.88D-09 at cycle  13 NSaved=  13.
 NSaved=13 IEnMin=13 EnMin= -862.159214262884     IErMin=13 ErrMin= 6.88D-09
 ErrMax= 6.88D-09  0.00D+00 EMaxC= 1.00D-01 BMatC= 1.39D-15 BMatP= 4.51D-14
 IDIUse=1 WtCom= 1.00D+00 WtEn= 0.00D+00
 Coeff-Com: -0.196D-06 0.525D-06-0.132D-05-0.347D-04-0.273D-04-0.943D-03
 Coeff-Com: -0.443D-03 0.613D-02-0.224D-01 0.379D-01 0.332D+00-0.766D+00
 Coeff-Com:  0.141D+01
 Coeff:     -0.196D-06 0.525D-06-0.132D-05-0.347D-04-0.273D-04-0.943D-03
 Coeff:     -0.443D-03 0.613D-02-0.224D-01 0.379D-01 0.332D+00-0.766D+00
 Coeff:      0.141D+01
 Gap=     0.269 Goal=   None    Shift=    0.000
 RMSDP=7.05D-09 MaxDP=6.82D-08 DE=-1.36D-12 OVMax= 0.00D+00

 SCF Done:  E(RHF) =  -862.159214263     A.U. after   13 cycles
            NFock= 13  Conv=0.70D-08     -V/T= 2.0109
 KE= 8.528446601359D+02 PE=-2.371274583389D+03 EE= 4.952237271239D+02
 Leave Link  502 at Wed Nov 19 18:18:15 2025, MaxMem=  2684354560 cpu:               0.3 elap:               0.7
 (Enter /gaussian/g16.c01/intel64-sandybridge/g16/l508.exe)
 QCSCF skips out because SCF is already converged.
 Leave Link  508 at Wed Nov 19 18:18:15 2025, MaxMem=  2684354560 cpu:               0.0 elap:               0.1
 (Enter /gaussian/g16.c01/intel64-sandybridge/g16/l601.exe)
 Copying SCF densities to generalized density rwf, IOpCl= 0 IROHF=0.

 **********************************************************************

            Population analysis using the SCF Density.

 **********************************************************************

 Orbital symmetries:
       Occupied  (A') (A') (A') (A') (A') (A') (A") (A") (A') (A')
                 (A') (A') (A') (A') (A') (A') (A') (A') (A") (A')
                 (A') (A') (A")
       Virtual   (A") (A") (A') (A') (A') (A') (A')
 The electronic state is 1-A'.
 Alpha  occ. eigenvalues --  -90.70309 -90.70298 -11.04707 -11.04661  -8.61376
 Alpha  occ. eigenvalues --   -8.61365  -6.24457  -6.24447  -6.24435  -6.24424
 Alpha  occ. eigenvalues --   -6.24052  -6.24042  -1.03002  -0.87497  -0.75295
 Alpha  occ. eigenvalues --   -0.70822  -0.54659  -0.46402  -0.37612  -0.36108
 Alpha  occ. eigenvalues --   -0.25267  -0.24571  -0.19314
 Alpha virt. eigenvalues --    0.07575   0.31832   0.44817   0.52212   0.65790
 Alpha virt. eigenvalues --    0.85839   0.92340
          Condensed to atoms (all electrons):
               1          2          3          4          5          6
     1  C    5.007437   0.385774   0.476159  -0.031226  -0.025490   0.338513
     2  H    0.385774   0.590795  -0.031178   0.002070  -0.002432  -0.019645
     3  C    0.476159  -0.031178   5.007342   0.385769   0.338723  -0.025419
     4  H   -0.031226   0.002070   0.385769   0.590832  -0.019636  -0.002432
     5  S   -0.025490  -0.002432   0.338723  -0.019636  15.631789   0.000263
     6  S    0.338513  -0.019645  -0.025419  -0.002432   0.000263  15.632181
 Mulliken charges:
               1
     1  C   -0.151167
     2  H    0.074616
     3  C   -0.151396
     4  H    0.074625
     5  S    0.076783
     6  S    0.076539
 Sum of Mulliken charges =   0.00000
 Mulliken charges with hydrogens summed into heavy atoms:
               1
     1  C   -0.076551
     3  C   -0.076771
     5  S    0.076783
     6  S    0.076539
 Electronic spatial extent (au):  <R**2>=            664.5798
 Charge=              0.0000 electrons
 Dipole moment (field-independent basis, Debye):
    X=              0.0002    Y=             -0.0006    Z=              0.0000  Tot=              0.0006
 Quadrupole moment (field-independent basis, Debye-Ang):
   XX=            -32.8604   YY=            -36.8881   ZZ=            -31.1343
   XY=              0.4552   XZ=             -0.0000   YZ=              0.0000
 Traceless Quadrupole moment (field-independent basis, Debye-Ang):
   XX=              0.7672   YY=             -3.2605   ZZ=              2.4932
   XY=              0.4552   XZ=             -0.0000   YZ=              0.0000
 Octapole moment (field-independent basis, Debye-Ang**2):
  XXX=              0.0007  YYY=              0.0050  ZZZ=              0.0000  XYY=             -0.0007
  XXY=              0.0008  XXZ=              0.0000  XZZ=              0.0002  YZZ=              0.0004
  YYZ=              0.0000  XYZ=              0.0000
 Hexadecapole moment (field-independent basis, Debye-Ang**3):
 XXXX=            -72.5656 YYYY=           -674.2172 ZZZZ=            -25.5031 XXXY=             47.3608
 XXXZ=             -0.0000 YYYX=             34.8076 YYYZ=              0.0000 ZZZX=             -0.0000
 ZZZY=              0.0000 XXYY=           -124.8346 XXZZ=            -16.8199 YYZZ=           -104.9106
 XXYZ=              0.0000 YYXZ=             -0.0000 ZZXY=             12.9488
 N-N= 1.610469818661D+02 E-N=-2.371274583418D+03  KE= 8.528446601359D+02
 Symmetry A'   KE= 7.805528809417D+02
 Symmetry A"   KE= 7.229177919425D+01
 No NMR shielding tensors so no spin-rotation constants.
 Leave Link  601 at Wed Nov 19 18:18:15 2025, MaxMem=  2684354560 cpu:               0.1 elap:               0.2
 (Enter /gaussian/g16.c01/intel64-sandybridge/g16/l9999.exe)
 Unable to Open any file for archive entry.
 1\1\GINC-THIOTIMOLINE-LARGE01\SP\RHF\STO-3G\C2H2S2\LCRISCI_VB\19-Nov-2
 025\0\\#P hf/sto-3g scf=xqc\\External Calculation\\0,1\C,0,-0.38222776
 62,0.5585030819,0.\H,0,-1.4489983474,0.4764336871,0.\C,0,0.3822277662,
 -0.5595030819,0.\H,0,1.4489983474,-0.4764336871,0.\S,0,-0.3822277662,-
 2.166987993,0.\S,0,0.3822277662,2.166987993,0.\\Version=ES64L-G16RevC.
 01\State=1-A'\HF=-862.1592143\RMSD=7.048e-09\Dipole=-0.0000902,-0.0002
 215,0.\Quadrupole=0.5704082,-2.4240767,1.8536685,-0.3384571,0.,0.\PG=C
 S [SG(C2H2S2)]\\@
 The archive entry for this job was punched.


          EVOLUTION
 IN THE BEGINNING GOD MADE MAN.
 HE WORKED THE DIRT WITH HIS HANDS.
 THEN GOD DECIDED TO GIVE MAN SCIENCE,
 MAN SHOULD BE USEFUL (LIKE AN APPLIANCE.)
 BUT SOON MAN'S KNOWLEDGE GREW TOO GREAT,
 TO THE HEADING SCIENCE HE COULDN'T RELATE
 SO GOD SAID "LETS HAVE DIFFERENT FIELDS,
 WE'LL DIVIDE THEM UP, SEE WHAT IT YIELDS."
 ENTER PHYSICS, CHEMISTRY, BIO
 THEY SPRANG UP AROUND THE NILE.
 BUT CHEMISTRY SURPASSED THE REST
 FAR AND AWAY IT WAS THE BEST.
 EXPERIMENT WAS GOD'S DECREE
 EXPERIMENT DID CHEMISTS WITH LOTS OF GLEE
 BUT SOON THEIR TESTS BEGAN TO BOG,
 THEY FOUND THEMSELVES DEEP IN A FOG.
 "GIVE US SOME HELP" THEY CRIED TO GOD.
 GOD LOOKED AROUND, THEN GAVE THE NOD.
 ENTER EINSTEIN, HEISENBERG, BOHR,
 REACTION PATHS WERE CLEAR ONCE MORE.
 WITH THEORISTS GOD SEND DIRECTION
 AND THEN HE STOPPED, HE'D MADE PERFECTION.
          -- THOMAS A. HOLME, 1981
 Job cpu time:       0 days  0 hours  0 minutes  1.5 seconds.
 Elapsed time:       0 days  0 hours  0 minutes  2.7 seconds.
 File lengths (MBytes):  RWF=      5 Int=      0 D2E=      0 Chk=      1 Scr=      1
 Normal termination of Gaussian 16 at Wed Nov 19 18:18:15 2025.
