%chk=test_parall.chk
%nprocs=1
#p force output=pickett External="CentralExt gau $PGAU/test_pr.dat $EGAU/test_en.dat 2 20 read parall 6" 

title

0 1
 C                 -0.00000000   -0.00054514    0.00038547
 H                 -0.00000000   -0.00007266    1.06806029
 H                  0.00000000   -1.00700112   -0.35595159
 H                 -0.87227030    0.50356903   -0.35607708
 H                  0.87227030    0.50356903   -0.35607708

--link1--
%chk=test_parall.chk
%nprocs=1
#p force hf/sto-3g

title

0 1
 C                 -0.00000000   -0.00054514    0.00038547
 H                 -0.00000000   -0.00007266    1.06806029
 H                  0.00000000   -1.00700112   -0.35595159
 H                 -0.87227030    0.50356903   -0.35607708
 H                  0.87227030    0.50356903   -0.35607708

