External Calculation                                                    
SP        RHF                                                         STO-3G              
Number of atoms                            I                6
Info1-9                                    I   N=           9
          20          15           0           0           0         110
           1           1           2
Full Title                                 C   N=           2
External Calculation    
Route                                      C   N=           2
#P hf/sto-3g scf=xqc    
Charge                                     I                0
Multiplicity                               I                1
Number of electrons                        I               38
Number of alpha electrons                  I               19
Number of beta electrons                   I               19
Number of basis functions                  I               26
Number of independent functions            I               26
Number of point charges in /Mol/           I                0
Number of translation vectors              I                0
Atomic numbers                             I   N=           6
           6           1           6           1          17           7
Nuclear charges                            R   N=           6
  6.00000000E+00  1.00000000E+00  6.00000000E+00  1.00000000E+00  1.70000000E+01
  7.00000000E+00
Current cartesian coordinates              R   N=          18
 -2.62658627E-14  1.70355974E+00  0.00000000E+00 -5.08912485E-01  3.66047573E+00
  0.00000000E+00  2.46602071E+00  1.01273285E+00  0.00000000E+00  3.90911128E+00
  2.42906677E+00  0.00000000E+00 -2.37368170E+00 -6.26110960E-01  0.00000000E+00
  3.16518084E+00 -1.67763024E+00  0.00000000E+00
Number of symbols in /Mol/                 I                0
Int Atom Types                             I   N=           6
           0           0           0           0           0           0
Force Field                                I                0
Atom Types                                 C   N=           6
                                                            
            
MM charges                                 R   N=           6
  0.00000000E+00  0.00000000E+00  0.00000000E+00  0.00000000E+00  0.00000000E+00
  0.00000000E+00
Integer atomic weights                     I   N=           6
          12           1          12           1          35          14
Real atomic weights                        R   N=           6
  1.20000000E+01  1.00782504E+00  1.20000000E+01  1.00782504E+00  3.49688527E+01
  1.40030740E+01
Atom fragment info                         I   N=           6
           0           0           0           0           0           0
Atom residue num                           I   N=           6
           0           0           0           0           0           0
Nuclear spins                              I   N=           6
           0           1           0           1           3           2
Nuclear ZEff                               R   N=           6
 -3.60000000E+00 -1.00000000E+00 -3.60000000E+00 -1.00000000E+00 -1.42400000E+01
 -4.55000000E+00
Nuclear ZNuc                               R   N=           6
  6.00000000E+00  1.00000000E+00  6.00000000E+00  1.00000000E+00  1.70000000E+01
  7.00000000E+00
Nuclear QMom                               R   N=           6
  0.00000000E+00  0.00000000E+00  0.00000000E+00  0.00000000E+00 -8.16500000E+00
  2.04400000E+00
Nuclear GFac                               R   N=           6
  0.00000000E+00  2.79284600E+00  0.00000000E+00  2.79284600E+00  8.21874000E-01
  4.03761000E-01
MicOpt                                     I   N=           6
          -1          -1          -1          -1          -1          -1
Number of residues                         I                0
Number of secondary structures             I                0
SymInf integers                            I   N=          26
           1           2           1           1           1           1
           1          -1           0           0           0           0
           0           0           0           0           0           0
           0           0           0           0           0           0
           0           0
RotTr to input orientation                 R   N=          12
  1.00000000E+00  1.54182223E-14  0.00000000E+00 -1.54182223E-14  1.00000000E+00
  0.00000000E+00  0.00000000E+00  0.00000000E+00  1.00000000E+00  2.62713827E-14
 -3.48107444E-04  0.00000000E+00
Number of contracted shells                I               11
Number of primitive shells                 I               33
Pure/Cartesian d shells                    I                0
Pure/Cartesian f shells                    I                0
Highest angular momentum                   I                1
Largest degree of contraction              I                3
Shell types                                I   N=          11
           0          -1           0           0          -1           0
           0          -1          -1           0          -1
Number of primitives per shell             I   N=          11
           3           3           3           3           3           3
           3           3           3           3           3
Shell to atom map                          I   N=          11
           1           1           2           3           3           4
           5           5           5           6           6
Primitive exponents                        R   N=          33
  7.16168373E+01  1.30450963E+01  3.53051216E+00  2.94124936E+00  6.83483096E-01
  2.22289916E-01  3.42525091E+00  6.23913730E-01  1.68855404E-01  7.16168373E+01
  1.30450963E+01  3.53051216E+00  2.94124936E+00  6.83483096E-01  2.22289916E-01
  3.42525091E+00  6.23913730E-01  1.68855404E-01  6.01345614E+02  1.09535854E+02
  2.96446769E+01  3.89604189E+01  9.05356348E+00  2.94449983E+00  2.12938650E+00
  5.94093427E-01  2.32524141E-01  9.91061690E+01  1.80523124E+01  4.88566024E+00
  3.78045588E+00  8.78496645E-01  2.85714374E-01
Contraction coefficients                   R   N=          33
  1.54328967E-01  5.35328142E-01  4.44634542E-01 -9.99672292E-02  3.99512826E-01
  7.00115469E-01  1.54328967E-01  5.35328142E-01  4.44634542E-01  1.54328967E-01
  5.35328142E-01  4.44634542E-01 -9.99672292E-02  3.99512826E-01  7.00115469E-01
  1.54328967E-01  5.35328142E-01  4.44634542E-01  1.54328967E-01  5.35328142E-01
  4.44634542E-01 -9.99672292E-02  3.99512826E-01  7.00115469E-01 -2.19620369E-01
  2.25595434E-01  9.00398426E-01  1.54328967E-01  5.35328142E-01  4.44634542E-01
 -9.99672292E-02  3.99512826E-01  7.00115469E-01
P(S=P) Contraction coefficients            R   N=          33
  0.00000000E+00  0.00000000E+00  0.00000000E+00  1.55916275E-01  6.07683719E-01
  3.91957393E-01  0.00000000E+00  0.00000000E+00  0.00000000E+00  0.00000000E+00
  0.00000000E+00  0.00000000E+00  1.55916275E-01  6.07683719E-01  3.91957393E-01
  0.00000000E+00  0.00000000E+00  0.00000000E+00  0.00000000E+00  0.00000000E+00
  0.00000000E+00  1.55916275E-01  6.07683719E-01  3.91957393E-01  1.05876043E-02
  5.95167005E-01  4.62001012E-01  0.00000000E+00  0.00000000E+00  0.00000000E+00
  1.55916275E-01  6.07683719E-01  3.91957393E-01
Coordinates of each shell                  R   N=          33
  0.00000000E+00  1.70355974E+00  0.00000000E+00  0.00000000E+00  1.70355974E+00
  0.00000000E+00 -5.08912485E-01  3.66047573E+00  0.00000000E+00  2.46602071E+00
  1.01273285E+00  0.00000000E+00  2.46602071E+00  1.01273285E+00  0.00000000E+00
  3.90911128E+00  2.42906677E+00  0.00000000E+00 -2.37368170E+00 -6.26110960E-01
  0.00000000E+00 -2.37368170E+00 -6.26110960E-01  0.00000000E+00 -2.37368170E+00
 -6.26110960E-01  0.00000000E+00  3.16518084E+00 -1.67763024E+00  0.00000000E+00
  3.16518084E+00 -1.67763024E+00  0.00000000E+00
Num ILSW                                   I              100
ILSW                                       I   N=         100
           0           0           0           0           2           0
           0           0           0           0           0          -1
           5           0           0           0           0           0
           0           0           0           0           0           0
           1           0           0           0           0           0
           0           0      100000           0          -1           0
           0           0           0           0           0           0
           0           0           0           1           0           0
           0 -2000000000           1           0           0           0
           0           0           4          52           0           0
           0           0           0           0           0           0
           0           0           0           6           0           1
           0           0           0           0           0           0
           0           0           0           0           0           0
           0           0           0           0           0           0
           0           0           0           0           0           0
           0           0           0           0
Num RLSW                                   I               52
RLSW                                       R   N=          52
  1.00000000E+00  1.00000000E+00  1.00000000E+00  1.00000000E+00  1.00000000E+00
  0.00000000E+00  0.00000000E+00  1.00000000E+00  0.00000000E+00  0.00000000E+00
  0.00000000E+00  0.00000000E+00  1.00000000E+00  0.00000000E+00  0.00000000E+00
  0.00000000E+00  0.00000000E+00  1.00000000E+00  0.00000000E+00  0.00000000E+00
  0.00000000E+00  0.00000000E+00  1.00000000E+00  0.00000000E+00  0.00000000E+00
  0.00000000E+00  0.00000000E+00  1.00000000E+00  0.00000000E+00  0.00000000E+00
  0.00000000E+00  0.00000000E+00  1.00000000E+00  0.00000000E+00  0.00000000E+00
  0.00000000E+00  0.00000000E+00  0.00000000E+00  1.00000000E+00  1.00000000E+00
  0.00000000E+00  1.00000000E+00  0.00000000E+00  0.00000000E+00  0.00000000E+00
  0.00000000E+00  0.00000000E+00  0.00000000E+00  0.00000000E+00  0.00000000E+00
  0.00000000E+00  0.00000000E+00
MxBond                                     I                3
NBond                                      I   N=           6
           3           1           3           1           1           1
IBond                                      I   N=          18
           2           3           5           1           0           0
           1           4           6           3           0           0
           1           0           0           3           0           0
RBond                                      R   N=          18
  1.00000000E+00  2.00000000E+00  1.00000000E+00  1.00000000E+00  0.00000000E+00
  0.00000000E+00  2.00000000E+00  1.00000000E+00  1.00000000E+00  1.00000000E+00
  0.00000000E+00  0.00000000E+00  1.00000000E+00  0.00000000E+00  0.00000000E+00
  1.00000000E+00  0.00000000E+00  0.00000000E+00
Virial Ratio                               R      2.015642506807115E+00
SCF Energy                                 R     -5.840962218266700E+02
Total Energy                               R     -5.840962218266700E+02
RMS Density                                R      8.381700576715738E-09
Job Status                                 I                1
Nuclear derivative order                   I                0
External E-field                           R   N=          35
  0.00000000E+00  0.00000000E+00  0.00000000E+00  0.00000000E+00  0.00000000E+00
  0.00000000E+00  0.00000000E+00  0.00000000E+00  0.00000000E+00  0.00000000E+00
  0.00000000E+00  0.00000000E+00  0.00000000E+00  0.00000000E+00  0.00000000E+00
  0.00000000E+00  0.00000000E+00  0.00000000E+00  0.00000000E+00  0.00000000E+00
  0.00000000E+00  0.00000000E+00  0.00000000E+00  0.00000000E+00  0.00000000E+00
  0.00000000E+00  0.00000000E+00  0.00000000E+00  0.00000000E+00  0.00000000E+00
  0.00000000E+00  0.00000000E+00  0.00000000E+00  0.00000000E+00  0.00000000E+00
IOpCl                                      I                0
IROHF                                      I                0
Alpha Orbital Energies                     R   N=          26
 -1.03741992E+02 -1.53173638E+01 -1.11551198E+01 -1.10754288E+01 -1.04206346E+01
 -7.86493546E+00 -7.85930592E+00 -7.85890284E+00 -1.12493869E+00 -1.02790797E+00
 -9.03768927E-01 -7.13837006E-01 -6.50170090E-01 -5.25535496E-01 -4.77968374E-01
 -4.32076307E-01 -4.10962074E-01 -3.54134746E-01 -3.11378804E-01  1.45254562E-01
  3.35231679E-01  3.47453001E-01  5.93516160E-01  6.47253915E-01  8.43246696E-01
  8.96510215E-01
Alpha MO coefficients                      R   N=         676
 -5.22452723E-05  3.69616865E-04 -2.47785435E-04 -2.51131728E-04  0.00000000E+00
  7.39135795E-06 -9.22792051E-07 -8.34794383E-06  4.74597819E-06  1.80286817E-05
  0.00000000E+00  2.84703374E-06  9.94506587E-01  1.57345910E-02  8.07487950E-05
  8.23949264E-05  0.00000000E+00 -1.80115275E-03 -1.69400034E-04 -1.66163984E-04
  0.00000000E+00 -3.03039327E-06  1.58407135E-05 -2.00926192E-05  1.72449105E-06
  0.00000000E+00  3.10037053E-08  2.07162628E-04 -4.11730778E-05 -3.11447490E-04
  0.00000000E+00 -1.42975332E-05  5.27837641E-04 -5.33300455E-03 -1.10648835E-03
  4.61661384E-03  0.00000000E+00  8.91933259E-06 -6.73696386E-06  2.25396022E-05
  4.57657939E-05 -1.05792922E-05  0.00000000E+00 -1.87687979E-04 -2.45108280E-04
  3.99765298E-05  0.00000000E+00  9.94408566E-01  2.42188451E-02 -1.09588057E-03
  4.22304254E-03  0.00000000E+00  9.92480680E-01  3.40831738E-02  1.45712583E-03
  3.09904649E-05  0.00000000E+00 -6.81661795E-03  4.15208862E-03 -7.17762198E-03
  4.19295859E-03 -1.16262090E-03  0.00000000E+00  8.40285061E-05  1.47957939E-04
 -4.97928511E-04  3.18119284E-04  3.02674982E-04  0.00000000E+00 -4.33536911E-03
 -3.06271999E-03 -2.92990700E-03  0.00000000E+00  1.12558162E-05  1.47612436E-04
  5.33019698E-05  9.60729120E-05  0.00000000E+00 -3.49144686E-03 -7.84806905E-03
 -4.56460009E-03  1.25819334E-03  0.00000000E+00  1.30596136E-04  9.92321966E-01
  3.51128166E-02 -1.79439986E-03  1.00372775E-03  0.00000000E+00 -6.97672392E-03
  1.79610655E-05 -3.30212311E-05  2.11197688E-05 -1.19476839E-05  0.00000000E+00
  3.97284669E-05 -5.67073416E-05  1.22008880E-04  0.00000000E+00  4.93788607E-04
 -5.08087665E-03  9.25625769E-04 -3.13278131E-03  0.00000000E+00  1.74539123E-03
 -7.67225301E-03  4.75957224E-03  4.77438246E-03  0.00000000E+00 -1.47001915E-04
  1.18122344E-04  1.43106624E-04 -2.39946106E-06 -1.59752734E-04  0.00000000E+00
 -1.00832935E-04 -3.77075358E-01  1.05361714E+00  7.02540947E-03  7.57071877E-03
  0.00000000E+00  4.42420067E-02  3.98774820E-03  3.97486473E-03  0.00000000E+00
  8.38504710E-05 -3.12786065E-04  4.44923422E-04 -1.31698357E-06  0.00000000E+00
  1.34697148E-03 -1.08714807E-02  6.42647390E-03  6.41650767E-03  0.00000000E+00
  9.30333074E-06  4.33400903E-05  2.55320934E-04 -1.30897096E-04 -3.15306433E-04
  0.00000000E+00 -7.84298612E-05  4.59859389E-03 -1.30755691E-02  7.00735567E-01
  6.97253402E-01  0.00000000E+00  5.80655051E-03  3.31318164E-02  3.29076712E-02
  0.00000000E+00  6.05565263E-05 -2.78279409E-04  3.20447817E-04 -6.42452853E-05
  0.00000000E+00  0.00000000E+00  0.00000000E+00  0.00000000E+00  0.00000000E+00
 -3.11270965E-03  0.00000000E+00  0.00000000E+00  0.00000000E+00  0.00000000E+00
  0.00000000E+00  2.52514038E-04  0.00000000E+00  0.00000000E+00  0.00000000E+00
  0.00000000E+00  0.00000000E+00  9.90162271E-01  0.00000000E+00  0.00000000E+00
  0.00000000E+00  3.92631900E-02  0.00000000E+00  0.00000000E+00  0.00000000E+00
  0.00000000E+00 -1.15520907E-04 -2.49067091E-05  2.30418066E-04  2.60549085E-03
 -2.45253537E-03  0.00000000E+00  5.27027097E-04 -5.60150670E-05 -7.86809895E-04
  2.74166396E-04 -6.38277107E-04  0.00000000E+00  2.31232669E-04  1.56420640E-04
 -4.42675763E-04 -6.98410082E-01  7.01910752E-01  0.00000000E+00 -4.79333256E-06
 -2.76747156E-02  2.77769205E-02  0.00000000E+00 -1.03898779E-04  3.43924736E-04
 -6.70004000E-04 -1.20323177E-04  0.00000000E+00 -1.45161653E-01  3.87323038E-01
  2.70981257E-02 -5.83885999E-02  0.00000000E+00  7.69519650E-02 -1.22332048E-01
  3.13687820E-01 -6.93908040E-02 -2.25192542E-02  0.00000000E+00  5.73276824E-02
  4.86194542E-02 -1.62068386E-01 -2.85652483E-02 -2.61942339E-02  0.00000000E+00
  5.24293510E-01  8.25740470E-02  7.69107690E-02  0.00000000E+00 -7.78691202E-02
  2.66079834E-01 -2.93942388E-02  6.99615680E-02  0.00000000E+00 -1.06151610E-02
  2.66856952E-02 -1.41914993E-01 -2.00123389E-02  0.00000000E+00  1.47497690E-02
  1.21832310E-01 -3.30789613E-01 -2.69200465E-02  7.92345059E-02  0.00000000E+00
 -7.92385547E-02  5.60094655E-02 -1.85248750E-01 -1.19297424E-02 -2.02498201E-02
  0.00000000E+00  6.31805342E-01  3.63286073E-02  6.31933161E-02  0.00000000E+00
  1.40457979E-01 -4.98063021E-01  2.25010719E-02 -1.06911372E-01  0.00000000E+00
  1.42377950E-01 -4.24838766E-01 -1.28707822E-01 -9.66750511E-02  0.00000000E+00
 -1.69583774E-01  5.70240511E-02 -1.47350203E-01  1.52801745E-01 -2.04233509E-01
  0.00000000E+00 -6.70867022E-02  3.59746249E-02 -1.17393461E-01  8.97518187E-03
  1.07526601E-02  0.00000000E+00  4.33618340E-01 -2.45824766E-02 -3.13654313E-02
  0.00000000E+00 -1.42961440E-01  5.37821813E-01 -4.37119049E-03  4.43895621E-02
  0.00000000E+00 -9.08905209E-02  3.15531514E-01 -2.45257266E-01  1.96068841E-01
  0.00000000E+00  3.03163583E-01  1.20973646E-01 -3.77471078E-01 -8.92246168E-02
 -1.76118237E-01  0.00000000E+00 -2.80629910E-01 -2.13002740E-02  6.78145392E-02
 -2.35913196E-02 -4.89016239E-02  0.00000000E+00 -2.83560646E-01  7.49856879E-02
  1.58140342E-01  0.00000000E+00 -9.47490977E-02  3.93288267E-01 -6.18638565E-03
 -7.83893979E-02  0.00000000E+00  3.07028682E-02 -1.00054151E-01 -2.15813462E-01
  3.77859436E-01  0.00000000E+00  2.68871810E-01 -7.97191395E-03  4.47062095E-02
  3.88114902E-01  1.59318527E-01  0.00000000E+00  2.98729941E-01  1.14586922E-02
 -3.61381583E-02  6.66486801E-02 -5.90856292E-03  0.00000000E+00  1.58142001E-01
 -2.26319778E-01  2.56635856E-02  0.00000000E+00 -1.91681987E-02  8.20537989E-02
  1.60919507E-01  1.88318016E-02  0.00000000E+00 -7.90029286E-03  6.64744307E-02
 -3.62862194E-01 -2.74995745E-01  0.00000000E+00 -1.38848530E-01 -1.54268242E-02
  7.48574871E-02  2.59583875E-01 -4.98832732E-02  0.00000000E+00  1.74802072E-01
 -1.96220947E-02  6.00987013E-02 -1.12508385E-01 -1.40700377E-01  0.00000000E+00
 -2.96036668E-01  3.85608840E-01  4.88661901E-01  0.00000000E+00  4.25244529E-02
 -1.98892293E-01  6.75928114E-02  1.58234130E-01  0.00000000E+00  0.00000000E+00
  0.00000000E+00  0.00000000E+00  0.00000000E+00  4.17399249E-01  0.00000000E+00
  0.00000000E+00  0.00000000E+00  0.00000000E+00  0.00000000E+00  2.96660337E-01
  0.00000000E+00  0.00000000E+00  0.00000000E+00  0.00000000E+00  0.00000000E+00
 -2.13813675E-01  0.00000000E+00  0.00000000E+00  0.00000000E+00  7.83974435E-01
  0.00000000E+00  0.00000000E+00  0.00000000E+00  0.00000000E+00  6.94007049E-02
  1.25750524E-02 -5.25828564E-02 -1.37251029E-02  1.01827849E-01  0.00000000E+00
  8.25918187E-02 -5.11576398E-02  2.15705964E-01 -1.06555774E-02 -4.02582059E-01
  0.00000000E+00 -2.00460732E-01  1.89495304E-03 -5.54257977E-03  1.31865638E-01
 -5.74316049E-02  0.00000000E+00  3.22646564E-02 -4.83774252E-01  2.17927056E-01
  0.00000000E+00  8.23011641E-02 -4.13006153E-01 -1.60473049E-01  5.09213535E-01
  0.00000000E+00 -8.51656642E-03  2.75932935E-02  1.14396465E-01 -1.30357601E-01
  0.00000000E+00 -2.08287268E-01  4.00755666E-03 -3.16158955E-02 -1.55905530E-01
  2.16012560E-01  0.00000000E+00  1.85080134E-02 -1.07568604E-03  3.44532475E-03
  1.52144860E-01 -1.79306779E-01  0.00000000E+00 -1.43112364E-02 -5.69422677E-01
  6.68047845E-01  0.00000000E+00 -4.73122414E-02  2.33704929E-01  9.96954946E-02
 -2.83318626E-01  0.00000000E+00  0.00000000E+00  0.00000000E+00  0.00000000E+00
  0.00000000E+00 -4.31129040E-01  0.00000000E+00  0.00000000E+00  0.00000000E+00
  0.00000000E+00  0.00000000E+00 -5.75395965E-01  0.00000000E+00  0.00000000E+00
  0.00000000E+00  0.00000000E+00  0.00000000E+00 -1.69540173E-01  0.00000000E+00
  0.00000000E+00  0.00000000E+00  6.39714323E-01  0.00000000E+00  0.00000000E+00
  0.00000000E+00  0.00000000E+00 -1.64721795E-01 -3.19484354E-02  1.38517267E-01
  1.38960739E-01 -5.61580287E-02  0.00000000E+00 -4.74340711E-02  3.50844800E-03
 -2.27576091E-02 -5.07586346E-02 -3.79781370E-02  0.00000000E+00 -2.04709514E-01
  9.69918101E-04 -3.32254125E-03 -1.99110986E-03  2.18598726E-02  0.00000000E+00
  9.60132624E-03  4.52864563E-03 -8.07017686E-02  0.00000000E+00  1.18818652E-03
 -5.79772948E-03  9.41946215E-01  2.46993228E-01  0.00000000E+00  0.00000000E+00
  0.00000000E+00  0.00000000E+00  0.00000000E+00 -6.69724854E-01  0.00000000E+00
  0.00000000E+00  0.00000000E+00  0.00000000E+00  0.00000000E+00  3.69958415E-01
  0.00000000E+00  0.00000000E+00  0.00000000E+00  0.00000000E+00  0.00000000E+00
 -4.71271353E-02  0.00000000E+00  0.00000000E+00  0.00000000E+00  1.89716450E-01
  0.00000000E+00  0.00000000E+00  0.00000000E+00  0.00000000E+00  6.77868283E-01
 -1.43900901E-01  7.79144975E-01 -5.73336185E-01 -5.06906415E-01  0.00000000E+00
 -1.82544404E-01  1.82954882E-02 -9.48726390E-02  8.59171516E-02 -1.56634671E-01
  0.00000000E+00  2.14970327E-01 -2.34452241E-02  6.57329128E-02  1.52372661E-01
  1.51251849E-01  0.00000000E+00 -4.41807624E-01 -6.44557755E-01 -6.39429215E-01
  0.00000000E+00  1.31250269E-02 -7.77837840E-02  3.15868768E-02 -1.66445110E-01
  0.00000000E+00  0.00000000E+00  0.00000000E+00  0.00000000E+00  0.00000000E+00
  5.14593476E-01  0.00000000E+00  0.00000000E+00  0.00000000E+00  0.00000000E+00
  0.00000000E+00 -7.25862968E-01  0.00000000E+00  0.00000000E+00  0.00000000E+00
  0.00000000E+00  0.00000000E+00  2.73419149E-02  0.00000000E+00  0.00000000E+00
  0.00000000E+00 -1.12638827E-01  0.00000000E+00  0.00000000E+00  0.00000000E+00
  0.00000000E+00  7.30536499E-01  1.23200908E-01 -7.87874284E-01  9.31233267E-02
 -5.48266209E-01  0.00000000E+00  9.80877149E-01 -8.50568775E-02  4.59454337E-01
 -8.41539842E-02 -5.46892461E-01  0.00000000E+00  1.47410215E-01  1.12377307E-03
 -3.57505275E-03  2.93819644E-03 -1.84509361E-02  0.00000000E+00  1.63548672E-02
 -1.31894137E-02  7.83407762E-02  0.00000000E+00  6.31658245E-02 -3.89750852E-01
  2.09618892E-01 -5.79468213E-01  0.00000000E+00 -9.29122811E-03  9.34048297E-02
 -2.92825543E-01  3.94907515E-01  0.00000000E+00 -4.36380348E-01 -1.90403851E-01
  1.19236715E+00  4.49633474E-01  3.70156842E-03  0.00000000E+00 -9.52503922E-01
  7.21706711E-04 -1.85689976E-03 -1.36239946E-02  8.13713233E-03  0.00000000E+00
  1.58146108E-02  6.00893213E-02 -3.38850295E-02  0.00000000E+00  5.59565604E-02
 -3.44000190E-01  4.50908344E-02 -5.53167053E-01  0.00000000E+00  8.55517653E-02
 -6.22409927E-01 -4.25103724E-01 -6.30936739E-01  0.00000000E+00  6.32358727E-01
 -6.12415681E-02  4.72074403E-01 -7.87325606E-02  1.02070257E+00  0.00000000E+00
 -7.04978750E-01 -5.36196836E-03  1.32149270E-02  2.69317858E-02  2.74134529E-02
  0.00000000E+00 -1.24546349E-01 -1.26805201E-01 -1.27801843E-01  0.00000000E+00
 -4.96259575E-02  3.34891868E-01 -1.19950289E-01  4.16702932E-01  0.00000000E+00
 -9.85146870E-02  7.40882223E-01  9.38060226E-01 -5.22911217E-01  0.00000000E+00
  2.80098610E-01  8.93742361E-02 -6.60718631E-01  1.18326994E+00  3.19445462E-02
  0.00000000E+00 -4.11348802E-01 -7.07459870E-04  1.76179909E-03  1.96613485E-02
 -1.23211250E-02  0.00000000E+00 -1.65120123E-02 -8.99941709E-02  5.32427734E-02
  0.00000000E+00 -4.00940262E-03  2.84458992E-02 -1.76167793E-01 -6.11110552E-03
  0.00000000E+00
Orthonormal basis                          R   N=         676
  1.11429420E-01  3.52589109E-01  1.42156389E-01  5.81719075E-03  0.00000000E+00
  2.14189511E-01  1.16413352E-01  3.64900109E-01 -1.09325404E-01  6.99334807E-02
  0.00000000E+00  2.22100335E-01  7.64687915E-03  2.13667043E-02  1.94017594E-02
  1.37793385E-02  0.00000000E+00  8.01183617E-02  8.78583350E-02  6.21851398E-02
  0.00000000E+00  2.55909907E-02  1.00440327E-01 -4.61910662E-02  1.03442154E-01
  0.00000000E+00  1.15120180E-01  2.55360584E-01 -2.09708464E-01  1.28891478E-01
  0.00000000E+00  2.85137829E-01 -1.13245601E-01 -2.51703840E-01 -2.30291159E-01
  1.19772863E-01  0.00000000E+00 -2.21127659E-01  2.75668255E-02  5.73334894E-02
  2.25340829E-02  4.78542090E-02  0.00000000E+00  1.29458582E-01  6.85416904E-02
  1.50506093E-01  0.00000000E+00 -7.68224380E-02 -2.06871629E-01 -1.75899651E-04
 -1.91767324E-01  0.00000000E+00 -2.92310871E-02 -7.57296138E-02  9.80594051E-02
  3.72605131E-01  0.00000000E+00  1.57753058E-01  2.38013859E-03 -6.18200086E-03
  1.81592107E-01  3.69735839E-01  0.00000000E+00  2.40409268E-01 -4.87916547E-02
 -9.55850000E-02 -6.67182236E-02 -3.25561352E-02  0.00000000E+00 -1.89219388E-01
 -1.93239393E-01 -8.90586902E-02  0.00000000E+00 -6.97878033E-02 -1.72743509E-01
  1.25584149E-01 -1.02344619E-01  0.00000000E+00 -3.20393418E-02 -1.17446473E-02
 -4.30170102E-01  1.15569237E-01  0.00000000E+00  1.55265048E-01 -2.55318493E-02
 -5.61382330E-03  4.39125176E-01 -1.09798625E-01  0.00000000E+00  1.70082341E-01
  1.35041033E-01  1.87205795E-01 -8.21031334E-03  1.01980057E-01  0.00000000E+00
  1.80029450E-01 -2.31034220E-02  2.02614452E-01  0.00000000E+00  9.35329530E-02
  1.64853032E-01  1.28422663E-01  1.31224894E-01  0.00000000E+00 -3.81747636E-02
 -4.66264766E-02  8.18930929E-02 -2.14178358E-01  0.00000000E+00 -2.14744689E-01
  3.06361918E-02  2.17235373E-02 -1.50630982E-04  2.72045061E-01  0.00000000E+00
  1.64857535E-01  3.83283109E-01  4.49158502E-01  2.02446221E-02 -4.60670172E-02
  0.00000000E+00  2.35724533E-01  3.08835076E-02 -8.05464659E-02  0.00000000E+00
 -1.53493442E-01 -2.30343978E-01  3.40582943E-02 -1.07258388E-01  0.00000000E+00
 -5.35458656E-03  6.58272235E-03 -1.47069927E-01 -2.80948169E-01  0.00000000E+00
 -1.89030831E-01  1.28771689E-02  1.11359413E-02  1.34450226E-01  2.06421842E-01
  0.00000000E+00  2.10258570E-01 -2.92707905E-01 -2.82980469E-01  2.34358290E-01
  2.03654674E-01  0.00000000E+00 -1.45245525E-02  3.13693981E-01  2.73001068E-01
  0.00000000E+00 -1.62301638E-01 -2.03728908E-01  7.74965048E-02 -4.77473674E-02
  0.00000000E+00  3.28216248E-03  7.18400789E-03 -8.68991432E-02  9.36194522E-02
  0.00000000E+00  1.15785593E-01 -8.29063561E-02 -5.24986559E-02  1.07037970E-01
  6.14319380E-04  0.00000000E+00  2.99325253E-02  3.69600625E-04  2.10782626E-04
  4.62142368E-01 -4.42528508E-01  0.00000000E+00 -9.48664740E-04  4.24602151E-01
 -4.06898825E-01  0.00000000E+00  8.50770449E-02  7.81646103E-02  4.67451030E-02
 -4.58379452E-02  0.00000000E+00 -1.53782283E-02 -2.29955241E-02  1.14546221E-01
 -2.80363771E-02  0.00000000E+00 -8.33300803E-02 -9.10993204E-02 -4.17128131E-02
 -7.56801295E-02  1.96443344E-01  0.00000000E+00  4.89239200E-02  1.06279317E-01
  4.84577290E-02  9.97266810E-02  2.24668481E-01  0.00000000E+00 -1.21597627E-01
  6.25209305E-02  1.39076960E-01  0.00000000E+00  5.45942752E-01  3.58376096E-01
  1.07452916E-01 -5.00601181E-01  0.00000000E+00  1.47114110E-01  8.56586643E-02
 -1.44894595E-01 -2.09527602E-01  0.00000000E+00 -8.78435881E-02 -6.35124242E-02
 -1.56371528E-02  4.05159349E-02  1.19759980E-01  0.00000000E+00  1.11890515E-01
 -3.66488418E-01 -1.33128301E-01 -3.75800516E-01 -3.45883651E-01  0.00000000E+00
  4.61377721E-01 -1.85486950E-01 -1.70653623E-01  0.00000000E+00  1.48000231E-01
  8.27293895E-02  8.19898425E-02 -2.15792017E-01  0.00000000E+00  6.76007725E-01
  5.24358578E-02  1.00526119E-01 -7.01274862E-02  0.00000000E+00 -1.35396552E-01
 -2.78950547E-01 -3.03299189E-02  2.05559536E-02 -3.85664840E-02  0.00000000E+00
 -4.74992096E-02  1.25628085E-01  5.92520379E-03 -3.39717889E-02 -1.09230559E-02
  0.00000000E+00 -1.96288890E-01 -5.22688979E-04  2.26954826E-03  0.00000000E+00
 -1.65732255E-02 -4.74588344E-03  5.69206719E-01  2.21225712E-01  0.00000000E+00
 -1.08018347E-01 -1.12016330E-03 -4.20199230E-02  1.08887985E-02  0.00000000E+00
  2.26459647E-02  7.93818359E-01 -1.45448582E-02 -7.79776749E-02 -2.29637183E-02
  0.00000000E+00 -2.29749636E-01 -3.28845632E-02  1.39976051E-03  5.45973269E-02
 -5.48268464E-02  0.00000000E+00  4.68997257E-02 -9.70215592E-03  6.71322829E-03
  0.00000000E+00  8.87604889E-03  3.66219946E-03  5.66346220E-01 -7.09955655E-02
  0.00000000E+00  6.25384717E-01 -7.86120604E-02 -1.85464699E-01  2.93287531E-02
  0.00000000E+00 -9.51331146E-02  4.58929724E-01 -5.10693237E-02  1.81792233E-01
 -1.77232113E-02  0.00000000E+00  3.88632054E-02  1.25375283E-01 -1.80228418E-02
 -2.37542086E-02 -7.99685335E-02  0.00000000E+00 -2.00600734E-01  6.71969152E-03
  1.93416330E-02  0.00000000E+00 -2.40604411E-02  3.16106828E-03 -5.08203006E-01
 -2.47615943E-01  0.00000000E+00  2.62757142E-01 -1.15304605E-01  1.47978695E-01
  1.64999172E-01  0.00000000E+00 -3.91267432E-02  5.57001020E-02 -4.02302683E-02
  1.99009411E-02  1.12840854E-02  0.00000000E+00 -5.80599488E-02 -3.03387922E-01
  1.18912860E-01  5.06212442E-01  4.83765947E-01  0.00000000E+00  4.49168141E-01
 -3.07600796E-01 -2.93831560E-01  0.00000000E+00  1.48526579E-01 -8.73079208E-02
 -8.39425737E-02  1.34680801E-01  0.00000000E+00 -2.94831268E-02  9.33787542E-03
 -6.93894044E-02 -4.88198683E-02  0.00000000E+00 -4.72496617E-02  1.06787494E-01
 -8.51108195E-02 -4.95326119E-02  1.86921162E-01  0.00000000E+00 -1.88445153E-02
  4.77321963E-02 -2.21935005E-02 -6.17359069E-02 -1.79323071E-01  0.00000000E+00
 -7.26569387E-02  4.09264141E-02  1.26903656E-01  0.00000000E+00  7.60659869E-01
 -5.10450503E-01 -1.19294775E-01  4.73600499E-01  0.00000000E+00  1.07287937E-02
 -6.38125675E-03 -4.27536315E-02  2.57690590E-02  0.00000000E+00  9.71320978E-02
  7.68859719E-02 -6.08152815E-02  7.72227930E-02  3.42560828E-03  0.00000000E+00
 -7.20417965E-03 -3.55914795E-04  1.33701509E-04 -5.57764037E-01  5.50579119E-01
  0.00000000E+00 -1.61897719E-03  5.79443780E-01 -5.73045648E-01  0.00000000E+00
  7.29821976E-02 -7.17009389E-02  2.05832684E-02  3.47700689E-02  0.00000000E+00
  5.31294428E-02 -8.78196858E-02  1.30739044E-01  1.32787420E-01  0.00000000E+00
 -2.88663383E-02  4.75622045E-03 -1.37133488E-02  2.35264297E-02  1.69945422E-03
  0.00000000E+00 -4.24205900E-02 -7.66424545E-01  8.68180573E-01 -1.38177812E-01
 -1.37614562E-01  0.00000000E+00 -2.72617179E-01  2.41909628E-01  2.40666010E-01
  0.00000000E+00 -2.01799368E-02  3.46635222E-02 -2.33355400E-02  1.60562953E-02
  0.00000000E+00  1.00704078E-01 -2.45756005E-01  4.43324333E-01  6.09656589E-01
  0.00000000E+00 -3.34636681E-01  4.18458655E-02 -1.17451591E-01  1.28196974E-01
  4.15696618E-01  0.00000000E+00 -3.63091938E-01  1.48007730E-01 -2.57216669E-01
 -1.83425976E-01 -1.67564033E-01  0.00000000E+00  6.13047175E-01  5.10334385E-01
  4.66750433E-01  0.00000000E+00 -1.21272453E-01  3.81211652E-01 -1.21578948E-01
  2.95458449E-01  0.00000000E+00 -8.49657151E-02  2.31160085E-01 -6.88277106E-01
 -2.14524573E-02  0.00000000E+00 -3.70911906E-01  7.52390060E-02 -1.82613420E-01
 -4.50133071E-01  8.13991592E-01  0.00000000E+00 -4.71820423E-02 -5.60086648E-02
  1.06828569E-01  7.08199615E-02  1.02093837E-01  0.00000000E+00 -3.33004413E-01
 -2.24013368E-01 -3.19516077E-01  0.00000000E+00 -1.90696630E-01  6.95703069E-01
 -1.12794052E-01  5.70219783E-01  0.00000000E+00  2.64310559E-02 -1.35371294E-01
 -3.07850171E-01  7.47464273E-01  0.00000000E+00 -5.76566999E-01  5.36141200E-02
 -2.06181238E-01 -8.86184304E-01 -6.13156939E-01  0.00000000E+00  9.82251548E-01
  1.77109597E-02 -3.60825036E-02 -4.74358493E-02 -2.00229697E-02  0.00000000E+00
  1.54707149E-01  1.69517235E-01  7.41072536E-02  0.00000000E+00  2.81612355E-02
 -1.31716236E-01  1.47618077E-01 -6.00269808E-02  0.00000000E+00  1.76559890E-01
 -7.70064233E-01  3.16944368E-01 -5.92153617E-01  0.00000000E+00  9.38023322E-01
  1.79869457E-01 -7.75336871E-01 -3.75872293E-01  1.20401976E-01  0.00000000E+00
  5.86289901E-01  1.49630061E-02 -3.25558741E-02 -1.56394911E-02 -4.58189585E-02
  0.00000000E+00  1.11371492E-01  5.31362697E-02  1.57364517E-01  0.00000000E+00
 -8.61713923E-02  3.62499389E-01 -2.29175891E-02  3.32998560E-01  0.00000000E+00
  2.39244151E-01 -1.29668937E+00 -7.11391520E-01  5.67460192E-02  0.00000000E+00
  3.81040412E-01 -2.48839880E-01  1.34945193E+00 -6.18526336E-01  2.88576953E-01
  0.00000000E+00 -3.99516815E-01  8.99032352E-03 -2.21800691E-02 -3.19663035E-02
 -1.35838324E-02  0.00000000E+00  9.88965171E-02  1.29403206E-01  5.40700440E-02
  0.00000000E+00  3.35244911E-02 -1.60229316E-01  1.00720718E-01 -1.38693128E-01
  0.00000000E+00  0.00000000E+00  0.00000000E+00  0.00000000E+00  0.00000000E+00
  4.83708547E-01  0.00000000E+00  0.00000000E+00  0.00000000E+00  0.00000000E+00
  0.00000000E+00  4.65902703E-01  0.00000000E+00  0.00000000E+00  0.00000000E+00
  0.00000000E+00  0.00000000E+00  2.84004939E-01  0.00000000E+00  0.00000000E+00
  0.00000000E+00  3.97726405E-01  0.00000000E+00  0.00000000E+00  0.00000000E+00
  0.00000000E+00  2.44945111E-01  0.00000000E+00  0.00000000E+00  0.00000000E+00
  0.00000000E+00 -1.77590648E-01  0.00000000E+00  0.00000000E+00  0.00000000E+00
  0.00000000E+00  0.00000000E+00 -4.03081940E-01  0.00000000E+00  0.00000000E+00
  0.00000000E+00  0.00000000E+00  0.00000000E+00  5.50286296E-01  0.00000000E+00
  0.00000000E+00  0.00000000E+00  4.86737494E-01  0.00000000E+00  0.00000000E+00
  0.00000000E+00  0.00000000E+00 -3.10981098E-01  0.00000000E+00  0.00000000E+00
  0.00000000E+00  0.00000000E+00 -5.40003405E-01  0.00000000E+00  0.00000000E+00
  0.00000000E+00  0.00000000E+00  0.00000000E+00 -2.22163245E-02  0.00000000E+00
  0.00000000E+00  0.00000000E+00  0.00000000E+00  0.00000000E+00  2.71454044E-01
  0.00000000E+00  0.00000000E+00  0.00000000E+00 -7.40731891E-03  0.00000000E+00
  0.00000000E+00  0.00000000E+00  0.00000000E+00  8.05922212E-01  0.00000000E+00
  0.00000000E+00  0.00000000E+00  0.00000000E+00 -2.29803132E-01  0.00000000E+00
  0.00000000E+00  0.00000000E+00  0.00000000E+00  0.00000000E+00  5.46657876E-01
  0.00000000E+00  0.00000000E+00  0.00000000E+00  0.00000000E+00  0.00000000E+00
  6.53636519E-01  0.00000000E+00  0.00000000E+00  0.00000000E+00 -6.03071947E-01
  0.00000000E+00  0.00000000E+00  0.00000000E+00  0.00000000E+00 -3.64612320E-01
  0.00000000E+00  0.00000000E+00  0.00000000E+00  0.00000000E+00  6.80820346E-01
  0.00000000E+00  0.00000000E+00  0.00000000E+00  0.00000000E+00  0.00000000E+00
 -6.35582752E-01  0.00000000E+00  0.00000000E+00  0.00000000E+00  0.00000000E+00
  0.00000000E+00  4.16471150E-01  0.00000000E+00  0.00000000E+00  0.00000000E+00
 -5.61445849E-01  0.00000000E+00  0.00000000E+00  0.00000000E+00  0.00000000E+00
  2.93221111E-01
Total SCF Density                          R   N=         351
  2.07401711E+00 -2.41533496E-01  9.38645957E-01 -1.26550948E-02  9.16125287E-03
  6.17028412E-01 -9.78958778E-03  1.37102895E-02 -8.04201970E-02  6.01173311E-01
  0.00000000E+00  0.00000000E+00  0.00000000E+00  0.00000000E+00  7.20208143E-01
 -1.12225588E-01  2.89755584E-01 -1.83479451E-01  4.98098927E-01  0.00000000E+00
  5.41757416E-01  2.66646853E-02 -6.95494720E-02 -1.06340698E-01  3.89236331E-02
  0.00000000E+00  2.85224334E-02  2.07072408E+00 -6.29010221E-02  8.15555646E-02
  2.40531727E-01 -9.54796698E-02  0.00000000E+00 -8.60553838E-02 -2.21367163E-01
  8.57961425E-01  1.14144640E-01 -3.05710924E-01 -3.97050871E-01  1.39356262E-01
  0.00000000E+00  8.71664948E-02 -1.19832533E-02  7.75668491E-02  5.63769551E-01
 -2.44086043E-02  5.43159373E-02  1.32583536E-01 -1.63234400E-02  0.00000000E+00
 -9.19863905E-02  2.55389804E-03 -5.21946193E-02  1.06989443E-02  6.35170403E-01
  0.00000000E+00  0.00000000E+00  0.00000000E+00  0.00000000E+00  7.43789852E-01
  0.00000000E+00  0.00000000E+00  0.00000000E+00  0.00000000E+00  0.00000000E+00
  8.38175871E-01  4.04686932E-02 -1.50942124E-01 -1.22371382E-01  6.34000537E-03
  0.00000000E+00 -5.02214376E-02 -1.13662144E-01  2.94073328E-01  3.67829595E-01
  3.73793371E-01  0.00000000E+00  5.90192228E-01 -1.28506974E-03 -1.81704077E-03
 -6.83081852E-03 -7.26058179E-03  0.00000000E+00 -3.57763938E-03  8.74735065E-04
 -2.26831151E-03  3.94725349E-03  3.19181939E-03  0.00000000E+00  2.69673965E-03
  2.27804235E+00  4.72773880E-03  6.27845850E-03  2.26008800E-02  2.35002574E-02
  0.00000000E+00  1.20647986E-02 -2.99574848E-03  7.88743075E-03 -1.29863006E-02
 -9.62549915E-03  0.00000000E+00 -8.61534622E-03 -8.14477963E-01  2.38892562E+00
  2.46914412E-02 -9.52403831E-02  1.00053375E-01  1.04970909E-01  0.00000000E+00
  2.84851940E-03 -1.02946949E-02  4.30653883E-02 -4.57291827E-02 -3.34368136E-03
  0.00000000E+00 -3.57167564E-02  4.73683192E-03 -1.32687032E-02  2.07618519E+00
  2.45299719E-02 -9.16236589E-02  1.09527058E-01  9.37066831E-02  0.00000000E+00
  6.18492397E-02 -1.40609358E-04 -6.06607915E-03 -5.77593437E-03 -1.12644127E-02
  0.00000000E+00 -1.88575246E-02  4.72505110E-03 -1.32928151E-02 -3.75984558E-02
  2.07652056E+00  0.00000000E+00  0.00000000E+00  0.00000000E+00  0.00000000E+00
 -3.84681262E-02  0.00000000E+00  0.00000000E+00  0.00000000E+00  0.00000000E+00
  0.00000000E+00  6.87454489E-02  0.00000000E+00  0.00000000E+00  0.00000000E+00
  0.00000000E+00  0.00000000E+00  2.10976296E+00  1.57878365E-02 -1.81147137E-01
  2.21346959E-02  1.05017479E-02  0.00000000E+00 -4.19960105E-02  9.83695560E-03
 -1.84872235E-02  4.81618159E-02  4.62943738E-02  0.00000000E+00  3.45379475E-02
  1.43552321E-01 -4.98800869E-01  7.67073565E-02  7.60430519E-02  0.00000000E+00
  2.11698187E+00 -7.40972986E-02  2.50371289E-01 -3.33879916E-01 -3.10030739E-01
  0.00000000E+00 -4.32308196E-03  4.05330212E-02 -1.56901358E-01  1.77563727E-01
  1.82683414E-02  0.00000000E+00  1.35520700E-01 -1.68325633E-02  4.73915095E-02
 -3.42229836E-01  1.47883344E-01  0.00000000E+00 -2.45310792E-01  1.54893883E+00
 -7.39511764E-02  2.39856118E-01 -3.23945323E-01 -3.13198692E-01  0.00000000E+00
 -2.36244594E-01 -1.51157568E-03  2.72278631E-02  1.69619365E-02  4.23105930E-02
  0.00000000E+00  7.08276826E-02 -1.68105249E-02  4.75633554E-02  1.47986957E-01
 -3.43731690E-01  0.00000000E+00 -2.43441908E-01 -5.63896239E-01  1.55504339E+00
  0.00000000E+00  0.00000000E+00  0.00000000E+00  0.00000000E+00  1.02617408E-01
  0.00000000E+00  0.00000000E+00  0.00000000E+00  0.00000000E+00  0.00000000E+00
 -2.71010010E-01  0.00000000E+00  0.00000000E+00  0.00000000E+00  0.00000000E+00
  0.00000000E+00 -4.74409606E-01  0.00000000E+00  0.00000000E+00  0.00000000E+00
  2.05078386E+00 -2.88996582E-03  7.80847257E-03  3.76340595E-03 -1.55687975E-02
  0.00000000E+00 -5.75591427E-03  6.27958455E-03  4.40790865E-03 -5.66311078E-03
  2.95706133E-02  0.00000000E+00  9.36418862E-03  1.38205196E-04 -6.13945690E-04
 -1.49578376E-03  3.27581654E-04  0.00000000E+00  6.66937244E-04  5.42083621E-03
 -2.10455805E-03  0.00000000E+00  2.11049032E+00  9.49084081E-03 -1.72760336E-02
 -3.41137302E-03  6.60702534E-02  0.00000000E+00  1.66325267E-02  8.89262505E-03
 -1.74714066E-01 -1.90142893E-02  3.10212606E-02  0.00000000E+00 -2.72897551E-02
 -1.06578150E-04  1.09254131E-03  4.81338637E-03 -2.20248756E-03  0.00000000E+00
  3.24459513E-03 -1.68903201E-02  1.16367978E-02  0.00000000E+00 -4.71664931E-01
  2.06984512E+00 -4.90703178E-02  2.38330223E-01  1.66667640E-01 -7.90687233E-02
  0.00000000E+00 -9.57655111E-02  3.16919525E-02 -1.21190586E-01  3.93475470E-02
  1.54109069E-01  0.00000000E+00 -2.00740428E-01  1.27841007E-03 -4.99228063E-03
 -6.74879178E-03  3.59241391E-03  0.00000000E+00  1.31264265E-02  2.56789961E-02
 -1.78267814E-02  0.00000000E+00 -2.28873244E-02  1.20062175E-01  1.90969570E+00
  9.56726260E-03 -2.21300757E-02 -7.19293269E-02  3.38087865E-02  0.00000000E+00
  8.99168360E-02 -1.21103733E-01  4.12181500E-01  1.72787264E-01 -5.71528375E-01
  0.00000000E+00 -1.86145985E-01 -1.39590325E-03  4.29866113E-03  1.71335733E-02
  1.81883026E-02  0.00000000E+00 -2.08031488E-02 -6.44390136E-02 -7.11911318E-02
  0.00000000E+00  9.35788967E-02 -4.85706834E-01  2.64481904E-01  9.00867737E-01
  0.00000000E+00  0.00000000E+00  0.00000000E+00  0.00000000E+00  1.99969022E-01
  0.00000000E+00  0.00000000E+00  0.00000000E+00  0.00000000E+00  0.00000000E+00
  2.30737327E-01  0.00000000E+00  0.00000000E+00  0.00000000E+00  0.00000000E+00
  0.00000000E+00  2.59475148E-02  0.00000000E+00  0.00000000E+00  0.00000000E+00
 -1.01942097E-01  0.00000000E+00  0.00000000E+00  0.00000000E+00  0.00000000E+00
  6.38994817E-02
Mulliken Charges                           R   N=           6
  2.53350672E-02  1.18030711E-01 -4.82096537E-02  7.50460207E-02 -8.67265313E-02
 -8.34756140E-02
ONIOM Charges                              I   N=          16
           0           0           0           0           0           0
           0           0           0           0           0           0
           0           0           0           0
ONIOM Multiplicities                       I   N=          16
           1           0           0           0           0           0
           0           0           0           0           0           0
           0           0           0           0
Atom Layers                                I   N=           6
           1           1           1           1           1           1
Atom Modifiers                             I   N=           6
           0           0           0           0           0           0
Int Atom Modified Types                    I   N=           6
           0           0           0           0           0           0
Force Field                                I                0
Atom Modified Types                        C   N=           6
                                                            
            
Link Atoms                                 I   N=           6
           0           0           0           0           0           0
Atom Modified MM Charges                   R   N=           6
  0.00000000E+00  0.00000000E+00  0.00000000E+00  0.00000000E+00  0.00000000E+00
  0.00000000E+00
Link Distances                             R   N=          24
  0.00000000E+00  0.00000000E+00  0.00000000E+00  0.00000000E+00  0.00000000E+00
  0.00000000E+00  0.00000000E+00  0.00000000E+00  0.00000000E+00  0.00000000E+00
  0.00000000E+00  0.00000000E+00  0.00000000E+00  0.00000000E+00  0.00000000E+00
  0.00000000E+00  0.00000000E+00  0.00000000E+00  0.00000000E+00  0.00000000E+00
  0.00000000E+00  0.00000000E+00  0.00000000E+00  0.00000000E+00
Cartesian Gradient                         R   N=          18
  0.00000000E+00  0.00000000E+00  0.00000000E+00  0.00000000E+00  0.00000000E+00
  0.00000000E+00  0.00000000E+00  0.00000000E+00  0.00000000E+00  0.00000000E+00
  0.00000000E+00  0.00000000E+00  0.00000000E+00  0.00000000E+00  0.00000000E+00
  0.00000000E+00  0.00000000E+00  0.00000000E+00
Nonadiabatic coupling                      R   N=          18
  0.00000000E+00  0.00000000E+00  0.00000000E+00  0.00000000E+00  0.00000000E+00
  0.00000000E+00  0.00000000E+00  0.00000000E+00  0.00000000E+00  0.00000000E+00
  0.00000000E+00  0.00000000E+00  0.00000000E+00  0.00000000E+00  0.00000000E+00
  0.00000000E+00  0.00000000E+00  0.00000000E+00
Dipole Moment                              R   N=           3
  4.17553656E-02  1.15439099E+00  0.00000000E+00
Quadrupole Moment                          R   N=           6
 -1.89445274E+00  8.60780300E-01  1.03367244E+00  1.31207420E+00  0.00000000E+00
  0.00000000E+00
QEq coupling tensors                       R   N=          36
 -2.99605191E-02 -1.96313469E-01 -6.96822132E-02  0.00000000E+00  0.00000000E+00
  9.96427323E-02  1.37561326E-01  1.38523549E-01 -3.23770875E-01  0.00000000E+00
  0.00000000E+00  1.86209549E-01 -1.54110567E-01  2.33163759E-02 -7.40103306E-02
  0.00000000E+00  0.00000000E+00  2.28120898E-01 -1.00656905E-01 -2.67093493E-01
 -8.58884624E-02  0.00000000E+00  0.00000000E+00  1.86545367E-01 -8.36884597E-01
 -2.78504910E+00 -8.12668072E-01  0.00000000E+00  0.00000000E+00  1.64955267E+00
  2.53907886E+00  6.66916776E-01  4.05792220E-03  0.00000000E+00  0.00000000E+00
 -2.54313678E+00
ClPar MaxAn                                I              200
ClPar NIntPar                              I                4
ClPar NRealPar                             I               16
ClPar NBits                                I               30
ClPar LenBitVec                            I                1
ClPar Read BitMap                          I   N=         200
           0           0           0           0           0           0
           0           0           0           0           0           0
           0           0           0           0           0           0
           0           0           0           0           0           0
           0           0           0           0           0           0
           0           0           0           0           0           0
           0           0           0           0           0           0
           0           0           0           0           0           0
           0           0           0           0           0           0
           0           0           0           0           0           0
           0           0           0           0           0           0
           0           0           0           0           0           0
           0           0           0           0           0           0
           0           0           0           0           0           0
           0           0           0           0           0           0
           0           0           0           0           0           0
           0           0           0           0           0           0
           0           0           0           0           0           0
           0           0           0           0           0           0
           0           0           0           0           0           0
           0           0           0           0           0           0
           0           0           0           0           0           0
           0           0           0           0           0           0
           0           0           0           0           0           0
           0           0           0           0           0           0
           0           0           0           0           0           0
           0           0           0           0           0           0
           0           0           0           0           0           0
           0           0           0           0           0           0
           0           0           0           0           0           0
           0           0           0           0           0           0
           0           0           0           0           0           0
           0           0           0           0           0           0
           0           0
ClPar Default BitMap                       I   N=         200
        2016        2016        2016        2016        2016        2016
        2016        2016        2016        2016        2016        2016
        2016        2016        2016        2016        2016        2016
        2016        2016        2016        2016        2016        2016
        2016        2016        2016        2016        2016        2016
        2016        2016        2016        2016        2016        2016
        2016        2016        2016        2016        2016        2016
        2016        2016        2016        2016        2016        2016
        2016        2016        2016        2016        2016        2016
        2016        2016        2016        2016        2016        2016
        2016        2016        2016        2016        2016        2016
        2016        2016        2016        2016        2016        2016
        2016        2016        2016        2016        2016        2016
        2016        2016        2016        2016        2016        2016
        2016        2016         480         480         480         480
         480         480         480         480         480         480
         480         480         480         480         480         480
         480         480         480         480         480         480
         480         480         480         480         480         480
         480         480         480         480         480         480
         480         480         480         480         480         480
         480         480         480         480         480         480
         480         480         480         480         480         480
         480         480         480         480         480         480
         480         480         480         480         480         480
         480         480         480         480         480         480
         480         480         480         480         480         480
         480         480         480         480         480         480
         480         480         480         480         480         480
         480         480         480         480         480         480
         480         480         480         480         480         480
         480         480         480         480         480         480
         480         480         480         480         480         480
         480         480
ClPar Int Params                           I   N=         800
           0           0           0           0           0           0
           0           0           0           0           0           0
           0           0           0           0           0           0
           0           0           0           0           0           0
           0           0           0           0           0           0
           0           0           0           0           0           0
           0           0           0           0           0           0
           0           0           0           0           0           0
           0           0           0           0           0           0
           0           0           0           0           0           0
           0           0           0           0           0           0
           0           0           0           0           0           0
           0           0           0           0           0           0
           0           0           0           0           0           0
           0           0           0           0           0           0
           0           0           0           0           0           0
           0           0           0           0           0           0
           0           0           0           0           0           0
           0           0           0           0           0           0
           0           0           0           0           0           0
           0           0           0           0           0           0
           0           0           0           0           0           0
           0           0           0           0           0           0
           0           0           0           0           0           0
           0           0           0           0           0           0
           0           0           0           0           0           0
           0           0           0           0           0           0
           0           0           0           0           0           0
           0           0           0           0           0           0
           0           0           0           0           0           0
           0           0           0           0           0           0
           0           0           0           0           0           0
           0           0           0           0           0           0
           0           0           0           0           0           0
           0           0           0           0           0           0
           0           0           0           0           0           0
           0           0           0           0           0           0
           0           0           0           0           0           0
           0           0           0           0           0           0
           0           0           0           0           0           0
           0           0           0           0           0           0
           0           0           0           0           0           0
           0           0           0           0           0           0
           0           0           0           0           0           0
           0           0           0           0           0           0
           0           0           0           0           0           0
           0           0           0           0           0           0
           0           0           0           0           0           0
           0           0           0           0           0           0
           0           0           0           0           0           0
           0           0           0           0           0           0
           0           0           0           0           0           0
           0           0           0           0           0           0
           0           0           0           0           0           0
           0           0           0           0           0           0
           0           0           0           0           0           0
           0           0           0           0           0           0
           0           0           0           0           0           0
           0           0           0           0           0           0
           0           0           0           0           0           0
           0           0           0           0           0           0
           0           0           0           0           0           0
           0           0           0           0           0           0
           0           0           0           0           0           0
           0           0           0           0           0           0
           0           0           0           0           0           0
           0           0           0           0           0           0
           0           0           0           0           0           0
           0           0           0           0           0           0
           0           0           0           0           0           0
           0           0           0           0           0           0
           0           0           0           0           0           0
           0           0           0           0           0           0
           0           0           0           0           0           0
           0           0           0           0           0           0
           0           0           0           0           0           0
           0           0           0           0           0           0
           0           0           0           0           0           0
           0           0           0           0           0           0
           0           0           0           0           0           0
           0           0           0           0           0           0
           0           0           0           0           0           0
           0           0           0           0           0           0
           0           0           0           0           0           0
           0           0           0           0           0           0
           0           0           0           0           0           0
           0           0           0           0           0           0
           0           0           0           0           0           0
           0           0           0           0           0           0
           0           0           0           0           0           0
           0           0           0           0           0           0
           0           0           0           0           0           0
           0           0           0           0           0           0
           0           0           0           0           0           0
           0           0           0           0           0           0
           0           0           0           0           0           0
           0           0           0           0           0           0
           0           0           0           0           0           0
           0           0           0           0           0           0
           0           0           0           0           0           0
           0           0           0           0           0           0
           0           0           0           0           0           0
           0           0           0           0           0           0
           0           0           0           0           0           0
           0           0           0           0           0           0
           0           0           0           0           0           0
           0           0           0           0           0           0
           0           0           0           0           0           0
           0           0           0           0           0           0
           0           0           0           0           0           0
           0           0           0           0           0           0
           0           0           0           0           0           0
           0           0           0           0           0           0
           0           0           0           0           0           0
           0           0           0           0           0           0
           0           0           0           0           0           0
           0           0           0           0           0           0
           0           0           0           0           0           0
           0           0           0           0           0           0
           0           0           0           0           0           0
           0           0           0           0           0           0
           0           0           0           0           0           0
           0           0           0           0           0           0
           0           0           0           0           0           0
           0           0           0           0           0           0
           0           0           0           0           0           0
           0           0           0           0           0           0
           0           0           0           0           0           0
           0           0           0           0           0           0
           0           0           0           0           0           0
           0           0           0           0           0           0
           0           0           0           0           0           0
           0           0           0           0           0           0
           0           0
ClPar Real Params                          R   N=        3200
  0.00000000E+00  0.00000000E+00  0.00000000E+00  0.00000000E+00  0.00000000E+00
  0.00000000E+00  0.00000000E+00  0.00000000E+00  0.00000000E+00  0.00000000E+00
  0.00000000E+00  0.00000000E+00  0.00000000E+00  0.00000000E+00  0.00000000E+00
  0.00000000E+00  0.00000000E+00  0.00000000E+00  0.00000000E+00  0.00000000E+00
  0.00000000E+00  0.00000000E+00  0.00000000E+00  0.00000000E+00  0.00000000E+00
  0.00000000E+00  0.00000000E+00  0.00000000E+00  0.00000000E+00  0.00000000E+00
  0.00000000E+00  0.00000000E+00  0.00000000E+00  0.00000000E+00  0.00000000E+00
  0.00000000E+00  0.00000000E+00  0.00000000E+00  0.00000000E+00  0.00000000E+00
  0.00000000E+00  0.00000000E+00  0.00000000E+00  0.00000000E+00  0.00000000E+00
  0.00000000E+00  0.00000000E+00  0.00000000E+00  0.00000000E+00  0.00000000E+00
  0.00000000E+00  0.00000000E+00  0.00000000E+00  0.00000000E+00  0.00000000E+00
  0.00000000E+00  0.00000000E+00  0.00000000E+00  0.00000000E+00  0.00000000E+00
  0.00000000E+00  0.00000000E+00  0.00000000E+00  0.00000000E+00  0.00000000E+00
  0.00000000E+00  0.00000000E+00  0.00000000E+00  0.00000000E+00  0.00000000E+00
  0.00000000E+00  0.00000000E+00  0.00000000E+00  0.00000000E+00  0.00000000E+00
  0.00000000E+00  0.00000000E+00  0.00000000E+00  0.00000000E+00  0.00000000E+00
  0.00000000E+00  0.00000000E+00  0.00000000E+00  0.00000000E+00  0.00000000E+00
  0.00000000E+00  0.00000000E+00  0.00000000E+00  0.00000000E+00  0.00000000E+00
  0.00000000E+00  0.00000000E+00  0.00000000E+00  0.00000000E+00  0.00000000E+00
  0.00000000E+00  0.00000000E+00  0.00000000E+00  0.00000000E+00  0.00000000E+00
  0.00000000E+00  0.00000000E+00  0.00000000E+00  0.00000000E+00  0.00000000E+00
  0.00000000E+00  0.00000000E+00  0.00000000E+00  0.00000000E+00  0.00000000E+00
  0.00000000E+00  0.00000000E+00  0.00000000E+00  0.00000000E+00  0.00000000E+00
  0.00000000E+00  0.00000000E+00  0.00000000E+00  0.00000000E+00  0.00000000E+00
  0.00000000E+00  0.00000000E+00  0.00000000E+00  0.00000000E+00  0.00000000E+00
  0.00000000E+00  0.00000000E+00  0.00000000E+00  0.00000000E+00  0.00000000E+00
  0.00000000E+00  0.00000000E+00  0.00000000E+00  0.00000000E+00  0.00000000E+00
  0.00000000E+00  0.00000000E+00  0.00000000E+00  0.00000000E+00  0.00000000E+00
  0.00000000E+00  0.00000000E+00  0.00000000E+00  0.00000000E+00  0.00000000E+00
  0.00000000E+00  0.00000000E+00  0.00000000E+00  0.00000000E+00  0.00000000E+00
  0.00000000E+00  0.00000000E+00  0.00000000E+00  0.00000000E+00  0.00000000E+00
  0.00000000E+00  0.00000000E+00  0.00000000E+00  0.00000000E+00  0.00000000E+00
  0.00000000E+00  0.00000000E+00  0.00000000E+00  0.00000000E+00  0.00000000E+00
  0.00000000E+00  0.00000000E+00  0.00000000E+00  0.00000000E+00  0.00000000E+00
  0.00000000E+00  0.00000000E+00  0.00000000E+00  0.00000000E+00  0.00000000E+00
  0.00000000E+00  0.00000000E+00  0.00000000E+00  0.00000000E+00  0.00000000E+00
  0.00000000E+00  0.00000000E+00  0.00000000E+00  0.00000000E+00  0.00000000E+00
  0.00000000E+00  0.00000000E+00  0.00000000E+00  0.00000000E+00  0.00000000E+00
  0.00000000E+00  0.00000000E+00  0.00000000E+00  0.00000000E+00  0.00000000E+00
  0.00000000E+00  0.00000000E+00  0.00000000E+00  0.00000000E+00  0.00000000E+00
  2.26000000E-01  4.43000000E-01  1.01000000E-01  1.47000000E-01  1.92000000E-01
  2.40000000E-01  2.75000000E-01  3.03000000E-01  3.25000000E-01  4.13000000E-01
  9.60000000E-02  1.35000000E-01  1.73000000E-01  2.11000000E-01  2.48000000E-01
  2.86000000E-01  3.23000000E-01  3.60000000E-01  8.20000000E-02  1.04000000E-01
  1.17000000E-01  1.23000000E-01  1.29000000E-01  1.34000000E-01  1.40000000E-01
  1.44000000E-01  1.48000000E-01  1.52000000E-01  1.55000000E-01  1.76000000E-01
  1.98000000E-01  2.19000000E-01  2.39000000E-01  2.60000000E-01  2.80000000E-01
  3.00000000E-01  7.90000000E-02  9.90000000E-02  1.19000000E-01  1.26000000E-01
  1.33000000E-01  1.40000000E-01  1.47000000E-01  1.53000000E-01  1.58000000E-01
  1.63000000E-01  1.57000000E-01  1.70000000E-01  1.87000000E-01  2.03000000E-01
  2.19000000E-01  2.34000000E-01  2.50000000E-01  2.65000000E-01  7.40000000E-02
  9.20000000E-02  1.05000000E-01  1.06000000E-01  1.07000000E-01  1.08000000E-01
  1.09000000E-01  1.10000000E-01  1.11000000E-01  1.12000000E-01  1.13000000E-01
  1.14000000E-01  1.15000000E-01  1.16000000E-01  1.17000000E-01  1.17000000E-01
  1.26000000E-01  1.36000000E-01  1.46000000E-01  1.55000000E-01  1.65000000E-01
  1.73000000E-01  1.82000000E-01  1.90000000E-01  1.62000000E-01  1.78000000E-01
  1.10000000E-01  1.35000000E-01  1.59000000E-01  1.83000000E-01  2.07000000E-01
  2.31000000E-01  6.90000000E-02  9.40000000E-02  1.02000000E-01  1.03000000E-01
  1.05000000E-01  1.07000000E-01  1.09000000E-01  1.11000000E-01  1.13000000E-01
  1.15000000E-01  1.17000000E-01  1.19000000E-01  1.20000000E-01  1.22000000E-01
  1.24000000E-01  1.26000000E-01  1.28000000E-01  1.28000000E-01  1.28000000E-01
  1.28000000E-01  1.28000000E-01  1.28000000E-01  1.28000000E-01  1.28000000E-01
  1.28000000E-01  1.28000000E-01  1.28000000E-01  1.28000000E-01  1.28000000E-01
  1.28000000E-01  1.28000000E-01  1.28000000E-01  1.28000000E-01  1.28000000E-01
  1.28000000E-01  1.28000000E-01  1.28000000E-01  1.28000000E-01  1.28000000E-01
  1.28000000E-01  1.28000000E-01  1.28000000E-01  1.28000000E-01  1.28000000E-01
  1.28000000E-01  1.28000000E-01  1.28000000E-01  1.28000000E-01  1.28000000E-01
  1.28000000E-01  1.28000000E-01  1.28000000E-01  1.28000000E-01  1.28000000E-01
  1.28000000E-01  1.28000000E-01  1.28000000E-01  1.28000000E-01  1.28000000E-01
  1.28000000E-01  1.28000000E-01  1.28000000E-01  1.28000000E-01  1.28000000E-01
  1.28000000E-01  1.28000000E-01  1.28000000E-01  1.28000000E-01  1.28000000E-01
  1.28000000E-01  1.28000000E-01  1.28000000E-01  1.28000000E-01  1.28000000E-01
  1.28000000E-01  1.28000000E-01  1.28000000E-01  1.28000000E-01  1.28000000E-01
  1.28000000E-01  1.28000000E-01  1.28000000E-01  1.28000000E-01  1.28000000E-01
  1.28000000E-01  1.28000000E-01  1.28000000E-01  1.28000000E-01  1.28000000E-01
  1.28000000E-01  1.28000000E-01  1.28000000E-01  1.28000000E-01  1.28000000E-01
  1.28000000E-01  1.28000000E-01  1.28000000E-01  1.28000000E-01  1.28000000E-01
  1.28000000E-01  1.28000000E-01  1.28000000E-01  1.28000000E-01  1.28000000E-01
  1.28000000E-01  1.28000000E-01  1.28000000E-01  1.28000000E-01  1.28000000E-01
  1.28000000E-01  1.28000000E-01  1.28000000E-01  1.28000000E-01  1.28000000E-01
  5.47000000E-01  5.92000000E-01  5.99000000E-01  6.68000000E-01  6.98000000E-01
  7.18000000E-01  7.26000000E-01  7.36000000E-01  7.43000000E-01  7.45000000E-01
  6.07000000E-01  6.66000000E-01  6.93000000E-01  7.09000000E-01  7.20000000E-01
  7.29000000E-01  7.35000000E-01  7.40000000E-01  6.08000000E-01  7.34000000E-01
  7.46000000E-01  7.55000000E-01  7.61000000E-01  7.65000000E-01  7.67000000E-01
  7.60000000E-01  7.49000000E-01  7.33000000E-01  7.08000000E-01  6.48000000E-01
  6.88000000E-01  7.09000000E-01  7.22000000E-01  7.31000000E-01  7.38000000E-01
  7.44000000E-01  6.09000000E-01  7.30000000E-01  7.41000000E-01  7.52000000E-01
  7.58000000E-01  7.63000000E-01  7.66000000E-01  7.58000000E-01  7.48000000E-01
  7.33000000E-01  7.01000000E-01  6.45000000E-01  6.86000000E-01  7.08000000E-01
  7.22000000E-01  7.31000000E-01  7.38000000E-01  7.44000000E-01  6.08000000E-01
  7.28000000E-01  7.32000000E-01  7.32000000E-01  7.32000000E-01  7.32000000E-01
  7.32000000E-01  7.32000000E-01  7.32000000E-01  7.32000000E-01  7.32000000E-01
  7.31000000E-01  7.31000000E-01  7.31000000E-01  7.31000000E-01  7.46000000E-01
  7.37000000E-01  7.46000000E-01  7.51000000E-01  7.55000000E-01  7.58000000E-01
  7.47000000E-01  7.32000000E-01  7.11000000E-01  7.41000000E-01  7.07000000E-01
  7.47000000E-01  7.43000000E-01  7.42000000E-01  7.42000000E-01  7.43000000E-01
  7.44000000E-01  6.05000000E-01  7.24000000E-01  7.26000000E-01  7.26000000E-01
  7.27000000E-01  7.27000000E-01  7.27000000E-01  7.28000000E-01  7.28000000E-01
  7.28000000E-01  7.28000000E-01  7.28000000E-01  7.29000000E-01  7.29000000E-01
  7.29000000E-01  7.29000000E-01  7.29000000E-01  7.29000000E-01  7.29000000E-01
  7.29000000E-01  7.29000000E-01  7.29000000E-01  7.29000000E-01  7.29000000E-01
  7.29000000E-01  7.29000000E-01  7.29000000E-01  7.29000000E-01  7.29000000E-01
  7.29000000E-01  7.29000000E-01  7.29000000E-01  7.29000000E-01  7.29000000E-01
  7.29000000E-01  7.29000000E-01  7.29000000E-01  7.29000000E-01  7.29000000E-01
  7.29000000E-01  7.29000000E-01  7.29000000E-01  7.29000000E-01  7.29000000E-01
  7.29000000E-01  7.29000000E-01  7.29000000E-01  7.29000000E-01  7.29000000E-01
  7.29000000E-01  7.29000000E-01  7.29000000E-01  7.29000000E-01  7.29000000E-01
  7.29000000E-01  7.29000000E-01  7.29000000E-01  7.29000000E-01  7.29000000E-01
  7.29000000E-01  7.29000000E-01  7.29000000E-01  7.29000000E-01  7.29000000E-01
  7.29000000E-01  7.29000000E-01  7.29000000E-01  7.29000000E-01  7.29000000E-01
  7.29000000E-01  7.29000000E-01  7.29000000E-01  7.29000000E-01  7.29000000E-01
  7.29000000E-01  7.29000000E-01  7.29000000E-01  7.29000000E-01  7.29000000E-01
  7.29000000E-01  7.29000000E-01  7.29000000E-01  7.29000000E-01  7.29000000E-01
  7.29000000E-01  7.29000000E-01  7.29000000E-01  7.29000000E-01  7.29000000E-01
  7.29000000E-01  7.29000000E-01  7.29000000E-01  7.29000000E-01  7.29000000E-01
  7.29000000E-01  7.29000000E-01  7.29000000E-01  7.29000000E-01  7.29000000E-01
  7.29000000E-01  7.29000000E-01  7.29000000E-01  7.29000000E-01  7.29000000E-01
  7.29000000E-01  7.29000000E-01  7.29000000E-01  7.29000000E-01  7.29000000E-01
  7.29000000E-01  7.29000000E-01  7.29000000E-01  7.29000000E-01  7.29000000E-01
  1.00000000E+00  1.70400000E+00  3.23000000E-01  3.89000000E-01  4.67000000E-01
  5.67000000E-01  6.36000000E-01  6.64000000E-01  6.96000000E-01  8.79000000E-01
  3.07000000E-01  3.48000000E-01  4.00000000E-01  4.54000000E-01  5.09000000E-01
  5.65000000E-01  6.21000000E-01  6.77000000E-01  2.56000000E-01  3.50000000E-01
  3.64000000E-01  3.62000000E-01  3.62000000E-01  3.62000000E-01  3.62000000E-01
  3.65000000E-01  3.69000000E-01  3.75000000E-01  3.86000000E-01  4.46000000E-01
  4.55000000E-01  4.74000000E-01  4.96000000E-01  5.20000000E-01  5.45000000E-01
  5.70000000E-01  2.45000000E-01  3.22000000E-01  3.55000000E-01  3.59000000E-01
  3.64000000E-01  3.70000000E-01  3.76000000E-01  3.85000000E-01  3.95000000E-01
  4.08000000E-01  3.76000000E-01  4.23000000E-01  4.22000000E-01  4.32000000E-01
  4.45000000E-01  4.59000000E-01  4.75000000E-01  4.91000000E-01  2.28000000E-01
  2.92000000E-01  2.89000000E-01  2.92000000E-01  2.95000000E-01  2.98000000E-01
  3.00000000E-01  3.03000000E-01  3.06000000E-01  3.09000000E-01  3.12000000E-01
  3.15000000E-01  3.18000000E-01  3.21000000E-01  3.24000000E-01  3.61000000E-01
  3.69000000E-01  3.70000000E-01  3.72000000E-01  3.75000000E-01  3.78000000E-01
  3.85000000E-01  3.94000000E-01  4.07000000E-01  5.26000000E-01  6.21000000E-01
  3.36000000E-01  3.54000000E-01  3.71000000E-01  3.86000000E-01  4.02000000E-01
  4.17000000E-01  2.09000000E-01  2.94000000E-01  2.65000000E-01  2.72000000E-01
  2.78000000E-01  2.84000000E-01  2.91000000E-01  2.97000000E-01  3.03000000E-01
  3.10000000E-01  3.16000000E-01  3.22000000E-01  3.29000000E-01  3.35000000E-01
  3.41000000E-01  3.48000000E-01  3.54000000E-01  3.54000000E-01  3.54000000E-01
  3.54000000E-01  3.54000000E-01  3.54000000E-01  3.54000000E-01  3.54000000E-01
  3.54000000E-01  3.54000000E-01  3.54000000E-01  3.54000000E-01  3.54000000E-01
  3.54000000E-01  3.54000000E-01  3.54000000E-01  3.54000000E-01  3.54000000E-01
  3.54000000E-01  3.54000000E-01  3.54000000E-01  3.54000000E-01  3.54000000E-01
  3.54000000E-01  3.54000000E-01  3.54000000E-01  3.54000000E-01  3.54000000E-01
  3.54000000E-01  3.54000000E-01  3.54000000E-01  3.54000000E-01  3.54000000E-01
  3.54000000E-01  3.54000000E-01  3.54000000E-01  3.54000000E-01  3.54000000E-01
  3.54000000E-01  3.54000000E-01  3.54000000E-01  3.54000000E-01  3.54000000E-01
  3.54000000E-01  3.54000000E-01  3.54000000E-01  3.54000000E-01  3.54000000E-01
  3.54000000E-01  3.54000000E-01  3.54000000E-01  3.54000000E-01  3.54000000E-01
  3.54000000E-01  3.54000000E-01  3.54000000E-01  3.54000000E-01  3.54000000E-01
  3.54000000E-01  3.54000000E-01  3.54000000E-01  3.54000000E-01  3.54000000E-01
  3.54000000E-01  3.54000000E-01  3.54000000E-01  3.54000000E-01  3.54000000E-01
  3.54000000E-01  3.54000000E-01  3.54000000E-01  3.54000000E-01  3.54000000E-01
  3.54000000E-01  3.54000000E-01  3.54000000E-01  3.54000000E-01  3.54000000E-01
  3.54000000E-01  3.54000000E-01  3.54000000E-01  3.54000000E-01  3.54000000E-01
  3.54000000E-01  3.54000000E-01  3.54000000E-01  3.54000000E-01  3.54000000E-01
  3.54000000E-01  3.54000000E-01  3.54000000E-01  3.54000000E-01  3.54000000E-01
  3.54000000E-01  3.54000000E-01  3.54000000E-01  3.54000000E-01  3.54000000E-01
  2.74000000E-01  2.96000000E-01  5.80000000E-02  4.40000000E-02  3.90000000E-02
  3.90000000E-02  3.60000000E-02  3.20000000E-02  2.90000000E-02  3.30000000E-02
  5.50000000E-02  3.90000000E-02  3.30000000E-02  3.00000000E-02  2.80000000E-02
  2.60000000E-02  2.50000000E-02  2.50000000E-02  4.50000000E-02  4.40000000E-02
  3.30000000E-02  2.50000000E-02  2.10000000E-02  1.80000000E-02  1.50000000E-02
  1.80000000E-02  2.10000000E-02  2.50000000E-02  3.30000000E-02  5.00000000E-02
  3.80000000E-02  3.10000000E-02  2.70000000E-02  2.40000000E-02  2.20000000E-02
  2.10000000E-02  4.30000000E-02  4.00000000E-02  3.20000000E-02  2.50000000E-02
  2.10000000E-02  1.80000000E-02  1.60000000E-02  1.90000000E-02  2.20000000E-02
  2.80000000E-02  3.10000000E-02  4.70000000E-02  3.40000000E-02  2.80000000E-02
  2.40000000E-02  2.10000000E-02  1.90000000E-02  1.80000000E-02  3.90000000E-02
  3.60000000E-02  2.50000000E-02  2.50000000E-02  2.50000000E-02  2.60000000E-02
  2.60000000E-02  2.60000000E-02  2.70000000E-02  2.70000000E-02  2.70000000E-02
  2.70000000E-02  2.80000000E-02  2.80000000E-02  2.80000000E-02  3.30000000E-02
  3.30000000E-02  2.60000000E-02  2.10000000E-02  1.80000000E-02  1.60000000E-02
  1.80000000E-02  2.20000000E-02  2.60000000E-02  4.90000000E-02  8.20000000E-02
  3.00000000E-02  2.40000000E-02  2.10000000E-02  1.80000000E-02  1.60000000E-02
  1.50000000E-02  3.50000000E-02  3.60000000E-02  2.20000000E-02  2.30000000E-02
  2.40000000E-02  2.40000000E-02  2.50000000E-02  2.50000000E-02  2.60000000E-02
  2.70000000E-02  2.70000000E-02  2.80000000E-02  2.80000000E-02  2.90000000E-02
  3.00000000E-02  3.00000000E-02  3.10000000E-02  3.10000000E-02  3.10000000E-02
  3.10000000E-02  3.10000000E-02  3.10000000E-02  3.10000000E-02  3.10000000E-02
  3.10000000E-02  3.10000000E-02  3.10000000E-02  3.10000000E-02  3.10000000E-02
  3.10000000E-02  3.10000000E-02  3.10000000E-02  3.10000000E-02  3.10000000E-02
  3.10000000E-02  3.10000000E-02  3.10000000E-02  3.10000000E-02  3.10000000E-02
  3.10000000E-02  3.10000000E-02  3.10000000E-02  3.10000000E-02  3.10000000E-02
  3.10000000E-02  3.10000000E-02  3.10000000E-02  3.10000000E-02  3.10000000E-02
  3.10000000E-02  3.10000000E-02  3.10000000E-02  3.10000000E-02  3.10000000E-02
  3.10000000E-02  3.10000000E-02  3.10000000E-02  3.10000000E-02  3.10000000E-02
  3.10000000E-02  3.10000000E-02  3.10000000E-02  3.10000000E-02  3.10000000E-02
  3.10000000E-02  3.10000000E-02  3.10000000E-02  3.10000000E-02  3.10000000E-02
  3.10000000E-02  3.10000000E-02  3.10000000E-02  3.10000000E-02  3.10000000E-02
  3.10000000E-02  3.10000000E-02  3.10000000E-02  3.10000000E-02  3.10000000E-02
  3.10000000E-02  3.10000000E-02  3.10000000E-02  3.10000000E-02  3.10000000E-02
  3.10000000E-02  3.10000000E-02  3.10000000E-02  3.10000000E-02  3.10000000E-02
  3.10000000E-02  3.10000000E-02  3.10000000E-02  3.10000000E-02  3.10000000E-02
  3.10000000E-02  3.10000000E-02  3.10000000E-02  3.10000000E-02  3.10000000E-02
  3.10000000E-02  3.10000000E-02  3.10000000E-02  3.10000000E-02  3.10000000E-02
  3.10000000E-02  3.10000000E-02  3.10000000E-02  3.10000000E-02  3.10000000E-02
  3.10000000E-02  3.10000000E-02  3.10000000E-02  3.10000000E-02  3.10000000E-02
 -5.92770000E-01 -9.17860000E-01 -2.48668000E+00 -8.36430000E-01 -3.18470000E-01
 -4.55790000E-01 -5.70730000E-01 -6.77940000E-01 -7.69860000E-01 -8.51140000E-01
 -1.51908000E+00 -3.18830000E-01 -2.17900000E-01 -3.01260000E-01 -3.72750000E-01
 -4.15890000E-01 -4.45930000E-01 -5.91320000E-01 -9.56370000E-01 -2.88450000E-01
 -4.87320000E-01 -6.34280000E-01 -7.17490000E-01 -7.91980000E-01 -8.68490000E-01
 -9.17520000E-01 -9.54890000E-01 -9.88460000E-01 -1.50055000E+00 -2.92560000E-01
 -2.14960000E-01 -2.91180000E-01 -3.42080000E-01 -3.84480000E-01 -4.34940000E-01
 -5.24310000E-01 -8.10070000E-01 -2.58460000E-01 -4.35550000E-01 -5.32740000E-01
 -6.08450000E-01 -6.10260000E-01 -7.58920000E-01 -8.90130000E-01 -8.45780000E-01
 -8.69340000E-01 -1.38234000E+00 -2.64850000E-01 -1.97280000E-01 -2.65040000E-01
 -2.94470000E-01 -3.16570000E-01 -3.63590000E-01 -4.57840000E-01 -8.61830000E-01
 -1.33004000E+00 -6.82880000E-01 -6.25540000E-01 -6.35430000E-01 -8.79690000E-01
 -9.02690000E-01 -9.59650000E-01 -1.01869000E+00 -6.81170000E-01 -7.96500000E-01
 -9.04950000E-01 -8.34790000E-01 -9.01560000E-01 -9.74130000E-01 -1.03326000E+00
 -7.15490000E-01 -7.83960000E-01 -8.28380000E-01 -5.61040000E-01 -1.03841000E+00
 -8.62500000E-01 -9.59300000E-01 -1.01755000E+00 -7.64900000E-01 -1.29467000E+00
 -1.92740000E-01 -2.56010000E-01 -3.19820000E-01 -1.94660000E-01 -2.60090000E-01
 -4.27990000E-01  0.00000000E+00  0.00000000E+00  0.00000000E+00  0.00000000E+00
  0.00000000E+00  0.00000000E+00  0.00000000E+00  0.00000000E+00  0.00000000E+00
  0.00000000E+00  0.00000000E+00  0.00000000E+00  0.00000000E+00  0.00000000E+00
  0.00000000E+00  0.00000000E+00  0.00000000E+00  0.00000000E+00  0.00000000E+00
  0.00000000E+00  0.00000000E+00  0.00000000E+00  0.00000000E+00  0.00000000E+00
  0.00000000E+00  0.00000000E+00  0.00000000E+00  0.00000000E+00  0.00000000E+00
  0.00000000E+00  0.00000000E+00  0.00000000E+00  0.00000000E+00  0.00000000E+00
  0.00000000E+00  0.00000000E+00  0.00000000E+00  0.00000000E+00  0.00000000E+00
  0.00000000E+00  0.00000000E+00  0.00000000E+00  0.00000000E+00  0.00000000E+00
  0.00000000E+00  0.00000000E+00  0.00000000E+00  0.00000000E+00  0.00000000E+00
  0.00000000E+00  0.00000000E+00  0.00000000E+00  0.00000000E+00  0.00000000E+00
  0.00000000E+00  0.00000000E+00  0.00000000E+00  0.00000000E+00  0.00000000E+00
  0.00000000E+00  0.00000000E+00  0.00000000E+00  0.00000000E+00  0.00000000E+00
  0.00000000E+00  0.00000000E+00  0.00000000E+00  0.00000000E+00  0.00000000E+00
  0.00000000E+00  0.00000000E+00  0.00000000E+00  0.00000000E+00  0.00000000E+00
  0.00000000E+00  0.00000000E+00  0.00000000E+00  0.00000000E+00  0.00000000E+00
  0.00000000E+00  0.00000000E+00  0.00000000E+00  0.00000000E+00  0.00000000E+00
  0.00000000E+00  0.00000000E+00  0.00000000E+00  0.00000000E+00  0.00000000E+00
  0.00000000E+00  0.00000000E+00  0.00000000E+00  0.00000000E+00  0.00000000E+00
  0.00000000E+00  0.00000000E+00  0.00000000E+00  0.00000000E+00  0.00000000E+00
  0.00000000E+00  0.00000000E+00  0.00000000E+00  0.00000000E+00  0.00000000E+00
  0.00000000E+00  0.00000000E+00  0.00000000E+00  0.00000000E+00  0.00000000E+00
  0.00000000E+00  0.00000000E+00  0.00000000E+00  0.00000000E+00  0.00000000E+00
  1.90440000E+00  1.36430000E+00  4.84000000E-01  7.31600000E+00  9.24030000E+00
  8.78200000E+00  5.61290000E+00  4.83340000E+00  3.24870000E+00  2.71090000E+00
  2.01130000E+00  1.50282000E+01  1.46788000E+01  2.13546000E+01  2.38290000E+01
  1.98022000E+01  1.50468000E+01  1.09745000E+01  1.27219000E+01  1.51949000E+01
  1.57342000E+01  2.79222000E+01  1.61366000E+01  2.21252000E+01  2.45676000E+01
  1.96016000E+01  1.79818000E+01  1.72396000E+01  5.01500000E+00  1.92898000E+01
  2.34477000E+01  2.23993000E+01  2.96586000E+01  2.60081000E+01  2.15580000E+01
  1.69594000E+01  1.56479000E+01  1.86897000E+01  1.93530000E+01  3.43444000E+01
  1.98480000E+01  2.72140000E+01  3.02182000E+01  2.41099000E+01  2.21176000E+01
  2.12047000E+01  7.56690000E+00  2.37264000E+01  2.93879000E+01  3.01278000E+01
  4.19382000E+01  3.85203000E+01  3.39511000E+01  2.75774000E+01  1.56460000E+01
  1.04460000E+01  2.01830000E+01  4.99540000E+01  4.76430000E+01  1.18690000E+01
  1.08670000E+01  9.96100000E+00  9.18700000E+00  3.67980000E+01  1.34070000E+01
  9.38200000E+00  9.81700000E+00  8.90800000E+00  8.40700000E+00  8.05800000E+00
  1.29600000E+01  2.67920000E+01  2.49300000E+01  3.45630000E+01  1.11860000E+01
  1.09440000E+01  1.01270000E+01  9.40400000E+00  1.36660000E+01  7.81000000E+00
  6.93600000E+01  5.86630000E+01  4.79690000E+01  4.52740000E+01  3.92290000E+01
  3.30660000E+01  0.00000000E+00  0.00000000E+00  0.00000000E+00  0.00000000E+00
  0.00000000E+00  0.00000000E+00  0.00000000E+00  0.00000000E+00  0.00000000E+00
  0.00000000E+00  0.00000000E+00  0.00000000E+00  0.00000000E+00  0.00000000E+00
  0.00000000E+00  0.00000000E+00  0.00000000E+00  0.00000000E+00  0.00000000E+00
  0.00000000E+00  0.00000000E+00  0.00000000E+00  0.00000000E+00  0.00000000E+00
  0.00000000E+00  0.00000000E+00  0.00000000E+00  0.00000000E+00  0.00000000E+00
  0.00000000E+00  0.00000000E+00  0.00000000E+00  0.00000000E+00  0.00000000E+00
  0.00000000E+00  0.00000000E+00  0.00000000E+00  0.00000000E+00  0.00000000E+00
  0.00000000E+00  0.00000000E+00  0.00000000E+00  0.00000000E+00  0.00000000E+00
  0.00000000E+00  0.00000000E+00  0.00000000E+00  0.00000000E+00  0.00000000E+00
  0.00000000E+00  0.00000000E+00  0.00000000E+00  0.00000000E+00  0.00000000E+00
  0.00000000E+00  0.00000000E+00  0.00000000E+00  0.00000000E+00  0.00000000E+00
  0.00000000E+00  0.00000000E+00  0.00000000E+00  0.00000000E+00  0.00000000E+00
  0.00000000E+00  0.00000000E+00  0.00000000E+00  0.00000000E+00  0.00000000E+00
  0.00000000E+00  0.00000000E+00  0.00000000E+00  0.00000000E+00  0.00000000E+00
  0.00000000E+00  0.00000000E+00  0.00000000E+00  0.00000000E+00  0.00000000E+00
  0.00000000E+00  0.00000000E+00  0.00000000E+00  0.00000000E+00  0.00000000E+00
  0.00000000E+00  0.00000000E+00  0.00000000E+00  0.00000000E+00  0.00000000E+00
  0.00000000E+00  0.00000000E+00  0.00000000E+00  0.00000000E+00  0.00000000E+00
  0.00000000E+00  0.00000000E+00  0.00000000E+00  0.00000000E+00  0.00000000E+00
  0.00000000E+00  0.00000000E+00  0.00000000E+00  0.00000000E+00  0.00000000E+00
  0.00000000E+00  0.00000000E+00  0.00000000E+00  0.00000000E+00  0.00000000E+00
  0.00000000E+00  0.00000000E+00  0.00000000E+00  0.00000000E+00  0.00000000E+00
  0.00000000E+00  0.00000000E+00  0.00000000E+00  0.00000000E+00  0.00000000E+00
  0.00000000E+00  0.00000000E+00  0.00000000E+00  0.00000000E+00  0.00000000E+00
  0.00000000E+00  0.00000000E+00  0.00000000E+00  0.00000000E+00  0.00000000E+00
  0.00000000E+00  0.00000000E+00  0.00000000E+00  0.00000000E+00  0.00000000E+00
  0.00000000E+00  0.00000000E+00  0.00000000E+00  0.00000000E+00  0.00000000E+00
  0.00000000E+00  0.00000000E+00  0.00000000E+00  0.00000000E+00  0.00000000E+00
  0.00000000E+00  0.00000000E+00  0.00000000E+00  0.00000000E+00  0.00000000E+00
  0.00000000E+00  0.00000000E+00  0.00000000E+00  0.00000000E+00  0.00000000E+00
  0.00000000E+00  0.00000000E+00  0.00000000E+00  0.00000000E+00  0.00000000E+00
  0.00000000E+00  0.00000000E+00  0.00000000E+00  0.00000000E+00  0.00000000E+00
  0.00000000E+00  0.00000000E+00  0.00000000E+00  0.00000000E+00  0.00000000E+00
  0.00000000E+00  0.00000000E+00  0.00000000E+00  0.00000000E+00  0.00000000E+00
  0.00000000E+00  0.00000000E+00  0.00000000E+00  0.00000000E+00  0.00000000E+00
  0.00000000E+00  0.00000000E+00  0.00000000E+00  0.00000000E+00  0.00000000E+00
  0.00000000E+00  0.00000000E+00  0.00000000E+00  0.00000000E+00  0.00000000E+00
  0.00000000E+00  0.00000000E+00  0.00000000E+00  0.00000000E+00  0.00000000E+00
  0.00000000E+00  0.00000000E+00  0.00000000E+00  0.00000000E+00  0.00000000E+00
  0.00000000E+00  0.00000000E+00  0.00000000E+00  0.00000000E+00  0.00000000E+00
  0.00000000E+00  0.00000000E+00  0.00000000E+00  0.00000000E+00  0.00000000E+00
  0.00000000E+00  0.00000000E+00  0.00000000E+00  0.00000000E+00  0.00000000E+00
  0.00000000E+00  0.00000000E+00  0.00000000E+00  0.00000000E+00  0.00000000E+00
  0.00000000E+00  0.00000000E+00  0.00000000E+00  0.00000000E+00  0.00000000E+00
  0.00000000E+00  0.00000000E+00  0.00000000E+00  0.00000000E+00  0.00000000E+00
  0.00000000E+00  0.00000000E+00  0.00000000E+00  0.00000000E+00  0.00000000E+00
  0.00000000E+00  0.00000000E+00  0.00000000E+00  0.00000000E+00  0.00000000E+00
  0.00000000E+00  0.00000000E+00  0.00000000E+00  0.00000000E+00  0.00000000E+00
  0.00000000E+00  0.00000000E+00  0.00000000E+00  0.00000000E+00  0.00000000E+00
  0.00000000E+00  0.00000000E+00  0.00000000E+00  0.00000000E+00  0.00000000E+00
  0.00000000E+00  0.00000000E+00  0.00000000E+00  0.00000000E+00  0.00000000E+00
  0.00000000E+00  0.00000000E+00  0.00000000E+00  0.00000000E+00  0.00000000E+00
  0.00000000E+00  0.00000000E+00  0.00000000E+00  0.00000000E+00  0.00000000E+00
  0.00000000E+00  0.00000000E+00  0.00000000E+00  0.00000000E+00  0.00000000E+00
  0.00000000E+00  0.00000000E+00  0.00000000E+00  0.00000000E+00  0.00000000E+00
  0.00000000E+00  0.00000000E+00  0.00000000E+00  0.00000000E+00  0.00000000E+00
  0.00000000E+00  0.00000000E+00  0.00000000E+00  0.00000000E+00  0.00000000E+00
  0.00000000E+00  0.00000000E+00  0.00000000E+00  0.00000000E+00  0.00000000E+00
  0.00000000E+00  0.00000000E+00  0.00000000E+00  0.00000000E+00  0.00000000E+00
  0.00000000E+00  0.00000000E+00  0.00000000E+00  0.00000000E+00  0.00000000E+00
  0.00000000E+00  0.00000000E+00  0.00000000E+00  0.00000000E+00  0.00000000E+00
  0.00000000E+00  0.00000000E+00  0.00000000E+00  0.00000000E+00  0.00000000E+00
  0.00000000E+00  0.00000000E+00  0.00000000E+00  0.00000000E+00  0.00000000E+00
  0.00000000E+00  0.00000000E+00  0.00000000E+00  0.00000000E+00  0.00000000E+00
  0.00000000E+00  0.00000000E+00  0.00000000E+00  0.00000000E+00  0.00000000E+00
  0.00000000E+00  0.00000000E+00  0.00000000E+00  0.00000000E+00  0.00000000E+00
  0.00000000E+00  0.00000000E+00  0.00000000E+00  0.00000000E+00  0.00000000E+00
  0.00000000E+00  0.00000000E+00  0.00000000E+00  0.00000000E+00  0.00000000E+00
  0.00000000E+00  0.00000000E+00  0.00000000E+00  0.00000000E+00  0.00000000E+00
  0.00000000E+00  0.00000000E+00  0.00000000E+00  0.00000000E+00  0.00000000E+00
  0.00000000E+00  0.00000000E+00  0.00000000E+00  0.00000000E+00  0.00000000E+00
  0.00000000E+00  0.00000000E+00  0.00000000E+00  0.00000000E+00  0.00000000E+00
  0.00000000E+00  0.00000000E+00  0.00000000E+00  0.00000000E+00  0.00000000E+00
  0.00000000E+00  0.00000000E+00  0.00000000E+00  0.00000000E+00  0.00000000E+00
  0.00000000E+00  0.00000000E+00  0.00000000E+00  0.00000000E+00  0.00000000E+00
  0.00000000E+00  0.00000000E+00  0.00000000E+00  0.00000000E+00  0.00000000E+00
  0.00000000E+00  0.00000000E+00  0.00000000E+00  0.00000000E+00  0.00000000E+00
  0.00000000E+00  0.00000000E+00  0.00000000E+00  0.00000000E+00  0.00000000E+00
  0.00000000E+00  0.00000000E+00  0.00000000E+00  0.00000000E+00  0.00000000E+00
  0.00000000E+00  0.00000000E+00  0.00000000E+00  0.00000000E+00  0.00000000E+00
  0.00000000E+00  0.00000000E+00  0.00000000E+00  0.00000000E+00  0.00000000E+00
  0.00000000E+00  0.00000000E+00  0.00000000E+00  0.00000000E+00  0.00000000E+00
  0.00000000E+00  0.00000000E+00  0.00000000E+00  0.00000000E+00  0.00000000E+00
  0.00000000E+00  0.00000000E+00  0.00000000E+00  0.00000000E+00  0.00000000E+00
  0.00000000E+00  0.00000000E+00  0.00000000E+00  0.00000000E+00  0.00000000E+00
  0.00000000E+00  0.00000000E+00  0.00000000E+00  0.00000000E+00  0.00000000E+00
  0.00000000E+00  0.00000000E+00  0.00000000E+00  0.00000000E+00  0.00000000E+00
  0.00000000E+00  0.00000000E+00  0.00000000E+00  0.00000000E+00  0.00000000E+00
  0.00000000E+00  0.00000000E+00  0.00000000E+00  0.00000000E+00  0.00000000E+00
  0.00000000E+00  0.00000000E+00  0.00000000E+00  0.00000000E+00  0.00000000E+00
  0.00000000E+00  0.00000000E+00  0.00000000E+00  0.00000000E+00  0.00000000E+00
  0.00000000E+00  0.00000000E+00  0.00000000E+00  0.00000000E+00  0.00000000E+00
  0.00000000E+00  0.00000000E+00  0.00000000E+00  0.00000000E+00  0.00000000E+00
  0.00000000E+00  0.00000000E+00  0.00000000E+00  0.00000000E+00  0.00000000E+00
  0.00000000E+00  0.00000000E+00  0.00000000E+00  0.00000000E+00  0.00000000E+00
  0.00000000E+00  0.00000000E+00  0.00000000E+00  0.00000000E+00  0.00000000E+00
  0.00000000E+00  0.00000000E+00  0.00000000E+00  0.00000000E+00  0.00000000E+00
  0.00000000E+00  0.00000000E+00  0.00000000E+00  0.00000000E+00  0.00000000E+00
  0.00000000E+00  0.00000000E+00  0.00000000E+00  0.00000000E+00  0.00000000E+00
  0.00000000E+00  0.00000000E+00  0.00000000E+00  0.00000000E+00  0.00000000E+00
  0.00000000E+00  0.00000000E+00  0.00000000E+00  0.00000000E+00  0.00000000E+00
  0.00000000E+00  0.00000000E+00  0.00000000E+00  0.00000000E+00  0.00000000E+00
  0.00000000E+00  0.00000000E+00  0.00000000E+00  0.00000000E+00  0.00000000E+00
  0.00000000E+00  0.00000000E+00  0.00000000E+00  0.00000000E+00  0.00000000E+00
  0.00000000E+00  0.00000000E+00  0.00000000E+00  0.00000000E+00  0.00000000E+00
  0.00000000E+00  0.00000000E+00  0.00000000E+00  0.00000000E+00  0.00000000E+00
  0.00000000E+00  0.00000000E+00  0.00000000E+00  0.00000000E+00  0.00000000E+00
  0.00000000E+00  0.00000000E+00  0.00000000E+00  0.00000000E+00  0.00000000E+00
  0.00000000E+00  0.00000000E+00  0.00000000E+00  0.00000000E+00  0.00000000E+00
  0.00000000E+00  0.00000000E+00  0.00000000E+00  0.00000000E+00  0.00000000E+00
  0.00000000E+00  0.00000000E+00  0.00000000E+00  0.00000000E+00  0.00000000E+00
  0.00000000E+00  0.00000000E+00  0.00000000E+00  0.00000000E+00  0.00000000E+00
  0.00000000E+00  0.00000000E+00  0.00000000E+00  0.00000000E+00  0.00000000E+00
  0.00000000E+00  0.00000000E+00  0.00000000E+00  0.00000000E+00  0.00000000E+00
  0.00000000E+00  0.00000000E+00  0.00000000E+00  0.00000000E+00  0.00000000E+00
  0.00000000E+00  0.00000000E+00  0.00000000E+00  0.00000000E+00  0.00000000E+00
  0.00000000E+00  0.00000000E+00  0.00000000E+00  0.00000000E+00  0.00000000E+00
  0.00000000E+00  0.00000000E+00  0.00000000E+00  0.00000000E+00  0.00000000E+00
  0.00000000E+00  0.00000000E+00  0.00000000E+00  0.00000000E+00  0.00000000E+00
  0.00000000E+00  0.00000000E+00  0.00000000E+00  0.00000000E+00  0.00000000E+00
  0.00000000E+00  0.00000000E+00  0.00000000E+00  0.00000000E+00  0.00000000E+00
  0.00000000E+00  0.00000000E+00  0.00000000E+00  0.00000000E+00  0.00000000E+00
  0.00000000E+00  0.00000000E+00  0.00000000E+00  0.00000000E+00  0.00000000E+00
  0.00000000E+00  0.00000000E+00  0.00000000E+00  0.00000000E+00  0.00000000E+00
  0.00000000E+00  0.00000000E+00  0.00000000E+00  0.00000000E+00  0.00000000E+00
  0.00000000E+00  0.00000000E+00  0.00000000E+00  0.00000000E+00  0.00000000E+00
  0.00000000E+00  0.00000000E+00  0.00000000E+00  0.00000000E+00  0.00000000E+00
  0.00000000E+00  0.00000000E+00  0.00000000E+00  0.00000000E+00  0.00000000E+00
  0.00000000E+00  0.00000000E+00  0.00000000E+00  0.00000000E+00  0.00000000E+00
  0.00000000E+00  0.00000000E+00  0.00000000E+00  0.00000000E+00  0.00000000E+00
  0.00000000E+00  0.00000000E+00  0.00000000E+00  0.00000000E+00  0.00000000E+00
  0.00000000E+00  0.00000000E+00  0.00000000E+00  0.00000000E+00  0.00000000E+00
  0.00000000E+00  0.00000000E+00  0.00000000E+00  0.00000000E+00  0.00000000E+00
  0.00000000E+00  0.00000000E+00  0.00000000E+00  0.00000000E+00  0.00000000E+00
  0.00000000E+00  0.00000000E+00  0.00000000E+00  0.00000000E+00  0.00000000E+00
  0.00000000E+00  0.00000000E+00  0.00000000E+00  0.00000000E+00  0.00000000E+00
  0.00000000E+00  0.00000000E+00  0.00000000E+00  0.00000000E+00  0.00000000E+00
  0.00000000E+00  0.00000000E+00  0.00000000E+00  0.00000000E+00  0.00000000E+00
  0.00000000E+00  0.00000000E+00  0.00000000E+00  0.00000000E+00  0.00000000E+00
  0.00000000E+00  0.00000000E+00  0.00000000E+00  0.00000000E+00  0.00000000E+00
  0.00000000E+00  0.00000000E+00  0.00000000E+00  0.00000000E+00  0.00000000E+00
  0.00000000E+00  0.00000000E+00  0.00000000E+00  0.00000000E+00  0.00000000E+00
  0.00000000E+00  0.00000000E+00  0.00000000E+00  0.00000000E+00  0.00000000E+00
  0.00000000E+00  0.00000000E+00  0.00000000E+00  0.00000000E+00  0.00000000E+00
  0.00000000E+00  0.00000000E+00  0.00000000E+00  0.00000000E+00  0.00000000E+00
  0.00000000E+00  0.00000000E+00  0.00000000E+00  0.00000000E+00  0.00000000E+00
  0.00000000E+00  0.00000000E+00  0.00000000E+00  0.00000000E+00  0.00000000E+00
  0.00000000E+00  0.00000000E+00  0.00000000E+00  0.00000000E+00  0.00000000E+00
  0.00000000E+00  0.00000000E+00  0.00000000E+00  0.00000000E+00  0.00000000E+00
  0.00000000E+00  0.00000000E+00  0.00000000E+00  0.00000000E+00  0.00000000E+00
  0.00000000E+00  0.00000000E+00  0.00000000E+00  0.00000000E+00  0.00000000E+00
  0.00000000E+00  0.00000000E+00  0.00000000E+00  0.00000000E+00  0.00000000E+00
  0.00000000E+00  0.00000000E+00  0.00000000E+00  0.00000000E+00  0.00000000E+00
  0.00000000E+00  0.00000000E+00  0.00000000E+00  0.00000000E+00  0.00000000E+00
  0.00000000E+00  0.00000000E+00  0.00000000E+00  0.00000000E+00  0.00000000E+00
  0.00000000E+00  0.00000000E+00  0.00000000E+00  0.00000000E+00  0.00000000E+00
  0.00000000E+00  0.00000000E+00  0.00000000E+00  0.00000000E+00  0.00000000E+00
  0.00000000E+00  0.00000000E+00  0.00000000E+00  0.00000000E+00  0.00000000E+00
  0.00000000E+00  0.00000000E+00  0.00000000E+00  0.00000000E+00  0.00000000E+00
  0.00000000E+00  0.00000000E+00  0.00000000E+00  0.00000000E+00  0.00000000E+00
  0.00000000E+00  0.00000000E+00  0.00000000E+00  0.00000000E+00  0.00000000E+00
  0.00000000E+00  0.00000000E+00  0.00000000E+00  0.00000000E+00  0.00000000E+00
  0.00000000E+00  0.00000000E+00  0.00000000E+00  0.00000000E+00  0.00000000E+00
  0.00000000E+00  0.00000000E+00  0.00000000E+00  0.00000000E+00  0.00000000E+00
  0.00000000E+00  0.00000000E+00  0.00000000E+00  0.00000000E+00  0.00000000E+00
  0.00000000E+00  0.00000000E+00  0.00000000E+00  0.00000000E+00  0.00000000E+00
  0.00000000E+00  0.00000000E+00  0.00000000E+00  0.00000000E+00  0.00000000E+00
  0.00000000E+00  0.00000000E+00  0.00000000E+00  0.00000000E+00  0.00000000E+00
  0.00000000E+00  0.00000000E+00  0.00000000E+00  0.00000000E+00  0.00000000E+00
  0.00000000E+00  0.00000000E+00  0.00000000E+00  0.00000000E+00  0.00000000E+00
  0.00000000E+00  0.00000000E+00  0.00000000E+00  0.00000000E+00  0.00000000E+00
  0.00000000E+00  0.00000000E+00  0.00000000E+00  0.00000000E+00  0.00000000E+00
  0.00000000E+00  0.00000000E+00  0.00000000E+00  0.00000000E+00  0.00000000E+00
  0.00000000E+00  0.00000000E+00  0.00000000E+00  0.00000000E+00  0.00000000E+00
  0.00000000E+00  0.00000000E+00  0.00000000E+00  0.00000000E+00  0.00000000E+00
  0.00000000E+00  0.00000000E+00  0.00000000E+00  0.00000000E+00  0.00000000E+00
  0.00000000E+00  0.00000000E+00  0.00000000E+00  0.00000000E+00  0.00000000E+00
  0.00000000E+00  0.00000000E+00  0.00000000E+00  0.00000000E+00  0.00000000E+00
  0.00000000E+00  0.00000000E+00  0.00000000E+00  0.00000000E+00  0.00000000E+00
  0.00000000E+00  0.00000000E+00  0.00000000E+00  0.00000000E+00  0.00000000E+00
  0.00000000E+00  0.00000000E+00  0.00000000E+00  0.00000000E+00  0.00000000E+00
  0.00000000E+00  0.00000000E+00  0.00000000E+00  0.00000000E+00  0.00000000E+00
  0.00000000E+00  0.00000000E+00  0.00000000E+00  0.00000000E+00  0.00000000E+00
  0.00000000E+00  0.00000000E+00  0.00000000E+00  0.00000000E+00  0.00000000E+00
  0.00000000E+00  0.00000000E+00  0.00000000E+00  0.00000000E+00  0.00000000E+00
  0.00000000E+00  0.00000000E+00  0.00000000E+00  0.00000000E+00  0.00000000E+00
  0.00000000E+00  0.00000000E+00  0.00000000E+00  0.00000000E+00  0.00000000E+00
  0.00000000E+00  0.00000000E+00  0.00000000E+00  0.00000000E+00  0.00000000E+00
  0.00000000E+00  0.00000000E+00  0.00000000E+00  0.00000000E+00  0.00000000E+00
  0.00000000E+00  0.00000000E+00  0.00000000E+00  0.00000000E+00  0.00000000E+00
  0.00000000E+00  0.00000000E+00  0.00000000E+00  0.00000000E+00  0.00000000E+00
  0.00000000E+00  0.00000000E+00  0.00000000E+00  0.00000000E+00  0.00000000E+00
  0.00000000E+00  0.00000000E+00  0.00000000E+00  0.00000000E+00  0.00000000E+00
  0.00000000E+00  0.00000000E+00  0.00000000E+00  0.00000000E+00  0.00000000E+00
  0.00000000E+00  0.00000000E+00  0.00000000E+00  0.00000000E+00  0.00000000E+00
  0.00000000E+00  0.00000000E+00  0.00000000E+00  0.00000000E+00  0.00000000E+00
  0.00000000E+00  0.00000000E+00  0.00000000E+00  0.00000000E+00  0.00000000E+00
  0.00000000E+00  0.00000000E+00  0.00000000E+00  0.00000000E+00  0.00000000E+00
  0.00000000E+00  0.00000000E+00  0.00000000E+00  0.00000000E+00  0.00000000E+00
  0.00000000E+00  0.00000000E+00  0.00000000E+00  0.00000000E+00  0.00000000E+00
  0.00000000E+00  0.00000000E+00  0.00000000E+00  0.00000000E+00  0.00000000E+00
  0.00000000E+00  0.00000000E+00  0.00000000E+00  0.00000000E+00  0.00000000E+00
  0.00000000E+00  0.00000000E+00  0.00000000E+00  0.00000000E+00  0.00000000E+00
  0.00000000E+00  0.00000000E+00  0.00000000E+00  0.00000000E+00  0.00000000E+00
  0.00000000E+00  0.00000000E+00  0.00000000E+00  0.00000000E+00  0.00000000E+00
  0.00000000E+00  0.00000000E+00  0.00000000E+00  0.00000000E+00  0.00000000E+00
  0.00000000E+00  0.00000000E+00  0.00000000E+00  0.00000000E+00  0.00000000E+00
  0.00000000E+00  0.00000000E+00  0.00000000E+00  0.00000000E+00  0.00000000E+00
  0.00000000E+00  0.00000000E+00  0.00000000E+00  0.00000000E+00  0.00000000E+00
  0.00000000E+00  0.00000000E+00  0.00000000E+00  0.00000000E+00  0.00000000E+00
  0.00000000E+00  0.00000000E+00  0.00000000E+00  0.00000000E+00  0.00000000E+00
  0.00000000E+00  0.00000000E+00  0.00000000E+00  0.00000000E+00  0.00000000E+00
  0.00000000E+00  0.00000000E+00  0.00000000E+00  0.00000000E+00  0.00000000E+00
  0.00000000E+00  0.00000000E+00  0.00000000E+00  0.00000000E+00  0.00000000E+00
  0.00000000E+00  0.00000000E+00  0.00000000E+00  0.00000000E+00  0.00000000E+00
  0.00000000E+00  0.00000000E+00  0.00000000E+00  0.00000000E+00  0.00000000E+00
  0.00000000E+00  0.00000000E+00  0.00000000E+00  0.00000000E+00  0.00000000E+00
  0.00000000E+00  0.00000000E+00  0.00000000E+00  0.00000000E+00  0.00000000E+00
  0.00000000E+00  0.00000000E+00  0.00000000E+00  0.00000000E+00  0.00000000E+00
  0.00000000E+00  0.00000000E+00  0.00000000E+00  0.00000000E+00  0.00000000E+00
  0.00000000E+00  0.00000000E+00  0.00000000E+00  0.00000000E+00  0.00000000E+00
  0.00000000E+00  0.00000000E+00  0.00000000E+00  0.00000000E+00  0.00000000E+00
  0.00000000E+00  0.00000000E+00  0.00000000E+00  0.00000000E+00  0.00000000E+00
  0.00000000E+00  0.00000000E+00  0.00000000E+00  0.00000000E+00  0.00000000E+00
  0.00000000E+00  0.00000000E+00  0.00000000E+00  0.00000000E+00  0.00000000E+00
  0.00000000E+00  0.00000000E+00  0.00000000E+00  0.00000000E+00  0.00000000E+00
  0.00000000E+00  0.00000000E+00  0.00000000E+00  0.00000000E+00  0.00000000E+00
  0.00000000E+00  0.00000000E+00  0.00000000E+00  0.00000000E+00  0.00000000E+00
  0.00000000E+00  0.00000000E+00  0.00000000E+00  0.00000000E+00  0.00000000E+00
  0.00000000E+00  0.00000000E+00  0.00000000E+00  0.00000000E+00  0.00000000E+00
  0.00000000E+00  0.00000000E+00  0.00000000E+00  0.00000000E+00  0.00000000E+00
  0.00000000E+00  0.00000000E+00  0.00000000E+00  0.00000000E+00  0.00000000E+00
  0.00000000E+00  0.00000000E+00  0.00000000E+00  0.00000000E+00  0.00000000E+00
  0.00000000E+00  0.00000000E+00  0.00000000E+00  0.00000000E+00  0.00000000E+00
  0.00000000E+00  0.00000000E+00  0.00000000E+00  0.00000000E+00  0.00000000E+00
  0.00000000E+00  0.00000000E+00  0.00000000E+00  0.00000000E+00  0.00000000E+00
  0.00000000E+00  0.00000000E+00  0.00000000E+00  0.00000000E+00  0.00000000E+00
  0.00000000E+00  0.00000000E+00  0.00000000E+00  0.00000000E+00  0.00000000E+00
  0.00000000E+00  0.00000000E+00  0.00000000E+00  0.00000000E+00  0.00000000E+00
  0.00000000E+00  0.00000000E+00  0.00000000E+00  0.00000000E+00  0.00000000E+00
  0.00000000E+00  0.00000000E+00  0.00000000E+00  0.00000000E+00  0.00000000E+00
  0.00000000E+00  0.00000000E+00  0.00000000E+00  0.00000000E+00  0.00000000E+00
  0.00000000E+00  0.00000000E+00  0.00000000E+00  0.00000000E+00  0.00000000E+00
  0.00000000E+00  0.00000000E+00  0.00000000E+00  0.00000000E+00  0.00000000E+00
  0.00000000E+00  0.00000000E+00  0.00000000E+00  0.00000000E+00  0.00000000E+00
  0.00000000E+00  0.00000000E+00  0.00000000E+00  0.00000000E+00  0.00000000E+00
  0.00000000E+00  0.00000000E+00  0.00000000E+00  0.00000000E+00  0.00000000E+00
  0.00000000E+00  0.00000000E+00  0.00000000E+00  0.00000000E+00  0.00000000E+00
  0.00000000E+00  0.00000000E+00  0.00000000E+00  0.00000000E+00  0.00000000E+00
  0.00000000E+00  0.00000000E+00  0.00000000E+00  0.00000000E+00  0.00000000E+00
  0.00000000E+00  0.00000000E+00  0.00000000E+00  0.00000000E+00  0.00000000E+00
  0.00000000E+00  0.00000000E+00  0.00000000E+00  0.00000000E+00  0.00000000E+00
  0.00000000E+00  0.00000000E+00  0.00000000E+00  0.00000000E+00  0.00000000E+00
  0.00000000E+00  0.00000000E+00  0.00000000E+00  0.00000000E+00  0.00000000E+00
  0.00000000E+00  0.00000000E+00  0.00000000E+00  0.00000000E+00  0.00000000E+00
  0.00000000E+00  0.00000000E+00  0.00000000E+00  0.00000000E+00  0.00000000E+00
  0.00000000E+00  0.00000000E+00  0.00000000E+00  0.00000000E+00  0.00000000E+00
  0.00000000E+00  0.00000000E+00  0.00000000E+00  0.00000000E+00  0.00000000E+00
  0.00000000E+00  0.00000000E+00  0.00000000E+00  0.00000000E+00  0.00000000E+00
  0.00000000E+00  0.00000000E+00  0.00000000E+00  0.00000000E+00  0.00000000E+00
  0.00000000E+00  0.00000000E+00  0.00000000E+00  0.00000000E+00  0.00000000E+00
  0.00000000E+00  0.00000000E+00  0.00000000E+00  0.00000000E+00  0.00000000E+00
  0.00000000E+00  0.00000000E+00  0.00000000E+00  0.00000000E+00  0.00000000E+00
  0.00000000E+00  0.00000000E+00  0.00000000E+00  0.00000000E+00  0.00000000E+00
  0.00000000E+00  0.00000000E+00  0.00000000E+00  0.00000000E+00  0.00000000E+00
  0.00000000E+00  0.00000000E+00  0.00000000E+00  0.00000000E+00  0.00000000E+00
  0.00000000E+00  0.00000000E+00  0.00000000E+00  0.00000000E+00  0.00000000E+00
  0.00000000E+00  0.00000000E+00  0.00000000E+00  0.00000000E+00  0.00000000E+00
  0.00000000E+00  0.00000000E+00  0.00000000E+00  0.00000000E+00  0.00000000E+00
  0.00000000E+00  0.00000000E+00  0.00000000E+00  0.00000000E+00  0.00000000E+00
  0.00000000E+00  0.00000000E+00  0.00000000E+00  0.00000000E+00  0.00000000E+00
  0.00000000E+00  0.00000000E+00  0.00000000E+00  0.00000000E+00  0.00000000E+00
  0.00000000E+00  0.00000000E+00  0.00000000E+00  0.00000000E+00  0.00000000E+00
  0.00000000E+00  0.00000000E+00  0.00000000E+00  0.00000000E+00  0.00000000E+00
  0.00000000E+00  0.00000000E+00  0.00000000E+00  0.00000000E+00  0.00000000E+00
  0.00000000E+00  0.00000000E+00  0.00000000E+00  0.00000000E+00  0.00000000E+00
  0.00000000E+00  0.00000000E+00  0.00000000E+00  0.00000000E+00  0.00000000E+00
  0.00000000E+00  0.00000000E+00  0.00000000E+00  0.00000000E+00  0.00000000E+00
  0.00000000E+00  0.00000000E+00  0.00000000E+00  0.00000000E+00  0.00000000E+00
  0.00000000E+00  0.00000000E+00  0.00000000E+00  0.00000000E+00  0.00000000E+00
  0.00000000E+00  0.00000000E+00  0.00000000E+00  0.00000000E+00  0.00000000E+00
  0.00000000E+00  0.00000000E+00  0.00000000E+00  0.00000000E+00  0.00000000E+00
  0.00000000E+00  0.00000000E+00  0.00000000E+00  0.00000000E+00  0.00000000E+00
  0.00000000E+00  0.00000000E+00  0.00000000E+00  0.00000000E+00  0.00000000E+00
  0.00000000E+00  0.00000000E+00  0.00000000E+00  0.00000000E+00  0.00000000E+00
  0.00000000E+00  0.00000000E+00  0.00000000E+00  0.00000000E+00  0.00000000E+00
  0.00000000E+00  0.00000000E+00  0.00000000E+00  0.00000000E+00  0.00000000E+00
  0.00000000E+00  0.00000000E+00  0.00000000E+00  0.00000000E+00  0.00000000E+00
  0.00000000E+00  0.00000000E+00  0.00000000E+00  0.00000000E+00  0.00000000E+00
  0.00000000E+00  0.00000000E+00  0.00000000E+00  0.00000000E+00  0.00000000E+00
  0.00000000E+00  0.00000000E+00  0.00000000E+00  0.00000000E+00  0.00000000E+00
  0.00000000E+00  0.00000000E+00  0.00000000E+00  0.00000000E+00  0.00000000E+00
  0.00000000E+00  0.00000000E+00  0.00000000E+00  0.00000000E+00  0.00000000E+00
  0.00000000E+00  0.00000000E+00  0.00000000E+00  0.00000000E+00  0.00000000E+00
  0.00000000E+00  0.00000000E+00  0.00000000E+00  0.00000000E+00  0.00000000E+00
  0.00000000E+00  0.00000000E+00  0.00000000E+00  0.00000000E+00  0.00000000E+00
  0.00000000E+00  0.00000000E+00  0.00000000E+00  0.00000000E+00  0.00000000E+00
  0.00000000E+00  0.00000000E+00  0.00000000E+00  0.00000000E+00  0.00000000E+00
  0.00000000E+00  0.00000000E+00  0.00000000E+00  0.00000000E+00  0.00000000E+00
  0.00000000E+00  0.00000000E+00  0.00000000E+00  0.00000000E+00  0.00000000E+00
  0.00000000E+00  0.00000000E+00  0.00000000E+00  0.00000000E+00  0.00000000E+00
  0.00000000E+00  0.00000000E+00  0.00000000E+00  0.00000000E+00  0.00000000E+00
  0.00000000E+00  0.00000000E+00  0.00000000E+00  0.00000000E+00  0.00000000E+00
  0.00000000E+00  0.00000000E+00  0.00000000E+00  0.00000000E+00  0.00000000E+00
  0.00000000E+00  0.00000000E+00  0.00000000E+00  0.00000000E+00  0.00000000E+00
  0.00000000E+00  0.00000000E+00  0.00000000E+00  0.00000000E+00  0.00000000E+00
  0.00000000E+00  0.00000000E+00  0.00000000E+00  0.00000000E+00  0.00000000E+00
  0.00000000E+00  0.00000000E+00  0.00000000E+00  0.00000000E+00  0.00000000E+00
  0.00000000E+00  0.00000000E+00  0.00000000E+00  0.00000000E+00  0.00000000E+00
  0.00000000E+00  0.00000000E+00  0.00000000E+00  0.00000000E+00  0.00000000E+00
  0.00000000E+00  0.00000000E+00  0.00000000E+00  0.00000000E+00  0.00000000E+00
  0.00000000E+00  0.00000000E+00  0.00000000E+00  0.00000000E+00  0.00000000E+00
  0.00000000E+00  0.00000000E+00  0.00000000E+00  0.00000000E+00  0.00000000E+00
  0.00000000E+00  0.00000000E+00  0.00000000E+00  0.00000000E+00  0.00000000E+00
  0.00000000E+00  0.00000000E+00  0.00000000E+00  0.00000000E+00  0.00000000E+00
  0.00000000E+00  0.00000000E+00  0.00000000E+00  0.00000000E+00  0.00000000E+00
  0.00000000E+00  0.00000000E+00  0.00000000E+00  0.00000000E+00  0.00000000E+00
  0.00000000E+00  0.00000000E+00  0.00000000E+00  0.00000000E+00  0.00000000E+00
  0.00000000E+00  0.00000000E+00  0.00000000E+00  0.00000000E+00  0.00000000E+00
  0.00000000E+00  0.00000000E+00  0.00000000E+00  0.00000000E+00  0.00000000E+00
  0.00000000E+00  0.00000000E+00  0.00000000E+00  0.00000000E+00  0.00000000E+00
  0.00000000E+00  0.00000000E+00  0.00000000E+00  0.00000000E+00  0.00000000E+00
  0.00000000E+00  0.00000000E+00  0.00000000E+00  0.00000000E+00  0.00000000E+00
  0.00000000E+00  0.00000000E+00  0.00000000E+00  0.00000000E+00  0.00000000E+00
  0.00000000E+00  0.00000000E+00  0.00000000E+00  0.00000000E+00  0.00000000E+00
  0.00000000E+00  0.00000000E+00  0.00000000E+00  0.00000000E+00  0.00000000E+00
  0.00000000E+00  0.00000000E+00  0.00000000E+00  0.00000000E+00  0.00000000E+00
  0.00000000E+00  0.00000000E+00  0.00000000E+00  0.00000000E+00  0.00000000E+00
  0.00000000E+00  0.00000000E+00  0.00000000E+00  0.00000000E+00  0.00000000E+00
  0.00000000E+00  0.00000000E+00  0.00000000E+00  0.00000000E+00  0.00000000E+00
  0.00000000E+00  0.00000000E+00  0.00000000E+00  0.00000000E+00  0.00000000E+00
  0.00000000E+00  0.00000000E+00  0.00000000E+00  0.00000000E+00  0.00000000E+00
  0.00000000E+00  0.00000000E+00  0.00000000E+00  0.00000000E+00  0.00000000E+00
  0.00000000E+00  0.00000000E+00  0.00000000E+00  0.00000000E+00  0.00000000E+00
  0.00000000E+00  0.00000000E+00  0.00000000E+00  0.00000000E+00  0.00000000E+00
  0.00000000E+00  0.00000000E+00  0.00000000E+00  0.00000000E+00  0.00000000E+00
  0.00000000E+00  0.00000000E+00  0.00000000E+00  0.00000000E+00  0.00000000E+00
  0.00000000E+00  0.00000000E+00  0.00000000E+00  0.00000000E+00  0.00000000E+00
  0.00000000E+00  0.00000000E+00  0.00000000E+00  0.00000000E+00  0.00000000E+00
  0.00000000E+00  0.00000000E+00  0.00000000E+00  0.00000000E+00  0.00000000E+00
  0.00000000E+00  0.00000000E+00  0.00000000E+00  0.00000000E+00  0.00000000E+00
  0.00000000E+00  0.00000000E+00  0.00000000E+00  0.00000000E+00  0.00000000E+00
  0.00000000E+00  0.00000000E+00  0.00000000E+00  0.00000000E+00  0.00000000E+00
  0.00000000E+00  0.00000000E+00  0.00000000E+00  0.00000000E+00  0.00000000E+00
  0.00000000E+00  0.00000000E+00  0.00000000E+00  0.00000000E+00  0.00000000E+00
  0.00000000E+00  0.00000000E+00  0.00000000E+00  0.00000000E+00  0.00000000E+00
  0.00000000E+00  0.00000000E+00  0.00000000E+00  0.00000000E+00  0.00000000E+00
  0.00000000E+00  0.00000000E+00  0.00000000E+00  0.00000000E+00  0.00000000E+00
  0.00000000E+00  0.00000000E+00  0.00000000E+00  0.00000000E+00  0.00000000E+00
  0.00000000E+00  0.00000000E+00  0.00000000E+00  0.00000000E+00  0.00000000E+00
  0.00000000E+00  0.00000000E+00  0.00000000E+00  0.00000000E+00  0.00000000E+00
  0.00000000E+00  0.00000000E+00  0.00000000E+00  0.00000000E+00  0.00000000E+00
  0.00000000E+00  0.00000000E+00  0.00000000E+00  0.00000000E+00  0.00000000E+00
  0.00000000E+00  0.00000000E+00  0.00000000E+00  0.00000000E+00  0.00000000E+00
  0.00000000E+00  0.00000000E+00  0.00000000E+00  0.00000000E+00  0.00000000E+00
  0.00000000E+00  0.00000000E+00  0.00000000E+00  0.00000000E+00  0.00000000E+00
  0.00000000E+00  0.00000000E+00  0.00000000E+00  0.00000000E+00  0.00000000E+00
  0.00000000E+00  0.00000000E+00  0.00000000E+00  0.00000000E+00  0.00000000E+00
  0.00000000E+00  0.00000000E+00  0.00000000E+00  0.00000000E+00  0.00000000E+00
  0.00000000E+00  0.00000000E+00  0.00000000E+00  0.00000000E+00  0.00000000E+00
  0.00000000E+00  0.00000000E+00  0.00000000E+00  0.00000000E+00  0.00000000E+00
  0.00000000E+00  0.00000000E+00  0.00000000E+00  0.00000000E+00  0.00000000E+00
  0.00000000E+00  0.00000000E+00  0.00000000E+00  0.00000000E+00  0.00000000E+00
  0.00000000E+00  0.00000000E+00  0.00000000E+00  0.00000000E+00  0.00000000E+00
  0.00000000E+00  0.00000000E+00  0.00000000E+00  0.00000000E+00  0.00000000E+00
  0.00000000E+00  0.00000000E+00  0.00000000E+00  0.00000000E+00  0.00000000E+00
  0.00000000E+00  0.00000000E+00  0.00000000E+00  0.00000000E+00  0.00000000E+00
  0.00000000E+00  0.00000000E+00  0.00000000E+00  0.00000000E+00  0.00000000E+00
  0.00000000E+00  0.00000000E+00  0.00000000E+00  0.00000000E+00  0.00000000E+00
  0.00000000E+00  0.00000000E+00  0.00000000E+00  0.00000000E+00  0.00000000E+00
  0.00000000E+00  0.00000000E+00  0.00000000E+00  0.00000000E+00  0.00000000E+00
  0.00000000E+00  0.00000000E+00  0.00000000E+00  0.00000000E+00  0.00000000E+00
  0.00000000E+00  0.00000000E+00  0.00000000E+00  0.00000000E+00  0.00000000E+00
  0.00000000E+00  0.00000000E+00  0.00000000E+00  0.00000000E+00  0.00000000E+00
  0.00000000E+00  0.00000000E+00  0.00000000E+00  0.00000000E+00  0.00000000E+00
  0.00000000E+00  0.00000000E+00  0.00000000E+00  0.00000000E+00  0.00000000E+00
  0.00000000E+00  0.00000000E+00  0.00000000E+00  0.00000000E+00  0.00000000E+00
  0.00000000E+00  0.00000000E+00  0.00000000E+00  0.00000000E+00  0.00000000E+00
  0.00000000E+00  0.00000000E+00  0.00000000E+00  0.00000000E+00  0.00000000E+00
  0.00000000E+00  0.00000000E+00  0.00000000E+00  0.00000000E+00  0.00000000E+00
  0.00000000E+00  0.00000000E+00  0.00000000E+00  0.00000000E+00  0.00000000E+00
  0.00000000E+00  0.00000000E+00  0.00000000E+00  0.00000000E+00  0.00000000E+00
Gaussian Version                           C   N=           2
ES64L-G16RevC.01        
