 Entering Gaussian System, Link 0=g16
 Input=GauExternal.gjf
 Output=GauExternal.log
 Initial command:
 /gaussian/g16.c01/intel64-sandybridge/g16/l1.exe "/home/barone/lcrisci_vb/ACTUAL_PROJECTS/MRCC_new_Interface_project/TestingOldVersion/Symmetry/C2H4_D2h/Iterations/Iteration_1/task_atom_1_ixyz_3_down/Gau-4153377.inp" -scrdir="/home/barone/lcrisci_vb/ACTUAL_PROJECTS/MRCC_new_Interface_project/TestingOldVersion/Symmetry/C2H4_D2h/Iterations/Iteration_1/task_atom_1_ixyz_3_down/"
 Entering Link 1 = /gaussian/g16.c01/intel64-sandybridge/g16/l1.exe PID=   4153379.
  
 Copyright (c) 1988-2019, Gaussian, Inc.  All Rights Reserved.
  
 This is part of the Gaussian(R) 16 program.  It is based on
 the Gaussian(R) 09 system (copyright 2009, Gaussian, Inc.),
 the Gaussian(R) 03 system (copyright 2003, Gaussian, Inc.),
 the Gaussian(R) 98 system (copyright 1998, Gaussian, Inc.),
 the Gaussian(R) 94 system (copyright 1995, Gaussian, Inc.),
 the Gaussian 92(TM) system (copyright 1992, Gaussian, Inc.),
 the Gaussian 90(TM) system (copyright 1990, Gaussian, Inc.),
 the Gaussian 88(TM) system (copyright 1988, Gaussian, Inc.),
 the Gaussian 86(TM) system (copyright 1986, Carnegie Mellon
 University), and the Gaussian 82(TM) system (copyright 1983,
 Carnegie Mellon University). Gaussian is a federally registered
 trademark of Gaussian, Inc.
  
 This software contains proprietary and confidential information,
 including trade secrets, belonging to Gaussian, Inc.
  
 This software is provided under written license and may be
 used, copied, transmitted, or stored only in accord with that
 written license.
  
 The following legend is applicable only to US Government
 contracts under FAR:
  
                    RESTRICTED RIGHTS LEGEND
  
 Use, reproduction and disclosure by the US Government is
 subject to restrictions as set forth in subparagraphs (a)
 and (c) of the Commercial Computer Software - Restricted
 Rights clause in FAR 52.227-19.
  
 Gaussian, Inc.
 340 Quinnipiac St., Bldg. 40, Wallingford CT 06492
  
  
 ---------------------------------------------------------------
 Warning -- This program may not be used in any manner that
 competes with the business of Gaussian, Inc. or will provide
 assistance to any competitor of Gaussian, Inc.  The licensee
 of this program is prohibited from giving any competitor of
 Gaussian, Inc. access to this program.  By using this program,
 the user acknowledges that Gaussian, Inc. is engaged in the
 business of creating and licensing software in the field of
 computational chemistry and represents and warrants to the
 licensee that it is not a competitor of Gaussian, Inc. and that
 it will not use this program in any manner prohibited above.
 ---------------------------------------------------------------
  

 Cite this work as:
 Gaussian 16, Revision C.01,
 M. J. Frisch, G. W. Trucks, H. B. Schlegel, G. E. Scuseria, 
 M. A. Robb, J. R. Cheeseman, G. Scalmani, V. Barone, 
 G. A. Petersson, H. Nakatsuji, X. Li, M. Caricato, A. V. Marenich, 
 J. Bloino, B. G. Janesko, R. Gomperts, B. Mennucci, H. P. Hratchian, 
 J. V. Ortiz, A. F. Izmaylov, J. L. Sonnenberg, D. Williams-Young, 
 F. Ding, F. Lipparini, F. Egidi, J. Goings, B. Peng, A. Petrone, 
 T. Henderson, D. Ranasinghe, V. G. Zakrzewski, J. Gao, N. Rega, 
 G. Zheng, W. Liang, M. Hada, M. Ehara, K. Toyota, R. Fukuda, 
 J. Hasegawa, M. Ishida, T. Nakajima, Y. Honda, O. Kitao, H. Nakai, 
 T. Vreven, K. Throssell, J. A. Montgomery, Jr., J. E. Peralta, 
 F. Ogliaro, M. J. Bearpark, J. J. Heyd, E. N. Brothers, K. N. Kudin, 
 V. N. Staroverov, T. A. Keith, R. Kobayashi, J. Normand, 
 K. Raghavachari, A. P. Rendell, J. C. Burant, S. S. Iyengar, 
 J. Tomasi, M. Cossi, J. M. Millam, M. Klene, C. Adamo, R. Cammi, 
 J. W. Ochterski, R. L. Martin, K. Morokuma, O. Farkas, 
 J. B. Foresman, and D. J. Fox, Gaussian, Inc., Wallingford CT, 2019.
 
 ******************************************
 Gaussian 16:  ES64L-G16RevC.01  3-Jul-2019
                19-Nov-2025 
 ******************************************
 %nproc=7
 Will use up to    7 processors via shared memory.
 %mem=55GB
 %chk=GauExternal.chk
 --------------------
 #P hf/sto-3g scf=xqc
 --------------------
 1/38=1,172=1/1;
 2/12=2,17=6,18=5,40=1/2;
 3/6=3,11=9,25=1,30=1/1,2,3;
 4//1;
 5/5=2,8=3,13=1,38=5/2,8;
 6/7=2,8=2,9=2,10=2,28=1/1;
 99/5=1,9=1/99;
 Leave Link    1 at Wed Nov 19 18:13:06 2025, MaxMem=  7381975040 cpu:               0.0 elap:               0.2
 (Enter /gaussian/g16.c01/intel64-sandybridge/g16/l101.exe)
 --------------------
 External Calculation
 --------------------
 Symbolic Z-matrix:
 Charge =  0 Multiplicity = 1
 C                     0.        0.        0.6766 
 H                     0.        0.92414   1.21655 
 H                     0.       -0.92414   1.21655 
 C                     0.        0.       -0.6776 
 H                     0.       -0.92414  -1.21655 
 H                     0.        0.92414  -1.21655 
 
 ITRead=  0  0  0  0  0  0
 MicOpt= -1 -1 -1 -1 -1 -1
 NAtoms=      6 NQM=        6 NQMF=       0 NMMI=      0 NMMIF=      0
                NMic=       0 NMicF=      0.
                    Isotopes and Nuclear Properties:
 (Nuclear quadrupole moments (NQMom) in fm**2, nuclear magnetic moments (NMagM)
  in nuclear magnetons)

  Atom         1           2           3           4           5           6
 IAtWgt=          12           1           1          12           1           1
 AtmWgt=  12.0000000   1.0078250   1.0078250  12.0000000   1.0078250   1.0078250
 NucSpn=           0           1           1           0           1           1
 AtZEff=  -0.0000000  -0.0000000  -0.0000000  -0.0000000  -0.0000000  -0.0000000
 NQMom=    0.0000000   0.0000000   0.0000000   0.0000000   0.0000000   0.0000000
 NMagM=    0.0000000   2.7928460   2.7928460   0.0000000   2.7928460   2.7928460
 AtZNuc=   6.0000000   1.0000000   1.0000000   6.0000000   1.0000000   1.0000000
 Leave Link  101 at Wed Nov 19 18:13:07 2025, MaxMem=  7381975040 cpu:               0.1 elap:               0.1
 (Enter /gaussian/g16.c01/intel64-sandybridge/g16/l202.exe)
                          Input orientation:                          
 ---------------------------------------------------------------------
 Center     Atomic      Atomic             Coordinates (Angstroms)
 Number     Number       Type             X           Y           Z
 ---------------------------------------------------------------------
      1          6           0        0.000000    0.000000    0.676600
      2          1           0        0.000000    0.924145    1.216552
      3          1           0        0.000000   -0.924145    1.216552
      4          6           0        0.000000    0.000000   -0.677600
      5          1           0        0.000000   -0.924145   -1.216552
      6          1           0        0.000000    0.924145   -1.216552
 ---------------------------------------------------------------------
                    Distance matrix (angstroms):
                    1          2          3          4          5
     1  C    0.000000
     2  H    1.070323   0.000000
     3  H    1.070323   1.848289   0.000000
     4  C    1.354200   2.107571   2.107571   0.000000
     5  H    2.106672   3.055514   2.433104   1.069819   0.000000
     6  H    2.106672   2.433104   3.055514   1.069819   1.848289
                    6
     6  H    0.000000
 Stoichiometry    C2H4
 Framework group  C2V[C2(CC),SGV(H4)]
 Deg. of freedom     5
 Full point group                 C2V     NOp   4
 Largest Abelian subgroup         C2V     NOp   4
 Largest concise Abelian subgroup C2      NOp   2
                         Standard orientation:                         
 ---------------------------------------------------------------------
 Center     Atomic      Atomic             Coordinates (Angstroms)
 Number     Number       Type             X           Y           Z
 ---------------------------------------------------------------------
      1          6           0        0.000000    0.000000   -0.676975
      2          1           0        0.000000    0.924145   -1.216927
      3          1           0       -0.000000   -0.924145   -1.216927
      4          6           0        0.000000   -0.000000    0.677225
      5          1           0        0.000000   -0.924145    1.216177
      6          1           0        0.000000    0.924145    1.216177
 ---------------------------------------------------------------------
 Rotational constants (GHZ):         146.7885138          29.7816707          24.7584675
 Leave Link  202 at Wed Nov 19 18:13:07 2025, MaxMem=  7381975040 cpu:               0.0 elap:               0.1
 (Enter /gaussian/g16.c01/intel64-sandybridge/g16/l301.exe)
 Standard basis: STO-3G (5D, 7F)
 Ernie: Thresh=  0.10000D-02 Tol=  0.10000D-05 Strict=F.
 There are     8 symmetry adapted cartesian basis functions of A1  symmetry.
 There are     0 symmetry adapted cartesian basis functions of A2  symmetry.
 There are     2 symmetry adapted cartesian basis functions of B1  symmetry.
 There are     4 symmetry adapted cartesian basis functions of B2  symmetry.
 There are     8 symmetry adapted basis functions of A1  symmetry.
 There are     0 symmetry adapted basis functions of A2  symmetry.
 There are     2 symmetry adapted basis functions of B1  symmetry.
 There are     4 symmetry adapted basis functions of B2  symmetry.
    14 basis functions,    42 primitive gaussians,    14 cartesian basis functions
     8 alpha electrons        8 beta electrons
       nuclear repulsion energy        33.3175036741 Hartrees.
 IExCor=    0 DFT=F Ex=HF Corr=None ExCW=0 ScaHFX=  1.000000
 ScaDFX=  1.000000  1.000000  1.000000  1.000000 ScalE2=  1.000000  1.000000
 IRadAn=      5 IRanWt=     -1 IRanGd=            0 ICorTp=0 IEmpDi=  4
 NAtoms=    6 NActive=    6 NUniq=    4 SFac= 2.25D+00 NAtFMM=   60 NAOKFM=F Big=F
 Integral buffers will be    131072 words long.
 Raffenetti 1 integral format.
 Two-electron integral symmetry is turned on.
 Leave Link  301 at Wed Nov 19 18:13:07 2025, MaxMem=  7381975040 cpu:               0.0 elap:               0.1
 (Enter /gaussian/g16.c01/intel64-sandybridge/g16/l302.exe)
 NPDir=0 NMtPBC=     1 NCelOv=     1 NCel=       1 NClECP=     1 NCelD=      1
         NCelK=      1 NCelE2=     1 NClLst=     1 CellRange=     0.0.
 One-electron integrals computed using PRISM.
 One-electron integral symmetry used in STVInt
 NBasis=    14 RedAO= T EigKep=  1.95D-01  NBF=     8     0     2     4
 NBsUse=    14 1.00D-06 EigRej= -1.00D+00 NBFU=     8     0     2     4
 Leave Link  302 at Wed Nov 19 18:13:07 2025, MaxMem=  7381975040 cpu:               0.2 elap:               0.1
 (Enter /gaussian/g16.c01/intel64-sandybridge/g16/l303.exe)
 DipDrv:  MaxL=1.
 Leave Link  303 at Wed Nov 19 18:13:07 2025, MaxMem=  7381975040 cpu:               0.1 elap:               0.1
 (Enter /gaussian/g16.c01/intel64-sandybridge/g16/l401.exe)
 ExpMin= 1.69D-01 ExpMax= 7.16D+01 ExpMxC= 7.16D+01 IAcc=3 IRadAn=         5 AccDes= 0.00D+00
 Harris functional with IExCor=  205 and IRadAn=       5 diagonalized for initial guess.
 HarFok:  IExCor=  205 AccDes= 0.00D+00 IRadAn=         5 IDoV= 1 UseB2=F ITyADJ=14
 ICtDFT=  3500011 ScaDFX=  1.000000  1.000000  1.000000  1.000000
 FoFCou: FMM=F IPFlag=           0 FMFlag=      100000 FMFlg1=           0
         NFxFlg=           0 DoJE=T BraDBF=F KetDBF=T FulRan=T
         wScrn=  0.000000 ICntrl=       500 IOpCl=  0 I1Cent=   200000004 NGrid=           0
         NMat0=    1 NMatS0=      1 NMatT0=    0 NMatD0=    1 NMtDS0=    0 NMtDT0=    0
 Petite list used in FoFCou.
 Harris En= -77.2409616822130    
 JPrj=0 DoOrth=F DoCkMO=F.
 Initial guess orbital symmetries:
       Occupied  (A1) (A1) (A1) (A1) (B2) (A1) (B2) (B1)
       Virtual   (B1) (B2) (A1) (A1) (A1) (B2)
 The electronic state of the initial guess is 1-A1.
 Leave Link  401 at Wed Nov 19 18:13:08 2025, MaxMem=  7381975040 cpu:               0.4 elap:               0.1
 (Enter /gaussian/g16.c01/intel64-sandybridge/g16/l502.exe)
 Keep R1 ints in memory in symmetry-blocked form, NReq=812619.
 FoFCou: FMM=F IPFlag=           0 FMFlag=           0 FMFlg1=           0
         NFxFlg=           0 DoJE=F BraDBF=F KetDBF=F FulRan=T
         wScrn=  0.000000 ICntrl=       600 IOpCl=  0 I1Cent=           0 NGrid=           0
         NMat0=    1 NMatS0=    105 NMatT0=    0 NMatD0=    1 NMtDS0=    0 NMtDT0=    0
 Petite list used in FoFCou.
 Closed shell SCF:
 Using DIIS extrapolation, IDIIS=  1040.
 NGot=  7381975040 LenX=  7381970718 LenY=  7381969836
 Requested convergence on RMS density matrix=1.00D-08 within  32 cycles.
 Requested convergence on MAX density matrix=1.00D-06.
 Requested convergence on             energy=1.00D-06.
 No special actions if energy rises.

 Cycle   1  Pass 1  IDiag  1:
 E= -77.0211622001686    
 DIIS: error= 5.18D-02 at cycle   1 NSaved=   1.
 NSaved= 1 IEnMin= 1 EnMin= -77.0211622001686     IErMin= 1 ErrMin= 5.18D-02
 ErrMax= 5.18D-02  0.00D+00 EMaxC= 1.00D-01 BMatC= 4.64D-02 BMatP= 4.64D-02
 IDIUse=3 WtCom= 4.82D-01 WtEn= 5.18D-01
 Coeff-Com:  0.100D+01
 Coeff-En:   0.100D+01
 Coeff:      0.100D+01
 Gap=     0.631 Goal=   None    Shift=    0.000
 GapD=    0.631 DampG=2.000 DampE=0.500 DampFc=1.0000 IDamp=-1.
 RMSDP=1.97D-02 MaxDP=1.01D-01              OVMax= 0.00D+00

 Cycle   2  Pass 1  IDiag  1:
 E= -77.0692657476506     Delta-E=       -0.048103547482 Rises=F Damp=F
 DIIS: error= 5.97D-03 at cycle   2 NSaved=   2.
 NSaved= 2 IEnMin= 2 EnMin= -77.0692657476506     IErMin= 2 ErrMin= 5.97D-03
 ErrMax= 5.97D-03  0.00D+00 EMaxC= 1.00D-01 BMatC= 2.44D-04 BMatP= 4.64D-02
 IDIUse=3 WtCom= 9.40D-01 WtEn= 5.97D-02
 Coeff-Com: -0.744D-02 0.101D+01
 Coeff-En:   0.000D+00 0.100D+01
 Coeff:     -0.699D-02 0.101D+01
 Gap=     0.630 Goal=   None    Shift=    0.000
 RMSDP=1.13D-03 MaxDP=6.15D-03 DE=-4.81D-02 OVMax= 0.00D+00

 Cycle   3  Pass 1  IDiag  1:
 E= -77.0694134398881     Delta-E=       -0.000147692237 Rises=F Damp=F
 DIIS: error= 4.46D-04 at cycle   3 NSaved=   3.
 NSaved= 3 IEnMin= 3 EnMin= -77.0694134398881     IErMin= 3 ErrMin= 4.46D-04
 ErrMax= 4.46D-04  0.00D+00 EMaxC= 1.00D-01 BMatC= 2.54D-06 BMatP= 2.44D-04
 IDIUse=3 WtCom= 9.96D-01 WtEn= 4.46D-03
 Coeff-Com: -0.210D-02-0.422D-01 0.104D+01
 Coeff-En:   0.000D+00 0.000D+00 0.100D+01
 Coeff:     -0.209D-02-0.421D-01 0.104D+01
 Gap=     0.630 Goal=   None    Shift=    0.000
 RMSDP=1.82D-04 MaxDP=8.88D-04 DE=-1.48D-04 OVMax= 0.00D+00

 Cycle   4  Pass 1  IDiag  1:
 E= -77.0694177215439     Delta-E=       -0.000004281656 Rises=F Damp=F
 DIIS: error= 1.04D-04 at cycle   4 NSaved=   4.
 NSaved= 4 IEnMin= 4 EnMin= -77.0694177215439     IErMin= 4 ErrMin= 1.04D-04
 ErrMax= 1.04D-04  0.00D+00 EMaxC= 1.00D-01 BMatC= 1.06D-07 BMatP= 2.54D-06
 IDIUse=3 WtCom= 9.99D-01 WtEn= 1.04D-03
 Coeff-Com:  0.647D-03 0.151D-02-0.282D+00 0.128D+01
 Coeff-En:   0.000D+00 0.000D+00 0.000D+00 0.100D+01
 Coeff:      0.647D-03 0.150D-02-0.282D+00 0.128D+01
 Gap=     0.630 Goal=   None    Shift=    0.000
 RMSDP=4.96D-05 MaxDP=2.97D-04 DE=-4.28D-06 OVMax= 0.00D+00

 Cycle   5  Pass 1  IDiag  1:
 E= -77.0694179124706     Delta-E=       -0.000000190927 Rises=F Damp=F
 DIIS: error= 4.73D-06 at cycle   5 NSaved=   5.
 NSaved= 5 IEnMin= 5 EnMin= -77.0694179124706     IErMin= 5 ErrMin= 4.73D-06
 ErrMax= 4.73D-06  0.00D+00 EMaxC= 1.00D-01 BMatC= 3.91D-10 BMatP= 1.06D-07
 IDIUse=1 WtCom= 1.00D+00 WtEn= 0.00D+00
 Coeff-Com:  0.121D-03 0.297D-03-0.529D-01 0.234D+00 0.819D+00
 Coeff:      0.121D-03 0.297D-03-0.529D-01 0.234D+00 0.819D+00
 Gap=     0.630 Goal=   None    Shift=    0.000
 RMSDP=2.03D-06 MaxDP=1.26D-05 DE=-1.91D-07 OVMax= 0.00D+00

 Cycle   6  Pass 1  IDiag  1:
 E= -77.0694179129390     Delta-E=       -0.000000000468 Rises=F Damp=F
 DIIS: error= 1.20D-06 at cycle   6 NSaved=   6.
 NSaved= 6 IEnMin= 6 EnMin= -77.0694179129390     IErMin= 6 ErrMin= 1.20D-06
 ErrMax= 1.20D-06  0.00D+00 EMaxC= 1.00D-01 BMatC= 3.34D-11 BMatP= 3.91D-10
 IDIUse=1 WtCom= 1.00D+00 WtEn= 0.00D+00
 Coeff-Com: -0.626D-04-0.156D-03 0.274D-01-0.125D+00 0.913D-01 0.101D+01
 Coeff:     -0.626D-04-0.156D-03 0.274D-01-0.125D+00 0.913D-01 0.101D+01
 Gap=     0.630 Goal=   None    Shift=    0.000
 RMSDP=6.11D-07 MaxDP=3.08D-06 DE=-4.68D-10 OVMax= 0.00D+00

 Cycle   7  Pass 1  IDiag  1:
 E= -77.0694179129846     Delta-E=       -0.000000000046 Rises=F Damp=F
 DIIS: error= 5.37D-08 at cycle   7 NSaved=   7.
 NSaved= 7 IEnMin= 7 EnMin= -77.0694179129846     IErMin= 7 ErrMin= 5.37D-08
 ErrMax= 5.37D-08  0.00D+00 EMaxC= 1.00D-01 BMatC= 4.77D-14 BMatP= 3.34D-11
 IDIUse=1 WtCom= 1.00D+00 WtEn= 0.00D+00
 Coeff-Com:  0.123D-04 0.312D-04-0.538D-02 0.246D-01-0.203D-01-0.213D+00
 Coeff-Com:  0.121D+01
 Coeff:      0.123D-04 0.312D-04-0.538D-02 0.246D-01-0.203D-01-0.213D+00
 Coeff:      0.121D+01
 Gap=     0.630 Goal=   None    Shift=    0.000
 RMSDP=3.12D-08 MaxDP=1.77D-07 DE=-4.56D-11 OVMax= 0.00D+00

 Cycle   8  Pass 1  IDiag  1:
 E= -77.0694179129848     Delta-E=       -0.000000000000 Rises=F Damp=F
 DIIS: error= 9.75D-09 at cycle   8 NSaved=   8.
 NSaved= 8 IEnMin= 8 EnMin= -77.0694179129848     IErMin= 8 ErrMin= 9.75D-09
 ErrMax= 9.75D-09  0.00D+00 EMaxC= 1.00D-01 BMatC= 1.37D-15 BMatP= 4.77D-14
 IDIUse=1 WtCom= 1.00D+00 WtEn= 0.00D+00
 Coeff-Com: -0.205D-05-0.540D-05 0.892D-03-0.410D-02 0.458D-02 0.345D-01
 Coeff-Com: -0.265D+00 0.123D+01
 Coeff:     -0.205D-05-0.540D-05 0.892D-03-0.410D-02 0.458D-02 0.345D-01
 Coeff:     -0.265D+00 0.123D+01
 Gap=     0.630 Goal=   None    Shift=    0.000
 RMSDP=5.16D-09 MaxDP=2.92D-08 DE=-1.85D-13 OVMax= 0.00D+00

 SCF Done:  E(RHF) =  -77.0694179130     A.U. after    8 cycles
            NFock=  8  Conv=0.52D-08     -V/T= 2.0063
 KE= 7.658346773920D+01 PE=-2.459869573107D+02 EE= 5.901656798446D+01
 Leave Link  502 at Wed Nov 19 18:13:08 2025, MaxMem=  7381975040 cpu:               0.4 elap:               0.4
 (Enter /gaussian/g16.c01/intel64-sandybridge/g16/l508.exe)
 QCSCF skips out because SCF is already converged.
 Leave Link  508 at Wed Nov 19 18:13:08 2025, MaxMem=  7381975040 cpu:               0.0 elap:               0.0
 (Enter /gaussian/g16.c01/intel64-sandybridge/g16/l601.exe)
 Copying SCF densities to generalized density rwf, IOpCl= 0 IROHF=0.

 **********************************************************************

            Population analysis using the SCF Density.

 **********************************************************************

 Orbital symmetries:
       Occupied  (A1) (A1) (A1) (A1) (B2) (A1) (B2) (B1)
       Virtual   (B1) (B2) (A1) (A1) (A1) (B2)
 The electronic state is 1-A1.
 Alpha  occ. eigenvalues --  -11.01842 -11.01774  -0.97525  -0.74962  -0.60872
 Alpha  occ. eigenvalues --   -0.52410  -0.47265  -0.31867
 Alpha virt. eigenvalues --    0.31093   0.65713   0.69515   0.70645   0.95332
 Alpha virt. eigenvalues --    0.95912
          Condensed to atoms (all electrons):
               1          2          3          4          5          6
     1  C    4.797664   0.395437   0.395437   0.592481  -0.025989  -0.025989
     2  H    0.395437   0.591786  -0.023169  -0.025944   0.001982  -0.004636
     3  H    0.395437  -0.023169   0.591786  -0.025944  -0.004636   0.001982
     4  C    0.592481  -0.025944  -0.025944   4.797734   0.395557   0.395557
     5  H   -0.025989   0.001982  -0.004636   0.395557   0.591521  -0.023129
     6  H   -0.025989  -0.004636   0.001982   0.395557  -0.023129   0.591521
 Mulliken charges:
               1
     1  C   -0.129040
     2  H    0.064545
     3  H    0.064545
     4  C   -0.129441
     5  H    0.064695
     6  H    0.064695
 Sum of Mulliken charges =  -0.00000
 Mulliken charges with hydrogens summed into heavy atoms:
               1
     1  C    0.000051
     4  C   -0.000051
 Electronic spatial extent (au):  <R**2>=             80.7152
 Charge=             -0.0000 electrons
 Dipole moment (field-independent basis, Debye):
    X=              0.0000    Y=              0.0000    Z=             -0.0007  Tot=              0.0007
 Quadrupole moment (field-independent basis, Debye-Ang):
   XX=            -13.4715   YY=            -11.7777   ZZ=            -12.0468
   XY=              0.0000   XZ=              0.0000   YZ=              0.0000
 Traceless Quadrupole moment (field-independent basis, Debye-Ang):
   XX=             -1.0395   YY=              0.6543   ZZ=              0.3852
   XY=              0.0000   XZ=              0.0000   YZ=              0.0000
 Octapole moment (field-independent basis, Debye-Ang**2):
  XXX=              0.0000  YYY=              0.0000  ZZZ=             -0.0038  XYY=              0.0000
  XXY=              0.0000  XXZ=             -0.0002  XZZ=             -0.0000  YZZ=             -0.0000
  YYZ=              0.0002  XYZ=             -0.0000
 Hexadecapole moment (field-independent basis, Debye-Ang**3):
 XXXX=            -10.8830 YYYY=            -23.8826 ZZZZ=            -64.2137 XXXY=             -0.0000
 XXXZ=             -0.0000 YYYX=             -0.0000 YYYZ=              0.0000 ZZZX=             -0.0000
 ZZZY=              0.0000 XXYY=             -6.3147 XXZZ=            -12.9146 YYZZ=            -12.5474
 XXYZ=              0.0000 YYXZ=              0.0000 ZZXY=              0.0000
 N-N= 3.331750367409D+01 E-N=-2.459869573071D+02  KE= 7.658346773920D+01
 Symmetry A1   KE= 7.017884513319D+01
 Symmetry A2   KE= 0.000000000000D+00
 Symmetry B1   KE= 2.541424911134D+00
 Symmetry B2   KE= 3.863197694876D+00
 No NMR shielding tensors so no spin-rotation constants.
 Leave Link  601 at Wed Nov 19 18:13:09 2025, MaxMem=  7381975040 cpu:               0.3 elap:               0.1
 (Enter /gaussian/g16.c01/intel64-sandybridge/g16/l9999.exe)
 Unable to Open any file for archive entry.
 1\1\GINC-THIOTIMOLINE-LARGE01\SP\RHF\STO-3G\C2H4\LCRISCI_VB\19-Nov-202
 5\0\\#P hf/sto-3g scf=xqc\\External Calculation\\0,1\C,0,0.,0.,0.67659
 997\H,0,0.,0.9241447399,1.2165519699\H,0,0.,-0.9241447399,1.2165519699
 \C,0,0.,0.,-0.67759997\H,0,0.,-0.9241447399,-1.2165519699\H,0,0.,0.924
 1447399,-1.2165519699\\Version=ES64L-G16RevC.01\State=1-A1\HF=-77.0694
 179\RMSD=5.162e-09\Dipole=0.,0.,0.0002606\Quadrupole=-0.7728655,0.4864
 541,0.2864114,0.,0.,0.\PG=C02V [C2(C1C1),SGV(H4)]\\@
 The archive entry for this job was punched.


 HE THAT WALD REACHE THE SWEITE ROSE
 SULD NOW AND THEN BE SCRATCHED WT THE SCHARPE BREERES.
 -- PROVERBS AND REASONS OF THE YEAR 1585
           AS REPRINTED IN PAISLEY MAGAZINE 1828.
 Job cpu time:       0 days  0 hours  0 minutes  1.8 seconds.
 Elapsed time:       0 days  0 hours  0 minutes  1.6 seconds.
 File lengths (MBytes):  RWF=      5 Int=      0 D2E=      0 Chk=      1 Scr=      1
 Normal termination of Gaussian 16 at Wed Nov 19 18:13:09 2025.
