%chk=test_parall.chk
%nprocs=1
#p force output=pickett External="CentralExt gau $PGAU/gau_preamble.dat $EGAU/gau_enging.dat 7 55 read parall 2" 

title

0 1
C                 -1.17333896   -0.15076314    0.00000000
C                  0.23129705    0.40235083    0.00000000
O                  1.24256504   -0.27713019    0.00000000
H                 -1.71570095    0.21776766    0.88766494
H                 -1.14950998   -1.24995315    0.00000000
H                 -1.71570095    0.21776766   -0.88766494
H                  0.29260707    1.52200483    0.00000000




