 Entering Gaussian System, Link 0=/gaussian/g16.c01/intel64-sandybridge/g16/g16
 Input=Benzene_D6h.gjf
 Output=Benzene_D6h.log
 Initial command:
 /gaussian/g16.c01/intel64-sandybridge/g16/l1.exe "/home/barone/lcrisci_vb/ACTUAL_PROJECTS/MRCC_new_Interface_project/TestingOldVersion/Symmetry/Benzene_D6h/Gau-4157713.inp" -scrdir="/home/barone/lcrisci_vb/ACTUAL_PROJECTS/MRCC_new_Interface_project/TestingOldVersion/Symmetry/Benzene_D6h/"
 Entering Link 1 = /gaussian/g16.c01/intel64-sandybridge/g16/l1.exe PID=   4157714.
  
 Copyright (c) 1988-2019, Gaussian, Inc.  All Rights Reserved.
  
 This is part of the Gaussian(R) 16 program.  It is based on
 the Gaussian(R) 09 system (copyright 2009, Gaussian, Inc.),
 the Gaussian(R) 03 system (copyright 2003, Gaussian, Inc.),
 the Gaussian(R) 98 system (copyright 1998, Gaussian, Inc.),
 the Gaussian(R) 94 system (copyright 1995, Gaussian, Inc.),
 the Gaussian 92(TM) system (copyright 1992, Gaussian, Inc.),
 the Gaussian 90(TM) system (copyright 1990, Gaussian, Inc.),
 the Gaussian 88(TM) system (copyright 1988, Gaussian, Inc.),
 the Gaussian 86(TM) system (copyright 1986, Carnegie Mellon
 University), and the Gaussian 82(TM) system (copyright 1983,
 Carnegie Mellon University). Gaussian is a federally registered
 trademark of Gaussian, Inc.
  
 This software contains proprietary and confidential information,
 including trade secrets, belonging to Gaussian, Inc.
  
 This software is provided under written license and may be
 used, copied, transmitted, or stored only in accord with that
 written license.
  
 The following legend is applicable only to US Government
 contracts under FAR:
  
                    RESTRICTED RIGHTS LEGEND
  
 Use, reproduction and disclosure by the US Government is
 subject to restrictions as set forth in subparagraphs (a)
 and (c) of the Commercial Computer Software - Restricted
 Rights clause in FAR 52.227-19.
  
 Gaussian, Inc.
 340 Quinnipiac St., Bldg. 40, Wallingford CT 06492
  
  
 ---------------------------------------------------------------
 Warning -- This program may not be used in any manner that
 competes with the business of Gaussian, Inc. or will provide
 assistance to any competitor of Gaussian, Inc.  The licensee
 of this program is prohibited from giving any competitor of
 Gaussian, Inc. access to this program.  By using this program,
 the user acknowledges that Gaussian, Inc. is engaged in the
 business of creating and licensing software in the field of
 computational chemistry and represents and warrants to the
 licensee that it is not a competitor of Gaussian, Inc. and that
 it will not use this program in any manner prohibited above.
 ---------------------------------------------------------------
  

 Cite this work as:
 Gaussian 16, Revision C.01,
 M. J. Frisch, G. W. Trucks, H. B. Schlegel, G. E. Scuseria, 
 M. A. Robb, J. R. Cheeseman, G. Scalmani, V. Barone, 
 G. A. Petersson, H. Nakatsuji, X. Li, M. Caricato, A. V. Marenich, 
 J. Bloino, B. G. Janesko, R. Gomperts, B. Mennucci, H. P. Hratchian, 
 J. V. Ortiz, A. F. Izmaylov, J. L. Sonnenberg, D. Williams-Young, 
 F. Ding, F. Lipparini, F. Egidi, J. Goings, B. Peng, A. Petrone, 
 T. Henderson, D. Ranasinghe, V. G. Zakrzewski, J. Gao, N. Rega, 
 G. Zheng, W. Liang, M. Hada, M. Ehara, K. Toyota, R. Fukuda, 
 J. Hasegawa, M. Ishida, T. Nakajima, Y. Honda, O. Kitao, H. Nakai, 
 T. Vreven, K. Throssell, J. A. Montgomery, Jr., J. E. Peralta, 
 F. Ogliaro, M. J. Bearpark, J. J. Heyd, E. N. Brothers, K. N. Kudin, 
 V. N. Staroverov, T. A. Keith, R. Kobayashi, J. Normand, 
 K. Raghavachari, A. P. Rendell, J. C. Burant, S. S. Iyengar, 
 J. Tomasi, M. Cossi, J. M. Millam, M. Klene, C. Adamo, R. Cammi, 
 J. W. Ochterski, R. L. Martin, K. Morokuma, O. Farkas, 
 J. B. Foresman, and D. J. Fox, Gaussian, Inc., Wallingford CT, 2019.
 
 ******************************************
 Gaussian 16:  ES64L-G16RevC.01  3-Jul-2019
                19-Nov-2025 
 ******************************************
 %nprocs=1
 Will use up to    1 processors via shared memory.
 ----------------------------------------------------------------------
 #p force output=pickett External="CentralExt gau $PGAU/test_pr.dat $EG
 AU/test_en.dat 7 55 read parall 2"
 ----------------------------------------------------------------------
 1/10=10,18=10,30=1,38=1,172=1/1;
 2/12=2,17=6,18=5,29=2,40=1/2;
 3/11=9,25=1,30=1,41=9900000,43=2,71=1/1;
 4/20=17,22=1,24=3,113=1,114=1/2;
 6/7=2,8=2,9=2,10=2/1;
 7/7=1,44=-1/16;
 99/10=1024,12=1/99;
 Leave Link    1 at Wed Nov 19 18:21:04 2025, MaxMem=           0 cpu:               0.0 elap:               0.1
 (Enter /gaussian/g16.c01/intel64-sandybridge/g16/l101.exe)
 -----
 title
 -----
 Symbolic Z-matrix:
 Charge =  0 Multiplicity = 1
 C                     0.        1.39499   0. 
 C                    -1.2081    0.6975    0. 
 C                    -1.2081   -0.6975    0. 
 C                     0.       -1.39499   0. 
 C                     1.2081   -0.6975    0. 
 C                     1.2081    0.6975    0. 
 H                     0.        2.4946    0. 
 H                    -2.16039   1.2473    0. 
 H                    -2.16039  -1.2473    0. 
 H                     0.       -2.4946    0. 
 H                     2.16039  -1.2473    0. 
 H                     2.16039   1.2473    0. 
 
 ITRead=  0  0  0  0  0  0  0  0  0  0  0  0
 MicOpt= -1 -1 -1 -1 -1 -1 -1 -1 -1 -1 -1 -1
 NAtoms=     12 NQM=       12 NQMF=       0 NMMI=      0 NMMIF=      0
                NMic=       0 NMicF=      0.
                    Isotopes and Nuclear Properties:
 (Nuclear quadrupole moments (NQMom) in fm**2, nuclear magnetic moments (NMagM)
  in nuclear magnetons)

  Atom         1           2           3           4           5           6           7           8           9          10
 IAtWgt=          12          12          12          12          12          12           1           1           1           1
 AtmWgt=  12.0000000  12.0000000  12.0000000  12.0000000  12.0000000  12.0000000   1.0078250   1.0078250   1.0078250   1.0078250
 NucSpn=           0           0           0           0           0           0           1           1           1           1
 AtZEff=  -0.0000000  -0.0000000  -0.0000000  -0.0000000  -0.0000000  -0.0000000  -0.0000000  -0.0000000  -0.0000000  -0.0000000
 NQMom=    0.0000000   0.0000000   0.0000000   0.0000000   0.0000000   0.0000000   0.0000000   0.0000000   0.0000000   0.0000000
 NMagM=    0.0000000   0.0000000   0.0000000   0.0000000   0.0000000   0.0000000   2.7928460   2.7928460   2.7928460   2.7928460
 AtZNuc=   6.0000000   6.0000000   6.0000000   6.0000000   6.0000000   6.0000000   1.0000000   1.0000000   1.0000000   1.0000000

  Atom        11          12
 IAtWgt=           1           1
 AtmWgt=   1.0078250   1.0078250
 NucSpn=           1           1
 AtZEff=  -0.0000000  -0.0000000
 NQMom=    0.0000000   0.0000000
 NMagM=    2.7928460   2.7928460
 AtZNuc=   1.0000000   1.0000000
 Leave Link  101 at Wed Nov 19 18:21:04 2025, MaxMem=   104857600 cpu:               0.4 elap:               0.4
 (Enter /gaussian/g16.c01/intel64-sandybridge/g16/l202.exe)
 ---------------------------------------------------------------------------------------------------
                            Z-MATRIX (ANGSTROMS AND DEGREES)
   CD    Cent   Atom    N1       Length/X        N2       Alpha/Y        N3        Beta/Z          J
 ---------------------------------------------------------------------------------------------------
      1      1  C        0  -0.000000          1.394991          0.000000
      2      2  C        0  -1.208097          0.697495          0.000000
      3      3  C        0  -1.208097         -0.697495          0.000000
      4      4  C        0   0.000000         -1.394991          0.000000
      5      5  C        0   1.208097         -0.697495          0.000000
      6      6  C        0   1.208097          0.697495          0.000000
      7      7  H        0   0.000000          2.494601         -0.000000
      8      8  H        0  -2.160388          1.247300         -0.000000
      9      9  H        0  -2.160388         -1.247300         -0.000000
     10     10  H        0   0.000000         -2.494601         -0.000000
     11     11  H        0   2.160388         -1.247300         -0.000000
     12     12  H        0   2.160388          1.247300         -0.000000
 ---------------------------------------------------------------------------------------------------
                         Z-Matrix orientation:                         
 ---------------------------------------------------------------------
 Center     Atomic      Atomic             Coordinates (Angstroms)
 Number     Number       Type             X           Y           Z
 ---------------------------------------------------------------------
      1          6           0       -0.000000    1.394991    0.000000
      2          6           0       -1.208097    0.697495    0.000000
      3          6           0       -1.208097   -0.697495    0.000000
      4          6           0        0.000000   -1.394991    0.000000
      5          6           0        1.208097   -0.697495    0.000000
      6          6           0        1.208097    0.697495    0.000000
      7          1           0        0.000000    2.494601   -0.000000
      8          1           0       -2.160388    1.247300   -0.000000
      9          1           0       -2.160388   -1.247300   -0.000000
     10          1           0        0.000000   -2.494601   -0.000000
     11          1           0        2.160388   -1.247300   -0.000000
     12          1           0        2.160388    1.247300   -0.000000
 ---------------------------------------------------------------------
                    Distance matrix (angstroms):
                    1          2          3          4          5
     1  C    0.000000
     2  C    1.394991   0.000000
     3  C    2.416195   1.394991   0.000000
     4  C    2.789981   2.416195   1.394991   0.000000
     5  C    2.416195   2.789981   2.416195   1.394991   0.000000
     6  C    1.394991   2.416195   2.789981   2.416195   1.394991
     7  H    1.099610   2.165430   3.413060   3.889592   3.413060
     8  H    2.165430   1.099610   2.165430   3.413060   3.889592
     9  H    3.413060   2.165430   1.099610   2.165430   3.413060
    10  H    3.889592   3.413060   2.165430   1.099610   2.165430
    11  H    3.413060   3.889592   3.413060   2.165430   1.099610
    12  H    2.165430   3.413060   3.889592   3.413060   2.165430
                    6          7          8          9         10
     6  C    0.000000
     7  H    2.165430   0.000000
     8  H    3.413060   2.494601   0.000000
     9  H    3.889592   4.320776   2.494601   0.000000
    10  H    3.413060   4.989202   4.320776   2.494601   0.000000
    11  H    2.165430   4.320776   4.989202   4.320776   2.494601
    12  H    1.099610   2.494601   4.320776   4.989202   4.320776
                   11         12
    11  H    0.000000
    12  H    2.494601   0.000000
 Stoichiometry    C6H6
 Framework group  D6H[3C2'(HC.CH)]
 Deg. of freedom     2
 Full point group                 D6H     NOp  24
 Largest Abelian subgroup         D2H     NOp   8
 Largest concise Abelian subgroup D2      NOp   4
                         Standard orientation:                         
 ---------------------------------------------------------------------
 Center     Atomic      Atomic             Coordinates (Angstroms)
 Number     Number       Type             X           Y           Z
 ---------------------------------------------------------------------
      1          6           0        0.000000    1.394991    0.000000
      2          6           0        1.208097    0.697495   -0.000000
      3          6           0        1.208097   -0.697495   -0.000000
      4          6           0       -0.000000   -1.394991    0.000000
      5          6           0       -1.208097   -0.697495   -0.000000
      6          6           0       -1.208097    0.697495   -0.000000
      7          1           0        0.000000    2.494601    0.000000
      8          1           0        2.160388    1.247300   -0.000000
      9          1           0        2.160388   -1.247300   -0.000000
     10          1           0       -0.000000   -2.494601    0.000000
     11          1           0       -2.160388   -1.247300   -0.000000
     12          1           0       -2.160388    1.247300   -0.000000
 ---------------------------------------------------------------------
 Rotational constants (GHZ):           5.6866485           5.6866485           2.8433243
 Leave Link  202 at Wed Nov 19 18:21:04 2025, MaxMem=   104857600 cpu:               0.0 elap:               0.1
 (Enter /gaussian/g16.c01/intel64-sandybridge/g16/l301.exe)
 Standard basis: STO-3G (5D, 7F)
 Ernie: Thresh=  0.10000D-02 Tol=  0.10000D-05 Strict=F.
 There are     9 symmetry adapted cartesian basis functions of AG  symmetry.
 There are     6 symmetry adapted cartesian basis functions of B1G symmetry.
 There are     1 symmetry adapted cartesian basis functions of B2G symmetry.
 There are     2 symmetry adapted cartesian basis functions of B3G symmetry.
 There are     1 symmetry adapted cartesian basis functions of AU  symmetry.
 There are     2 symmetry adapted cartesian basis functions of B1U symmetry.
 There are     9 symmetry adapted cartesian basis functions of B2U symmetry.
 There are     6 symmetry adapted cartesian basis functions of B3U symmetry.
 There are     9 symmetry adapted basis functions of AG  symmetry.
 There are     6 symmetry adapted basis functions of B1G symmetry.
 There are     1 symmetry adapted basis functions of B2G symmetry.
 There are     2 symmetry adapted basis functions of B3G symmetry.
 There are     1 symmetry adapted basis functions of AU  symmetry.
 There are     2 symmetry adapted basis functions of B1U symmetry.
 There are     9 symmetry adapted basis functions of B2U symmetry.
 There are     6 symmetry adapted basis functions of B3U symmetry.
    36 basis functions,   108 primitive gaussians,    36 cartesian basis functions
    21 alpha electrons       21 beta electrons
       nuclear repulsion energy       203.0352974996 Hartrees.
 IExCor=    0 DFT=F Ex=HF Corr=None ExCW=0 ScaHFX=  1.000000
 ScaDFX=  1.000000  1.000000  1.000000  1.000000 ScalE2=  1.000000  1.000000
 IRadAn=      5 IRanWt=     -1 IRanGd=            0 ICorTp=0 IEmpDi=  4
 NAtoms=   12 NActive=   12 NUniq=    2 SFac= 4.00D+00 NAtFMM=   60 NAOKFM=F Big=F
 Integral buffers will be    131072 words long.
 Raffenetti 1 integral format.
 Two-electron integral symmetry is turned on.
 Leave Link  301 at Wed Nov 19 18:21:04 2025, MaxMem=   104857600 cpu:               0.1 elap:               0.1
 (Enter /gaussian/g16.c01/intel64-sandybridge/g16/l402.exe)
 External calculation of energy and first derivatives.
 Running external command "CentralExt gau $PGAU/test_pr.dat $EGAU/test_en.dat 7 55 read parall 2 R"
         input file       "/home/barone/lcrisci_vb/ACTUAL_PROJECTS/MRCC_new_Interface_project/TestingOldVersion/Symmetry/Benzene_D6h/Gau-4157714.EIn"
         output file      "/home/barone/lcrisci_vb/ACTUAL_PROJECTS/MRCC_new_Interface_project/TestingOldVersion/Symmetry/Benzene_D6h/Gau-4157714.EOu"
         message file     "/home/barone/lcrisci_vb/ACTUAL_PROJECTS/MRCC_new_Interface_project/TestingOldVersion/Symmetry/Benzene_D6h/Gau-4157714.EMs"
         fchk file        "/home/barone/lcrisci_vb/ACTUAL_PROJECTS/MRCC_new_Interface_project/TestingOldVersion/Symmetry/Benzene_D6h/Gau-4157714.EFC"
         mat. el file     "/home/barone/lcrisci_vb/ACTUAL_PROJECTS/MRCC_new_Interface_project/TestingOldVersion/Symmetry/Benzene_D6h/Gau-4157714.EUF"

================================================================================
CHECKING FOR MIXED ANALYTICAL/NUMERICAL GRADIENT MODE
================================================================================
Analyzing sections in /home/barone/lcrisci_vb/MyScript/PreambleGau/test_pr.dat for gradient mode (comment='#')

--- Section Analysis Summary ---
  default: NUMERICAL (dens=0, lines=0)

Total sections: 1
Analytical sections (0): []
Numerical sections (1): ['default']
--------------------------------

Mode Detection Results:
  OptFlag (gradient requested): 1
  Has analytical sections: False
  Has numerical sections: True
  Mixed mode activated: False
  All analytical mode: False
  All numerical mode: True
================================================================================

FAKE_FREQ CONVERSION: C Bohr=['0.0', '2.636150331521', '0.0'] -> Angstrom=[0.0, 1.3949906799553016, 0.0]
FAKE_FREQ CONVERSION: C Bohr=['2.282973155292', '1.31807516576', '-0.0'] -> Angstrom=[1.208097366883842, 0.6974953399773862, -0.0]
FAKE_FREQ CONVERSION: C Bohr=['2.282973155292', '-1.31807516576', '-0.0'] -> Angstrom=[1.208097366883842, -0.6974953399773862, -0.0]
FAKE_FREQ CONVERSION: C Bohr=['-0.0', '-2.636150331521', '0.0'] -> Angstrom=[-0.0, -1.3949906799553016, 0.0]
FAKE_FREQ CONVERSION: C Bohr=['-2.282973155292', '-1.31807516576', '-0.0'] -> Angstrom=[-1.208097366883842, -0.6974953399773862, -0.0]
FAKE_FREQ CONVERSION: C Bohr=['-2.282973155292', '1.31807516576', '-0.0'] -> Angstrom=[-1.208097366883842, 0.6974953399773862, -0.0]
FAKE_FREQ CONVERSION: H Bohr=['0.0', '4.714112642272', '0.0'] -> Angstrom=[0.0, 2.494600979920069, 0.0]
FAKE_FREQ CONVERSION: H Bohr=['4.082541304509', '2.357056321136', '-0.0'] -> Angstrom=[2.160387820916368, 1.2473004899600344, -0.0]
FAKE_FREQ CONVERSION: H Bohr=['4.082541304509', '-2.357056321136', '-0.0'] -> Angstrom=[2.160387820916368, -1.2473004899600344, -0.0]
FAKE_FREQ CONVERSION: H Bohr=['-0.0', '-4.714112642272', '0.0'] -> Angstrom=[-0.0, -2.494600979920069, 0.0]
FAKE_FREQ CONVERSION: H Bohr=['-4.082541304509', '-2.357056321136', '-0.0'] -> Angstrom=[-2.160387820916368, -1.2473004899600344, -0.0]
FAKE_FREQ CONVERSION: H Bohr=['-4.082541304509', '2.357056321136', '-0.0'] -> Angstrom=[-2.160387820916368, 1.2473004899600344, -0.0]
Checking original directory for Gaussian input: /home/barone/lcrisci_vb/ACTUAL_PROJECTS/MRCC_new_Interface_project/TestingOldVersion/Symmetry/Benzene_D6h
Found Gaussian input file with External keyword: /home/barone/lcrisci_vb/ACTUAL_PROJECTS/MRCC_new_Interface_project/TestingOldVersion/Symmetry/Benzene_D6h/Benzene_D6h.gjf
GEOMETRY CONVERSION: Task 'central' - Converted from Bohr to Angstrom
  First atom coordinates: Bohr = [0.         2.63615033 0.        ], Angstrom = [0.         1.39499068 0.        ]
GEOMETRY CONVERSION: Task 'atom_1_ixyz_1_up' - Converted from Bohr to Angstrom
  First atom coordinates: Bohr = [1.88972612e-03 2.63615033e+00 0.00000000e+00], Angstrom = [1.00000000e-03 1.39499068e+00 0.00000000e+00]
GEOMETRY CONVERSION: Task 'atom_1_ixyz_2_up' - Converted from Bohr to Angstrom
  First atom coordinates: Bohr = [0.         2.63804006 0.        ], Angstrom = [0.         1.39599068 0.        ]
GEOMETRY CONVERSION: Task 'atom_1_ixyz_2_down' - Converted from Bohr to Angstrom
  First atom coordinates: Bohr = [0.         2.63426061 0.        ], Angstrom = [0.         1.39399068 0.        ]
GEOMETRY CONVERSION: Task 'atom_1_ixyz_3_up' - Converted from Bohr to Angstrom
  First atom coordinates: Bohr = [0.00000000e+00 2.63615033e+00 1.88972612e-03], Angstrom = [0.00000000e+00 1.39499068e+00 1.00000000e-03]
GEOMETRY CONVERSION: Task 'atom_7_ixyz_1_up' - Converted from Bohr to Angstrom
  First atom coordinates: Bohr = [0.         2.63615033 0.        ], Angstrom = [0.         1.39499068 0.        ]
GEOMETRY CONVERSION: Task 'atom_7_ixyz_2_up' - Converted from Bohr to Angstrom
  First atom coordinates: Bohr = [0.         2.63615033 0.        ], Angstrom = [0.         1.39499068 0.        ]
GEOMETRY CONVERSION: Task 'atom_7_ixyz_2_down' - Converted from Bohr to Angstrom
  First atom coordinates: Bohr = [0.         2.63615033 0.        ], Angstrom = [0.         1.39499068 0.        ]
GEOMETRY CONVERSION: Task 'atom_7_ixyz_3_up' - Converted from Bohr to Angstrom
  First atom coordinates: Bohr = [0.         2.63615033 0.        ], Angstrom = [0.         1.39499068 0.        ]
✓ Extracted Input orientation (12 atoms)
✓ Extracted Original coordinates (12 atoms)
DEBUG: Preserved fake frequency log as FAKE_FREQ/fake_freq_1.log
DEBUG: Expected atoms: 12
DEBUG: Task central: 12 atoms
DEBUG: Task atom_1_ixyz_2_up: 12 atoms
DEBUG: Task atom_1_ixyz_2_down: 12 atoms
DEBUG: Task atom_7_ixyz_2_up: 12 atoms
DEBUG: Task atom_7_ixyz_2_down: 12 atoms
DEBUG: All geometries have correct atom count (12)

================================================================================
STANDARD NUMERICAL GRADIENT MODE (no dens=2 detected)
================================================================================
Created iteration directory: /home/barone/lcrisci_vb/ACTUAL_PROJECTS/MRCC_new_Interface_project/TestingOldVersion/Symmetry/Benzene_D6h/Iterations/Iteration_1
INFO: This is iteration number 1
INFO: Running numerical gradient calculation in iteration 1
Running parallel energy calculations with 2 threads
TASK SUBMISSION: Submitting 5 tasks
  - Task: central
  - Task: atom_1_ixyz_2_up
  - Task: atom_1_ixyz_2_down
  - Task: atom_7_ixyz_2_up
  - Task: atom_7_ixyz_2_down
PARALLEL EXECUTION: Starting with 2 workers
PARALLEL EXECUTION: Total tasks to execute: 5
PARALLEL EXECUTION: Submitted tasks: ['atom_1_ixyz_2_down', 'atom_1_ixyz_2_up', 'atom_7_ixyz_2_down', 'atom_7_ixyz_2_up', 'central']
PARALLEL EXECUTION: Submitted 5 futures to executor
UNIT CONVERSION: Task 'central' - Wrote .EIn file in BohrUNIT CONVERSION: Task 'atom_1_ixyz_2_up' - Wrote .EIn file in Bohr

  First atom: Angstrom = [0.         1.39499068 0.        ], Bohr = [0.         2.63615033 0.        ]
  First atom: Angstrom = [0.         1.39599068 0.        ], Bohr = [0.         2.63804006 0.        ]THREAD-22693029660416: Starting execution for task 'central'

THREAD-22693029660416: Task directory: /home/barone/lcrisci_vb/ACTUAL_PROJECTS/MRCC_new_Interface_project/TestingOldVersion/Symmetry/Benzene_D6h/Iterations/Iteration_1/task_central
THREAD-22693024581376: Starting execution for task 'atom_1_ixyz_2_up'THREAD-22693029660416: Input file: /home/barone/lcrisci_vb/ACTUAL_PROJECTS/MRCC_new_Interface_project/TestingOldVersion/Symmetry/Benzene_D6h/Iterations/Iteration_1/task_central/Gau-central.EIn

THREAD-22693024581376: Task directory: /home/barone/lcrisci_vb/ACTUAL_PROJECTS/MRCC_new_Interface_project/TestingOldVersion/Symmetry/Benzene_D6h/Iterations/Iteration_1/task_atom_1_ixyz_2_up
THREAD-22693024581376: Input file: /home/barone/lcrisci_vb/ACTUAL_PROJECTS/MRCC_new_Interface_project/TestingOldVersion/Symmetry/Benzene_D6h/Iterations/Iteration_1/task_atom_1_ixyz_2_up/Gau-atom_1_ixyz_2_up.EIn
THREAD-22693029660416: Original working directory: /home/barone/lcrisci_vb/ACTUAL_PROJECTS/MRCC_new_Interface_project/TestingOldVersion/Symmetry/Benzene_D6h
THREAD-22693029660416: Test mode: False
THREAD-22693029660416: Executing command: /home/barone/lcrisci_vb/python3.9/bin/python3.9 /home/barone/lcrisci_vb/ACTUAL_PROJECTS/MRCC_new_Interface_project/TestingOldVersion/OldVersion/Executables/GauExt test_pr.dat test_en.dat 7 55 READ R Gau-central.EIn energy_output.datTHREAD-22693024581376: Original working directory: /home/barone/lcrisci_vb/ACTUAL_PROJECTS/MRCC_new_Interface_project/TestingOldVersion/Symmetry/Benzene_D6h

THREAD-22693024581376: Test mode: False
THREAD-22693029660416: Working directory for subprocess: /home/barone/lcrisci_vb/ACTUAL_PROJECTS/MRCC_new_Interface_project/TestingOldVersion/Symmetry/Benzene_D6h/Iterations/Iteration_1/task_central
THREAD-22693024581376: Executing command: /home/barone/lcrisci_vb/python3.9/bin/python3.9 /home/barone/lcrisci_vb/ACTUAL_PROJECTS/MRCC_new_Interface_project/TestingOldVersion/OldVersion/Executables/GauExt test_pr.dat test_en.dat 7 55 READ R Gau-atom_1_ixyz_2_up.EIn energy_output.dat
THREAD-22693024581376: Working directory for subprocess: /home/barone/lcrisci_vb/ACTUAL_PROJECTS/MRCC_new_Interface_project/TestingOldVersion/Symmetry/Benzene_D6h/Iterations/Iteration_1/task_atom_1_ixyz_2_up
THREAD-22693029660416: Subprocess completed successfully
THREAD-22693029660416: Subprocess stdout (last 200 chars): d !scheme section at line 1.
    Line 2: Found coefficient: 1.0
  Found !formula marker at line 3
    Found formula at line 4: e=c1*e1
Finished parsing scheme: [('coeff', 1.0)]
Found formula: e=c1*e1

THREAD-22693029660416: Output file path: /home/barone/lcrisci_vb/ACTUAL_PROJECTS/MRCC_new_Interface_project/TestingOldVersion/Symmetry/Benzene_D6h/Iterations/Iteration_1/task_central/energy_output.dat
THREAD-22693029660416: Already in original directory /home/barone/lcrisci_vb/ACTUAL_PROJECTS/MRCC_new_Interface_project/TestingOldVersion/Symmetry/Benzene_D6h
PARALLEL EXECUTION: Task 'central' completed successfully with energy -227.88942237424
UNIT CONVERSION: Task 'atom_1_ixyz_2_down' - Wrote .EIn file in Bohr
  First atom: Angstrom = [0.         1.39399068 0.        ], Bohr = [0.         2.63426061 0.        ]
THREAD-22693029660416: Starting execution for task 'atom_1_ixyz_2_down'
THREAD-22693029660416: Task directory: /home/barone/lcrisci_vb/ACTUAL_PROJECTS/MRCC_new_Interface_project/TestingOldVersion/Symmetry/Benzene_D6h/Iterations/Iteration_1/task_atom_1_ixyz_2_down
THREAD-22693029660416: Input file: /home/barone/lcrisci_vb/ACTUAL_PROJECTS/MRCC_new_Interface_project/TestingOldVersion/Symmetry/Benzene_D6h/Iterations/Iteration_1/task_atom_1_ixyz_2_down/Gau-atom_1_ixyz_2_down.EIn
THREAD-22693029660416: Original working directory: /home/barone/lcrisci_vb/ACTUAL_PROJECTS/MRCC_new_Interface_project/TestingOldVersion/Symmetry/Benzene_D6h
THREAD-22693029660416: Test mode: False
THREAD-22693029660416: Executing command: /home/barone/lcrisci_vb/python3.9/bin/python3.9 /home/barone/lcrisci_vb/ACTUAL_PROJECTS/MRCC_new_Interface_project/TestingOldVersion/OldVersion/Executables/GauExt test_pr.dat test_en.dat 7 55 READ R Gau-atom_1_ixyz_2_down.EIn energy_output.dat
THREAD-22693029660416: Working directory for subprocess: /home/barone/lcrisci_vb/ACTUAL_PROJECTS/MRCC_new_Interface_project/TestingOldVersion/Symmetry/Benzene_D6h/Iterations/Iteration_1/task_atom_1_ixyz_2_down
THREAD-22693024581376: Subprocess completed successfully
THREAD-22693024581376: Subprocess stdout (last 200 chars): d !scheme section at line 1.
    Line 2: Found coefficient: 1.0
  Found !formula marker at line 3
    Found formula at line 4: e=c1*e1
Finished parsing scheme: [('coeff', 1.0)]
Found formula: e=c1*e1

THREAD-22693024581376: Output file path: /home/barone/lcrisci_vb/ACTUAL_PROJECTS/MRCC_new_Interface_project/TestingOldVersion/Symmetry/Benzene_D6h/Iterations/Iteration_1/task_atom_1_ixyz_2_up/energy_output.dat
THREAD-22693024581376: Already in original directory /home/barone/lcrisci_vb/ACTUAL_PROJECTS/MRCC_new_Interface_project/TestingOldVersion/Symmetry/Benzene_D6h
PARALLEL EXECUTION: Task 'atom_1_ixyz_2_up' completed successfully with energy -227.8894296364
UNIT CONVERSION: Task 'atom_7_ixyz_2_up' - Wrote .EIn file in Bohr
  First atom: Angstrom = [0.         1.39499068 0.        ], Bohr = [0.         2.63615033 0.        ]
THREAD-22693024581376: Starting execution for task 'atom_7_ixyz_2_up'
THREAD-22693024581376: Task directory: /home/barone/lcrisci_vb/ACTUAL_PROJECTS/MRCC_new_Interface_project/TestingOldVersion/Symmetry/Benzene_D6h/Iterations/Iteration_1/task_atom_7_ixyz_2_up
THREAD-22693024581376: Input file: /home/barone/lcrisci_vb/ACTUAL_PROJECTS/MRCC_new_Interface_project/TestingOldVersion/Symmetry/Benzene_D6h/Iterations/Iteration_1/task_atom_7_ixyz_2_up/Gau-atom_7_ixyz_2_up.EIn
THREAD-22693024581376: Original working directory: /home/barone/lcrisci_vb/ACTUAL_PROJECTS/MRCC_new_Interface_project/TestingOldVersion/Symmetry/Benzene_D6h
THREAD-22693024581376: Test mode: False
THREAD-22693024581376: Executing command: /home/barone/lcrisci_vb/python3.9/bin/python3.9 /home/barone/lcrisci_vb/ACTUAL_PROJECTS/MRCC_new_Interface_project/TestingOldVersion/OldVersion/Executables/GauExt test_pr.dat test_en.dat 7 55 READ R Gau-atom_7_ixyz_2_up.EIn energy_output.dat
THREAD-22693024581376: Working directory for subprocess: /home/barone/lcrisci_vb/ACTUAL_PROJECTS/MRCC_new_Interface_project/TestingOldVersion/Symmetry/Benzene_D6h/Iterations/Iteration_1/task_atom_7_ixyz_2_up
THREAD-22693029660416: Subprocess completed successfully
THREAD-22693029660416: Subprocess stdout (last 200 chars): d !scheme section at line 1.
    Line 2: Found coefficient: 1.0
  Found !formula marker at line 3
    Found formula at line 4: e=c1*e1
Finished parsing scheme: [('coeff', 1.0)]
Found formula: e=c1*e1

THREAD-22693029660416: Output file path: /home/barone/lcrisci_vb/ACTUAL_PROJECTS/MRCC_new_Interface_project/TestingOldVersion/Symmetry/Benzene_D6h/Iterations/Iteration_1/task_atom_1_ixyz_2_down/energy_output.dat
THREAD-22693029660416: Already in original directory /home/barone/lcrisci_vb/ACTUAL_PROJECTS/MRCC_new_Interface_project/TestingOldVersion/Symmetry/Benzene_D6h
PARALLEL EXECUTION: Task 'atom_1_ixyz_2_down' completed successfully with energy -227.889411627037
UNIT CONVERSION: Task 'atom_7_ixyz_2_down' - Wrote .EIn file in Bohr
  First atom: Angstrom = [0.         1.39499068 0.        ], Bohr = [0.         2.63615033 0.        ]
THREAD-22693029660416: Starting execution for task 'atom_7_ixyz_2_down'
THREAD-22693029660416: Task directory: /home/barone/lcrisci_vb/ACTUAL_PROJECTS/MRCC_new_Interface_project/TestingOldVersion/Symmetry/Benzene_D6h/Iterations/Iteration_1/task_atom_7_ixyz_2_down
THREAD-22693029660416: Input file: /home/barone/lcrisci_vb/ACTUAL_PROJECTS/MRCC_new_Interface_project/TestingOldVersion/Symmetry/Benzene_D6h/Iterations/Iteration_1/task_atom_7_ixyz_2_down/Gau-atom_7_ixyz_2_down.EIn
THREAD-22693029660416: Original working directory: /home/barone/lcrisci_vb/ACTUAL_PROJECTS/MRCC_new_Interface_project/TestingOldVersion/Symmetry/Benzene_D6h
THREAD-22693029660416: Test mode: False
THREAD-22693029660416: Executing command: /home/barone/lcrisci_vb/python3.9/bin/python3.9 /home/barone/lcrisci_vb/ACTUAL_PROJECTS/MRCC_new_Interface_project/TestingOldVersion/OldVersion/Executables/GauExt test_pr.dat test_en.dat 7 55 READ R Gau-atom_7_ixyz_2_down.EIn energy_output.dat
THREAD-22693029660416: Working directory for subprocess: /home/barone/lcrisci_vb/ACTUAL_PROJECTS/MRCC_new_Interface_project/TestingOldVersion/Symmetry/Benzene_D6h/Iterations/Iteration_1/task_atom_7_ixyz_2_down
THREAD-22693024581376: Subprocess completed successfully
THREAD-22693024581376: Subprocess stdout (last 200 chars): d !scheme section at line 1.
    Line 2: Found coefficient: 1.0
  Found !formula marker at line 3
    Found formula at line 4: e=c1*e1
Finished parsing scheme: [('coeff', 1.0)]
Found formula: e=c1*e1

THREAD-22693024581376: Output file path: /home/barone/lcrisci_vb/ACTUAL_PROJECTS/MRCC_new_Interface_project/TestingOldVersion/Symmetry/Benzene_D6h/Iterations/Iteration_1/task_atom_7_ixyz_2_up/energy_output.dat
THREAD-22693024581376: Already in original directory /home/barone/lcrisci_vb/ACTUAL_PROJECTS/MRCC_new_Interface_project/TestingOldVersion/Symmetry/Benzene_D6h
PARALLEL EXECUTION: Task 'atom_7_ixyz_2_up' completed successfully with energy -227.889393309709
THREAD-22693029660416: Subprocess completed successfully
THREAD-22693029660416: Subprocess stdout (last 200 chars): d !scheme section at line 1.
    Line 2: Found coefficient: 1.0
  Found !formula marker at line 3
    Found formula at line 4: e=c1*e1
Finished parsing scheme: [('coeff', 1.0)]
Found formula: e=c1*e1

THREAD-22693029660416: Output file path: /home/barone/lcrisci_vb/ACTUAL_PROJECTS/MRCC_new_Interface_project/TestingOldVersion/Symmetry/Benzene_D6h/Iterations/Iteration_1/task_atom_7_ixyz_2_down/energy_output.dat
THREAD-22693029660416: Already in original directory /home/barone/lcrisci_vb/ACTUAL_PROJECTS/MRCC_new_Interface_project/TestingOldVersion/Symmetry/Benzene_D6h
PARALLEL EXECUTION: Task 'atom_7_ixyz_2_down' completed successfully with energy -227.88944983672
PARALLEL EXECUTION: Completed tasks: ['atom_1_ixyz_2_down', 'atom_1_ixyz_2_up', 'atom_7_ixyz_2_down', 'atom_7_ixyz_2_up', 'central']
PARALLEL EXECUTION: Failed tasks: []
PARALLEL EXECUTION: All 5 tasks completed successfully
TASK COMPLETION: Received 5 results
  - Task central: Energy = -227.88942237424
  - Task atom_1_ixyz_2_up: Energy = -227.8894296364
  - Task atom_1_ixyz_2_down: Energy = -227.889411627037
  - Task atom_7_ixyz_2_up: Energy = -227.889393309709
  - Task atom_7_ixyz_2_down: Energy = -227.88944983672
WARNING: Could not find point group information in log file
Returning minimal PointGroupInfo with empty operations (will use fallback)
ADVANCED SYMMETRY: Using Unknown point group
ADVANCED SYMMETRY: 0 operations found in log
ADVANCED SYMMETRY: Applying symmetry-aware gradient assembly
  (with automatic inference from forces if needed)
AUTO-DETECT: Found R_coords with RMSD = 5.77e-13 Bohr
Gradient transformation matrix R^T (original → central):
  [1. 0. 0.]
  [0. 1. 0.]
  [0. 0. 1.]

⚠ No explicit symmetry operations found in log
Attempting to infer operations from forces...

=== INFERRING SYMMETRY OPERATIONS FROM FORCES ===
Atoms with displacements: [0, 6]
Atoms to infer: [1, 2, 3, 4, 5, 7, 8, 9, 10, 11]
Testing 60 transformation matrices...
Operation 2: Atom 0→1, RMSD=1.25e-11, Non-Abelian
  Transformation matrix:
    [0.5       0.8660254 0.       ]
    [-0.8660254  0.5        0.       ]
    [0. 0. 1.]
  Nuclear permutation: [1, 2, 3, 4, 5, 0, 7, 8, 9, 10, 11, 6]
Operation 3: Atom 0→2, RMSD=1.25e-11, Non-Abelian
  Transformation matrix:
    [-0.5        0.8660254  0.       ]
    [-0.8660254 -0.5        0.       ]
    [0. 0. 1.]
  Nuclear permutation: [2, 3, 4, 5, 0, 1, 8, 9, 10, 11, 6, 7]
Operation 4: Atom 0→3, RMSD=0.00e+00, Abelian
  Transformation matrix:
    [1. 0. 0.]
    [ 0. -1.  0.]
    [0. 0. 1.]
  Nuclear permutation: [3, 2, 1, 0, 5, 4, 9, 8, 7, 6, 11, 10]
Operation 5: Atom 0→4, RMSD=1.25e-11, Non-Abelian
  Transformation matrix:
    [-0.5       -0.8660254  0.       ]
    [ 0.8660254 -0.5        0.       ]
    [0. 0. 1.]
  Nuclear permutation: [4, 5, 0, 1, 2, 3, 10, 11, 6, 7, 8, 9]
Operation 6: Atom 0→5, RMSD=1.25e-11, Non-Abelian
  Transformation matrix:
    [ 0.5       -0.8660254  0.       ]
    [0.8660254 0.5       0.       ]
    [0. 0. 1.]
  Nuclear permutation: [5, 0, 1, 2, 3, 4, 11, 6, 7, 8, 9, 10]
Operation 7: Atom 6→7, RMSD=9.77e-10, Non-Abelian
  Transformation matrix:
    [0.5       0.8660254 0.       ]
    [-0.8660254  0.5        0.       ]
    [0. 0. 1.]
  Nuclear permutation: [1, 2, 3, 4, 5, 0, 7, 8, 9, 10, 11, 6]
Operation 8: Atom 6→8, RMSD=9.77e-10, Non-Abelian
  Transformation matrix:
    [-0.5        0.8660254  0.       ]
    [-0.8660254 -0.5        0.       ]
    [0. 0. 1.]
  Nuclear permutation: [2, 3, 4, 5, 0, 1, 8, 9, 10, 11, 6, 7]
Operation 9: Atom 6→9, RMSD=0.00e+00, Abelian
  Transformation matrix:
    [1. 0. 0.]
    [ 0. -1.  0.]
    [0. 0. 1.]
  Nuclear permutation: [3, 2, 1, 0, 5, 4, 9, 8, 7, 6, 11, 10]
Operation 10: Atom 6→10, RMSD=9.77e-10, Non-Abelian
  Transformation matrix:
    [-0.5       -0.8660254  0.       ]
    [ 0.8660254 -0.5        0.       ]
    [0. 0. 1.]
  Nuclear permutation: [4, 5, 0, 1, 2, 3, 10, 11, 6, 7, 8, 9]
Operation 11: Atom 6→11, RMSD=9.77e-10, Non-Abelian
  Transformation matrix:
    [ 0.5       -0.8660254  0.       ]
    [0.8660254 0.5       0.       ]
    [0. 0. 1.]
  Nuclear permutation: [5, 0, 1, 2, 3, 4, 11, 6, 7, 8, 9, 10]
✓ Inferred 11 operations (including identity)
✓ Successfully inferred 11 operations from forces

=== MOLECULAR SYMMETRY CONSTRAINTS ===
SYMMETRY CONSTRAINT: Atom 1, Axis 1 = 0.000000000 (missing displacement)
SYMMETRY CONSTRAINT: Atom 1, Axis 3 = 0.000000000 (missing displacement)
SYMMETRY CONSTRAINT: Atom 4, Axis 1 = 0.000000000 (symmetry element)
SYMMETRY CONSTRAINT: Atom 4, Axis 1 = 0.000000000 (symmetry element)
SYMMETRY CONSTRAINT: Atom 4, Axis 3 = 0.000000000 (symmetry element)
SYMMETRY CONSTRAINT: Atom 4, Axis 3 = 0.000000000 (symmetry element)
SYMMETRY CONSTRAINT: Atom 7, Axis 1 = 0.000000000 (missing displacement)
SYMMETRY CONSTRAINT: Atom 7, Axis 3 = 0.000000000 (missing displacement)
SYMMETRY CONSTRAINT: Atom 10, Axis 1 = 0.000000000 (symmetry element)
SYMMETRY CONSTRAINT: Atom 10, Axis 1 = 0.000000000 (symmetry element)
SYMMETRY CONSTRAINT: Atom 10, Axis 3 = 0.000000000 (symmetry element)
SYMMETRY CONSTRAINT: Atom 10, Axis 3 = 0.000000000 (symmetry element)

=== DIRECT CALCULATIONS ===
DIRECT CALCULATION: Atom 1, Axis 2 = -0.00476507
DIRECT CALCULATION: Atom 7, Axis 2 = 0.01495640
SYMMETRY PROPAGATION: Atom 2 from Atom 1 via operation 2
  Source gradient: [ 0.         -0.00476507  0.        ]
  Transformation matrix:
    [0.5       0.8660254 0.       ]
    [-0.8660254  0.5        0.       ]
    [0. 0. 1.]
  Result gradient: [-0.00412667 -0.00238254  0.        ]
SYMMETRY PROPAGATION: Atom 3 from Atom 2 via operation 2
  Source gradient: [-0.00412667 -0.00238254  0.        ]
  Transformation matrix:
    [0.5       0.8660254 0.       ]
    [-0.8660254  0.5        0.       ]
    [0. 0. 1.]
  Result gradient: [-0.00412667  0.00238254  0.        ]
SYMMETRY PROPAGATION: Atom 4 from Atom 3 via operation 2
  Source gradient: [-0.00412667  0.00238254  0.        ]
  Transformation matrix:
    [0.5       0.8660254 0.       ]
    [-0.8660254  0.5        0.       ]
    [0. 0. 1.]
  Result gradient: [-1.75919541e-18  4.76507224e-03  0.00000000e+00]
SYMMETRY PROPAGATION: Atom 5 from Atom 4 via operation 2
  Source gradient: [-1.75919541e-18  4.76507224e-03  0.00000000e+00]
  Transformation matrix:
    [0.5       0.8660254 0.       ]
    [-0.8660254  0.5        0.       ]
    [0. 0. 1.]
  Result gradient: [0.00412667 0.00238254 0.        ]
SYMMETRY PROPAGATION: Atom 6 from Atom 5 via operation 2
  Source gradient: [0.00412667 0.00238254 0.        ]
  Transformation matrix:
    [0.5       0.8660254 0.       ]
    [-0.8660254  0.5        0.       ]
    [0. 0. 1.]
  Result gradient: [ 0.00412667 -0.00238254  0.        ]
SYMMETRY PROPAGATION: Atom 8 from Atom 7 via operation 2
  Source gradient: [0.        0.0149564 0.       ]
  Transformation matrix:
    [0.5       0.8660254 0.       ]
    [-0.8660254  0.5        0.       ]
    [0. 0. 1.]
  Result gradient: [0.01295262 0.0074782  0.        ]
SYMMETRY PROPAGATION: Atom 9 from Atom 8 via operation 2
  Source gradient: [0.01295262 0.0074782  0.        ]
  Transformation matrix:
    [0.5       0.8660254 0.       ]
    [-0.8660254  0.5        0.       ]
    [0. 0. 1.]
  Result gradient: [ 0.01295262 -0.0074782   0.        ]
SYMMETRY PROPAGATION: Atom 10 from Atom 9 via operation 2
  Source gradient: [ 0.01295262 -0.0074782   0.        ]
  Transformation matrix:
    [0.5       0.8660254 0.       ]
    [-0.8660254  0.5        0.       ]
    [0. 0. 1.]
  Result gradient: [ 4.9074772e-18 -1.4956403e-02  0.0000000e+00]
SYMMETRY PROPAGATION: Atom 11 from Atom 10 via operation 2
  Source gradient: [ 4.9074772e-18 -1.4956403e-02  0.0000000e+00]
  Transformation matrix:
    [0.5       0.8660254 0.       ]
    [-0.8660254  0.5        0.       ]
    [0. 0. 1.]
  Result gradient: [-0.01295262 -0.0074782   0.        ]
SYMMETRY PROPAGATION: Atom 12 from Atom 11 via operation 2
  Source gradient: [-0.01295262 -0.0074782   0.        ]
  Transformation matrix:
    [0.5       0.8660254 0.       ]
    [-0.8660254  0.5        0.       ]
    [0. 0. 1.]
  Result gradient: [-0.01295262  0.0074782   0.        ]

=== VALIDATION ===
CONSTRAINT VERIFIED: Atom 1, Axis 1 = 0.000000000
CONSTRAINT VERIFIED: Atom 1, Axis 3 = 0.000000000
CONSTRAINT VERIFIED: Atom 7, Axis 1 = 0.000000000
CONSTRAINT VERIFIED: Atom 7, Axis 3 = 0.000000000
SYMMETRY EFFICIENCY: 83.3% computational reduction
SYMMETRY EFFICIENCY: 6/36 components calculated
NUMERICAL WORKFLOW: Gradient shape: (12, 3)
NUMERICAL WORKFLOW: Central energy: -227.88942237424

DEBUG: Writing output to /home/barone/lcrisci_vb/ACTUAL_PROJECTS/MRCC_new_Interface_project/TestingOldVersion/Symmetry/Benzene_D6h/Gau-4157714.EOu
DEBUG: Current directory: /home/barone/lcrisci_vb/ACTUAL_PROJECTS/MRCC_new_Interface_project/TestingOldVersion/Symmetry/Benzene_D6h
DEBUG: Central energy: -227.88942237424
DEBUG: Gradient shape: (12, 3)
DEBUG: Output written successfully
DEBUG: File exists: True
SUCCESS: Parallel gradient calculation completed using iteration 1
Task directories preserved in: /home/barone/lcrisci_vb/ACTUAL_PROJECTS/MRCC_new_Interface_project/TestingOldVersion/Symmetry/Benzene_D6h/Iterations/Iteration_1
 Recovered energy= -227.889422374     dipole=      0.000000000000      0.000000000000      0.000000000000
 Energy=    -227.889422     NIter=   0.
 Dipole moment=       0.000000       0.000000       0.000000
 Leave Link  402 at Wed Nov 19 18:21:37 2025, MaxMem=   104857600 cpu:               0.1 elap:              33.0
 (Enter /gaussian/g16.c01/intel64-sandybridge/g16/l601.exe)
 Leave Link  601 at Wed Nov 19 18:21:38 2025, MaxMem=   104857600 cpu:               0.1 elap:               0.1
 (Enter /gaussian/g16.c01/intel64-sandybridge/g16/l716.exe)
 Dipole        = 0.00000000D+00 0.00000000D+00 0.00000000D+00
 ***** Axes restored to original set *****
 -------------------------------------------------------------------
 Center     Atomic                   Forces (Hartrees/Bohr)
 Number     Number              X              Y              Z
 -------------------------------------------------------------------
      1        6          -0.000000000    0.004765072    0.000000000
      2        6          -0.004126674    0.002382536   -0.000000000
      3        6          -0.004126674   -0.002382536   -0.000000000
      4        6           0.000000000   -0.004765072   -0.000000000
      5        6           0.004126674   -0.002382536    0.000000000
      6        6           0.004126674    0.002382536    0.000000000
      7        1           0.000000000   -0.014956403   -0.000000000
      8        1           0.012952625   -0.007478201    0.000000000
      9        1           0.012952625    0.007478202    0.000000000
     10        1          -0.000000000    0.014956403    0.000000000
     11        1          -0.012952625    0.007478201   -0.000000000
     12        1          -0.012952625   -0.007478202   -0.000000000
 -------------------------------------------------------------------
 Cartesian Forces:  Max     0.014956403 RMS     0.006408327
 Leave Link  716 at Wed Nov 19 18:21:38 2025, MaxMem=   104857600 cpu:               0.1 elap:               0.1
 (Enter /gaussian/g16.c01/intel64-sandybridge/g16/l9999.exe)
 Unable to Open any file for archive entry.
 1\1\GINC-THIOTIMOLINE-LARGE01\Force\External='CentralExt gau $PGAU/tes
 t_pr.dat $EGAU/test_en.dat 7 55 read parall 2'\ZDO\C6H6\LCRISCI_VB\19-
 Nov-2025\0\\#p force output=pickett External="CentralExt gau $PGAU/tes
 t_pr.dat $EGAU/test_en.dat 7 55 read parall 2"\\title\\0,1\C,-0.000000
 0015,1.39499068,0.\C,-1.2080973677,0.6974953387,0.\C,-1.2080973662,-0.
 6974953413,0.\C,0.0000000015,-1.39499068,0.\C,1.2080973677,-0.69749533
 87,0.\C,1.2080973662,0.6974953413,0.\H,-0.0000000028,2.49460098,0.\H,-
 2.1603878224,1.2473004876,0.\H,-2.1603878196,-1.2473004924,0.\H,0.0000
 000028,-2.49460098,0.\H,2.1603878224,-1.2473004876,0.\H,2.1603878196,1
 .2473004924,0.\\Version=ES64L-G16RevC.01\HF=-227.8894224\RMSD=0.000e+0
 0\RMSF=6.408e-03\Dipole=0.,0.,0.\PG=D06H [3C2'(H1C1.C1H1)]\\@
 The archive entry for this job was punched.
 DoSRE=F DoSRN=F DoDH=F DoFC=F DoNQ=F DoQCD=F DoSCD=F
 Inertia tensor (amu-bohr**2): 
                 1             2             3 
      1   0.317365D+03  0.000000D+00  0.000000D+00
      2   0.000000D+00  0.317365D+03  0.000000D+00
      3   0.000000D+00  0.000000D+00  0.634729D+03
 Principal inertia moments (amu-bohr**2):
 Iaa = 0.317365D+03 Ibb= 0.317365D+03 Icc= 0.634729D+03
 Rotation matrix to Principal Axis frame: 
                 1             2             3 
      1   0.100000D+01  0.000000D+00  0.000000D+00
      2   0.000000D+00  0.100000D+01  0.000000D+00
      3   0.000000D+00  0.000000D+00  0.100000D+01
                Principal axis orientation:                
 ---------------------------------------------------------------------
 Center     Atomic                     Coordinates (Angstroms)
 Number     Number                        X           Y           Z
 ---------------------------------------------------------------------
      1          6                   -0.000000    1.394991   -0.000000
      2          6                   -1.208097    0.697495   -0.000000
      3          6                   -1.208097   -0.697495   -0.000000
      4          6                    0.000000   -1.394991    0.000000
      5          6                    1.208097   -0.697495    0.000000
      6          6                    1.208097    0.697495    0.000000
      7          1                   -0.000000    2.494601   -0.000000
      8          1                   -2.160388    1.247300   -0.000000
      9          1                   -2.160388   -1.247300   -0.000000
     10          1                    0.000000   -2.494601    0.000000
     11          1                    2.160388   -1.247300    0.000000
     12          1                    2.160388    1.247300    0.000000
 ---------------------------------------------------------------------
 Rotational constants (MHZ):
   5686.6485377   5686.6485377   2843.3242689
 Dipole moment (Debye):
      0.0000000      0.0000000      0.0000000  Tot=      0.0000000

 Atoms with significant hyperfine tensors: 

--------------------------------------------------------------------------------
 title                                                   
   99  1000  50  0.1760E-11  0.1000E+07  0.1000E+01 1.0000000000
a   1  0  0  0  1  1   1  0  1  0
     10000   0.56866485E+04    0.0000E+00   /  A  /
     20000   0.56866485E+04    0.0000E+00   /  B  /
     30000   0.28433243E+04    0.0000E+00   /  C  /
--------------------------------------------------------------------------------

 Punch of MOs requested, but none found.


 I LOVE THOSE WHO LONG FOR THE IMPOSSIBLE.

                                 -- GOETHE
 Job cpu time:       0 days  0 hours  0 minutes  0.8 seconds.
 Elapsed time:       0 days  0 hours  0 minutes 34.1 seconds.
 File lengths (MBytes):  RWF=      5 Int=      0 D2E=      0 Chk=      1 Scr=      1
 Normal termination of Gaussian 16 at Wed Nov 19 18:21:38 2025.
 Initial command:
 /gaussian/g16.c01/intel64-sandybridge/g16/l1.exe "/home/barone/lcrisci_vb/ACTUAL_PROJECTS/MRCC_new_Interface_project/TestingOldVersion/Symmetry/Benzene_D6h/Gau-4157713.inp" -scrdir="/home/barone/lcrisci_vb/ACTUAL_PROJECTS/MRCC_new_Interface_project/TestingOldVersion/Symmetry/Benzene_D6h/"
 Entering Link 1 = /gaussian/g16.c01/intel64-sandybridge/g16/l1.exe PID=   4158072.
  
 Copyright (c) 1988-2019, Gaussian, Inc.  All Rights Reserved.
  
 This is part of the Gaussian(R) 16 program.  It is based on
 the Gaussian(R) 09 system (copyright 2009, Gaussian, Inc.),
 the Gaussian(R) 03 system (copyright 2003, Gaussian, Inc.),
 the Gaussian(R) 98 system (copyright 1998, Gaussian, Inc.),
 the Gaussian(R) 94 system (copyright 1995, Gaussian, Inc.),
 the Gaussian 92(TM) system (copyright 1992, Gaussian, Inc.),
 the Gaussian 90(TM) system (copyright 1990, Gaussian, Inc.),
 the Gaussian 88(TM) system (copyright 1988, Gaussian, Inc.),
 the Gaussian 86(TM) system (copyright 1986, Carnegie Mellon
 University), and the Gaussian 82(TM) system (copyright 1983,
 Carnegie Mellon University). Gaussian is a federally registered
 trademark of Gaussian, Inc.
  
 This software contains proprietary and confidential information,
 including trade secrets, belonging to Gaussian, Inc.
  
 This software is provided under written license and may be
 used, copied, transmitted, or stored only in accord with that
 written license.
  
 The following legend is applicable only to US Government
 contracts under FAR:
  
                    RESTRICTED RIGHTS LEGEND
  
 Use, reproduction and disclosure by the US Government is
 subject to restrictions as set forth in subparagraphs (a)
 and (c) of the Commercial Computer Software - Restricted
 Rights clause in FAR 52.227-19.
  
 Gaussian, Inc.
 340 Quinnipiac St., Bldg. 40, Wallingford CT 06492
  
  
 ---------------------------------------------------------------
 Warning -- This program may not be used in any manner that
 competes with the business of Gaussian, Inc. or will provide
 assistance to any competitor of Gaussian, Inc.  The licensee
 of this program is prohibited from giving any competitor of
 Gaussian, Inc. access to this program.  By using this program,
 the user acknowledges that Gaussian, Inc. is engaged in the
 business of creating and licensing software in the field of
 computational chemistry and represents and warrants to the
 licensee that it is not a competitor of Gaussian, Inc. and that
 it will not use this program in any manner prohibited above.
 ---------------------------------------------------------------
  

 Cite this work as:
 Gaussian 16, Revision C.01,
 M. J. Frisch, G. W. Trucks, H. B. Schlegel, G. E. Scuseria, 
 M. A. Robb, J. R. Cheeseman, G. Scalmani, V. Barone, 
 G. A. Petersson, H. Nakatsuji, X. Li, M. Caricato, A. V. Marenich, 
 J. Bloino, B. G. Janesko, R. Gomperts, B. Mennucci, H. P. Hratchian, 
 J. V. Ortiz, A. F. Izmaylov, J. L. Sonnenberg, D. Williams-Young, 
 F. Ding, F. Lipparini, F. Egidi, J. Goings, B. Peng, A. Petrone, 
 T. Henderson, D. Ranasinghe, V. G. Zakrzewski, J. Gao, N. Rega, 
 G. Zheng, W. Liang, M. Hada, M. Ehara, K. Toyota, R. Fukuda, 
 J. Hasegawa, M. Ishida, T. Nakajima, Y. Honda, O. Kitao, H. Nakai, 
 T. Vreven, K. Throssell, J. A. Montgomery, Jr., J. E. Peralta, 
 F. Ogliaro, M. J. Bearpark, J. J. Heyd, E. N. Brothers, K. N. Kudin, 
 V. N. Staroverov, T. A. Keith, R. Kobayashi, J. Normand, 
 K. Raghavachari, A. P. Rendell, J. C. Burant, S. S. Iyengar, 
 J. Tomasi, M. Cossi, J. M. Millam, M. Klene, C. Adamo, R. Cammi, 
 J. W. Ochterski, R. L. Martin, K. Morokuma, O. Farkas, 
 J. B. Foresman, and D. J. Fox, Gaussian, Inc., Wallingford CT, 2019.
 
 ******************************************
 Gaussian 16:  ES64L-G16RevC.01  3-Jul-2019
                19-Nov-2025 
 ******************************************
 %nprocs=1
 Will use up to    1 processors via shared memory.
 ------------------
 #p force hf/sto-3g
 ------------------
 1/10=7,30=1,38=1/1,3;
 2/12=2,17=6,18=5,40=1/2;
 3/6=3,11=9,25=1,30=1,71=1/1,2,3;
 4//1;
 5/5=2,38=5/2;
 6/7=2,8=2,9=2,10=2,28=1/1;
 7/29=1/1,2,3,16;
 1/10=7,30=1/3;
 99//99;
 Leave Link    1 at Wed Nov 19 18:21:38 2025, MaxMem=           0 cpu:               0.0 elap:               0.1
 (Enter /gaussian/g16.c01/intel64-sandybridge/g16/l101.exe)
 -----
 title
 -----
 Symbolic Z-matrix:
 Charge =  0 Multiplicity = 1
 C                     0.        1.39499   0. 
 C                    -1.2081    0.6975    0. 
 C                    -1.2081   -0.6975    0. 
 C                     0.       -1.39499   0. 
 C                     1.2081   -0.6975    0. 
 C                     1.2081    0.6975    0. 
 H                     0.        2.4946    0. 
 H                    -2.16039   1.2473    0. 
 H                    -2.16039  -1.2473    0. 
 H                     0.       -2.4946    0. 
 H                     2.16039  -1.2473    0. 
 H                     2.16039   1.2473    0. 
 
 ITRead=  0  0  0  0  0  0  0  0  0  0  0  0
 MicOpt= -1 -1 -1 -1 -1 -1 -1 -1 -1 -1 -1 -1
 NAtoms=     12 NQM=       12 NQMF=       0 NMMI=      0 NMMIF=      0
                NMic=       0 NMicF=      0.
                    Isotopes and Nuclear Properties:
 (Nuclear quadrupole moments (NQMom) in fm**2, nuclear magnetic moments (NMagM)
  in nuclear magnetons)

  Atom         1           2           3           4           5           6           7           8           9          10
 IAtWgt=          12          12          12          12          12          12           1           1           1           1
 AtmWgt=  12.0000000  12.0000000  12.0000000  12.0000000  12.0000000  12.0000000   1.0078250   1.0078250   1.0078250   1.0078250
 NucSpn=           0           0           0           0           0           0           1           1           1           1
 AtZEff=  -0.0000000  -0.0000000  -0.0000000  -0.0000000  -0.0000000  -0.0000000  -0.0000000  -0.0000000  -0.0000000  -0.0000000
 NQMom=    0.0000000   0.0000000   0.0000000   0.0000000   0.0000000   0.0000000   0.0000000   0.0000000   0.0000000   0.0000000
 NMagM=    0.0000000   0.0000000   0.0000000   0.0000000   0.0000000   0.0000000   2.7928460   2.7928460   2.7928460   2.7928460
 AtZNuc=   6.0000000   6.0000000   6.0000000   6.0000000   6.0000000   6.0000000   1.0000000   1.0000000   1.0000000   1.0000000

  Atom        11          12
 IAtWgt=           1           1
 AtmWgt=   1.0078250   1.0078250
 NucSpn=           1           1
 AtZEff=  -0.0000000  -0.0000000
 NQMom=    0.0000000   0.0000000
 NMagM=    2.7928460   2.7928460
 AtZNuc=   1.0000000   1.0000000
 Leave Link  101 at Wed Nov 19 18:21:39 2025, MaxMem=   104857600 cpu:               0.3 elap:               0.3
 (Enter /gaussian/g16.c01/intel64-sandybridge/g16/l103.exe)

 GradGradGradGradGradGradGradGradGradGradGradGradGradGradGradGradGradGrad
 Berny optimization.
 Initialization pass.
 Trust Radius=3.00D-01 FncErr=1.00D-07 GrdErr=1.00D-07 EigMax=2.50D+02 EigMin=1.00D-04
 Number of steps in this run=      2 maximum allowed number of steps=      2.
 GradGradGradGradGradGradGradGradGradGradGradGradGradGradGradGradGradGrad

 Leave Link  103 at Wed Nov 19 18:21:39 2025, MaxMem=   104857600 cpu:               0.0 elap:               0.1
 (Enter /gaussian/g16.c01/intel64-sandybridge/g16/l202.exe)
                          Input orientation:                          
 ---------------------------------------------------------------------
 Center     Atomic      Atomic             Coordinates (Angstroms)
 Number     Number       Type             X           Y           Z
 ---------------------------------------------------------------------
      1          6           0        0.000000    1.394991    0.000000
      2          6           0       -1.208097    0.697495    0.000000
      3          6           0       -1.208097   -0.697495    0.000000
      4          6           0        0.000000   -1.394991    0.000000
      5          6           0        1.208097   -0.697495    0.000000
      6          6           0        1.208097    0.697495    0.000000
      7          1           0        0.000000    2.494601    0.000000
      8          1           0       -2.160388    1.247300    0.000000
      9          1           0       -2.160388   -1.247300    0.000000
     10          1           0        0.000000   -2.494601    0.000000
     11          1           0        2.160388   -1.247300    0.000000
     12          1           0        2.160388    1.247300    0.000000
 ---------------------------------------------------------------------
                    Distance matrix (angstroms):
                    1          2          3          4          5
     1  C    0.000000
     2  C    1.394991   0.000000
     3  C    2.416195   1.394991   0.000000
     4  C    2.789981   2.416195   1.394991   0.000000
     5  C    2.416195   2.789981   2.416195   1.394991   0.000000
     6  C    1.394991   2.416195   2.789981   2.416195   1.394991
     7  H    1.099610   2.165430   3.413060   3.889592   3.413060
     8  H    2.165430   1.099610   2.165430   3.413060   3.889592
     9  H    3.413060   2.165430   1.099610   2.165430   3.413060
    10  H    3.889592   3.413060   2.165430   1.099610   2.165430
    11  H    3.413060   3.889592   3.413060   2.165430   1.099610
    12  H    2.165430   3.413060   3.889592   3.413060   2.165430
                    6          7          8          9         10
     6  C    0.000000
     7  H    2.165430   0.000000
     8  H    3.413060   2.494601   0.000000
     9  H    3.889592   4.320776   2.494601   0.000000
    10  H    3.413060   4.989202   4.320776   2.494601   0.000000
    11  H    2.165430   4.320776   4.989202   4.320776   2.494601
    12  H    1.099610   2.494601   4.320776   4.989202   4.320776
                   11         12
    11  H    0.000000
    12  H    2.494601   0.000000
 Stoichiometry    C6H6
 Framework group  D6H[3C2'(HC.CH)]
 Deg. of freedom     2
 Full point group                 D6H     NOp  24
 Largest Abelian subgroup         D2H     NOp   8
 Largest concise Abelian subgroup D2      NOp   4
                         Standard orientation:                         
 ---------------------------------------------------------------------
 Center     Atomic      Atomic             Coordinates (Angstroms)
 Number     Number       Type             X           Y           Z
 ---------------------------------------------------------------------
      1          6           0        0.000000    1.394991    0.000000
      2          6           0        1.208097    0.697495   -0.000000
      3          6           0        1.208097   -0.697495   -0.000000
      4          6           0       -0.000000   -1.394991    0.000000
      5          6           0       -1.208097   -0.697495   -0.000000
      6          6           0       -1.208097    0.697495   -0.000000
      7          1           0        0.000000    2.494601    0.000000
      8          1           0        2.160388    1.247300   -0.000000
      9          1           0        2.160388   -1.247300   -0.000000
     10          1           0       -0.000000   -2.494601    0.000000
     11          1           0       -2.160388   -1.247300   -0.000000
     12          1           0       -2.160388    1.247300   -0.000000
 ---------------------------------------------------------------------
 Rotational constants (GHZ):           5.6866485           5.6866485           2.8433243
 Leave Link  202 at Wed Nov 19 18:21:39 2025, MaxMem=   104857600 cpu:               0.0 elap:               0.0
 (Enter /gaussian/g16.c01/intel64-sandybridge/g16/l301.exe)
 Standard basis: STO-3G (5D, 7F)
 Ernie: Thresh=  0.10000D-02 Tol=  0.10000D-05 Strict=F.
 There are     9 symmetry adapted cartesian basis functions of AG  symmetry.
 There are     6 symmetry adapted cartesian basis functions of B1G symmetry.
 There are     1 symmetry adapted cartesian basis functions of B2G symmetry.
 There are     2 symmetry adapted cartesian basis functions of B3G symmetry.
 There are     1 symmetry adapted cartesian basis functions of AU  symmetry.
 There are     2 symmetry adapted cartesian basis functions of B1U symmetry.
 There are     9 symmetry adapted cartesian basis functions of B2U symmetry.
 There are     6 symmetry adapted cartesian basis functions of B3U symmetry.
 There are     9 symmetry adapted basis functions of AG  symmetry.
 There are     6 symmetry adapted basis functions of B1G symmetry.
 There are     1 symmetry adapted basis functions of B2G symmetry.
 There are     2 symmetry adapted basis functions of B3G symmetry.
 There are     1 symmetry adapted basis functions of AU  symmetry.
 There are     2 symmetry adapted basis functions of B1U symmetry.
 There are     9 symmetry adapted basis functions of B2U symmetry.
 There are     6 symmetry adapted basis functions of B3U symmetry.
    36 basis functions,   108 primitive gaussians,    36 cartesian basis functions
    21 alpha electrons       21 beta electrons
       nuclear repulsion energy       203.0352974996 Hartrees.
 IExCor=    0 DFT=F Ex=HF Corr=None ExCW=0 ScaHFX=  1.000000
 ScaDFX=  1.000000  1.000000  1.000000  1.000000 ScalE2=  1.000000  1.000000
 IRadAn=      5 IRanWt=     -1 IRanGd=            0 ICorTp=0 IEmpDi=  4
 NAtoms=   12 NActive=   12 NUniq=    2 SFac= 4.00D+00 NAtFMM=   60 NAOKFM=F Big=F
 Integral buffers will be    131072 words long.
 Raffenetti 1 integral format.
 Two-electron integral symmetry is turned on.
 Leave Link  301 at Wed Nov 19 18:21:39 2025, MaxMem=   104857600 cpu:               0.1 elap:               0.1
 (Enter /gaussian/g16.c01/intel64-sandybridge/g16/l302.exe)
 NPDir=0 NMtPBC=     1 NCelOv=     1 NCel=       1 NClECP=     1 NCelD=      1
         NCelK=      1 NCelE2=     1 NClLst=     1 CellRange=     0.0.
 One-electron integrals computed using PRISM.
 One-electron integral symmetry used in STVInt
 NBasis=    36 RedAO= T EigKep=  1.72D-01  NBF=     9     6     1     2     1     2     9     6
 NBsUse=    36 1.00D-06 EigRej= -1.00D+00 NBFU=     9     6     1     2     1     2     9     6
 Leave Link  302 at Wed Nov 19 18:21:39 2025, MaxMem=   104857600 cpu:               0.1 elap:               0.2
 (Enter /gaussian/g16.c01/intel64-sandybridge/g16/l303.exe)
 DipDrv:  MaxL=1.
 Leave Link  303 at Wed Nov 19 18:21:39 2025, MaxMem=   104857600 cpu:               0.1 elap:               0.1
 (Enter /gaussian/g16.c01/intel64-sandybridge/g16/l401.exe)
 ExpMin= 1.69D-01 ExpMax= 7.16D+01 ExpMxC= 7.16D+01 IAcc=3 IRadAn=         5 AccDes= 0.00D+00
 Harris functional with IExCor=  205 and IRadAn=       5 diagonalized for initial guess.
 HarFok:  IExCor=  205 AccDes= 0.00D+00 IRadAn=         5 IDoV= 1 UseB2=F ITyADJ=14
 ICtDFT=  3500011 ScaDFX=  1.000000  1.000000  1.000000  1.000000
 FoFCou: FMM=F IPFlag=           0 FMFlag=      100000 FMFlg1=           0
         NFxFlg=           0 DoJE=T BraDBF=F KetDBF=T FulRan=T
         wScrn=  0.000000 ICntrl=       500 IOpCl=  0 I1Cent=   200000004 NGrid=           0
         NMat0=    1 NMatS0=      1 NMatT0=    0 NMatD0=    1 NMtDS0=    0 NMtDT0=    0
 Petite list used in FoFCou.
 Harris En= -228.205290112393    
 JPrj=0 DoOrth=F DoCkMO=F.
 Initial guess orbital symmetries:
       Occupied  (B1U) (E2G) (E2G) (E1U) (E1U) (A1G) (A1G) (E1U)
                 (E1U) (E2G) (E2G) (A1G) (B2U) (B1U) (E1U) (E1U)
                 (A2U) (E2G) (E2G) (E1G) (E1G)
       Virtual   (E2U) (E2U) (B2G) (A1G) (E1U) (E1U) (E2G) (E2G)
                 (B1U) (E1U) (E1U) (E2G) (E2G) (A2G) (B1U)
 The electronic state of the initial guess is 1-A1G.
 Leave Link  401 at Wed Nov 19 18:21:40 2025, MaxMem=   104857600 cpu:               0.2 elap:               0.2
 (Enter /gaussian/g16.c01/intel64-sandybridge/g16/l502.exe)
 Keep R1 ints in memory in symmetry-blocked form, NReq=1048829.
 FoFCou: FMM=F IPFlag=           0 FMFlag=           0 FMFlg1=           0
         NFxFlg=           0 DoJE=F BraDBF=F KetDBF=F FulRan=T
         wScrn=  0.000000 ICntrl=       600 IOpCl=  0 I1Cent=           0 NGrid=           0
         NMat0=    1 NMatS0=    666 NMatT0=    0 NMatD0=    1 NMtDS0=    0 NMtDT0=    0
 Petite list used in FoFCou.
 Closed shell SCF:
 Using DIIS extrapolation, IDIIS=  1040.
 NGot=   104857600 LenX=   104815863 LenY=   104814126
 Requested convergence on RMS density matrix=1.00D-08 within 128 cycles.
 Requested convergence on MAX density matrix=1.00D-06.
 Requested convergence on             energy=1.00D-06.
 No special actions if energy rises.

 Cycle   1  Pass 1  IDiag  1:
 E= -227.806585999945    
 DIIS: error= 5.15D-02 at cycle   1 NSaved=   1.
 NSaved= 1 IEnMin= 1 EnMin= -227.806585999945     IErMin= 1 ErrMin= 5.15D-02
 ErrMax= 5.15D-02  0.00D+00 EMaxC= 1.00D-01 BMatC= 9.81D-02 BMatP= 9.81D-02
 IDIUse=3 WtCom= 4.85D-01 WtEn= 5.15D-01
 Coeff-Com:  0.100D+01
 Coeff-En:   0.100D+01
 Coeff:      0.100D+01
 Gap=     0.550 Goal=   None    Shift=    0.000
 GapD=    0.550 DampG=2.000 DampE=0.500 DampFc=1.0000 IDamp=-1.
 RMSDP=1.02D-02 MaxDP=8.65D-02              OVMax= 0.00D+00

 Cycle   2  Pass 1  IDiag  1:
 E= -227.888762577195     Delta-E=       -0.082176577250 Rises=F Damp=F
 DIIS: error= 4.89D-03 at cycle   2 NSaved=   2.
 NSaved= 2 IEnMin= 2 EnMin= -227.888762577195     IErMin= 2 ErrMin= 4.89D-03
 ErrMax= 4.89D-03  0.00D+00 EMaxC= 1.00D-01 BMatC= 6.86D-04 BMatP= 9.81D-02
 IDIUse=3 WtCom= 9.51D-01 WtEn= 4.89D-02
 Coeff-Com: -0.202D-01 0.102D+01
 Coeff-En:   0.000D+00 0.100D+01
 Coeff:     -0.192D-01 0.102D+01
 Gap=     0.549 Goal=   None    Shift=    0.000
 RMSDP=9.29D-04 MaxDP=4.19D-03 DE=-8.22D-02 OVMax= 0.00D+00

 Cycle   3  Pass 1  IDiag  1:
 E= -227.889405430769     Delta-E=       -0.000642853574 Rises=F Damp=F
 DIIS: error= 6.68D-04 at cycle   3 NSaved=   3.
 NSaved= 3 IEnMin= 3 EnMin= -227.889405430769     IErMin= 3 ErrMin= 6.68D-04
 ErrMax= 6.68D-04  0.00D+00 EMaxC= 1.00D-01 BMatC= 1.02D-05 BMatP= 6.86D-04
 IDIUse=3 WtCom= 9.93D-01 WtEn= 6.68D-03
 Coeff-Com: -0.419D-02-0.304D-01 0.103D+01
 Coeff-En:   0.000D+00 0.000D+00 0.100D+01
 Coeff:     -0.416D-02-0.302D-01 0.103D+01
 Gap=     0.549 Goal=   None    Shift=    0.000
 RMSDP=1.40D-04 MaxDP=6.72D-04 DE=-6.43D-04 OVMax= 0.00D+00

 Cycle   4  Pass 1  IDiag  1:
 E= -227.889421855894     Delta-E=       -0.000016425124 Rises=F Damp=F
 DIIS: error= 1.00D-04 at cycle   4 NSaved=   4.
 NSaved= 4 IEnMin= 4 EnMin= -227.889421855894     IErMin= 4 ErrMin= 1.00D-04
 ErrMax= 1.00D-04  0.00D+00 EMaxC= 1.00D-01 BMatC= 2.89D-07 BMatP= 1.02D-05
 IDIUse=3 WtCom= 9.99D-01 WtEn= 1.00D-03
 Coeff-Com:  0.901D-03-0.609D-02-0.194D+00 0.120D+01
 Coeff-En:   0.000D+00 0.000D+00 0.000D+00 0.100D+01
 Coeff:      0.900D-03-0.609D-02-0.194D+00 0.120D+01
 Gap=     0.549 Goal=   None    Shift=    0.000
 RMSDP=3.11D-05 MaxDP=1.97D-04 DE=-1.64D-05 OVMax= 0.00D+00

 Cycle   5  Pass 1  IDiag  1:
 E= -227.889422372357     Delta-E=       -0.000000516463 Rises=F Damp=F
 DIIS: error= 5.99D-06 at cycle   5 NSaved=   5.
 NSaved= 5 IEnMin= 5 EnMin= -227.889422372357     IErMin= 5 ErrMin= 5.99D-06
 ErrMax= 5.99D-06  0.00D+00 EMaxC= 1.00D-01 BMatC= 1.08D-09 BMatP= 2.89D-07
 IDIUse=1 WtCom= 1.00D+00 WtEn= 0.00D+00
 Coeff-Com: -0.205D-03 0.141D-02 0.463D-01-0.303D+00 0.126D+01
 Coeff:     -0.205D-03 0.141D-02 0.463D-01-0.303D+00 0.126D+01
 Gap=     0.549 Goal=   None    Shift=    0.000
 RMSDP=1.94D-06 MaxDP=1.75D-05 DE=-5.16D-07 OVMax= 0.00D+00

 Cycle   6  Pass 1  IDiag  1:
 E= -227.889422374214     Delta-E=       -0.000000001858 Rises=F Damp=F
 DIIS: error= 2.62D-07 at cycle   6 NSaved=   6.
 NSaved= 6 IEnMin= 6 EnMin= -227.889422374214     IErMin= 6 ErrMin= 2.62D-07
 ErrMax= 2.62D-07  0.00D+00 EMaxC= 1.00D-01 BMatC= 1.74D-12 BMatP= 1.08D-09
 IDIUse=1 WtCom= 1.00D+00 WtEn= 0.00D+00
 Coeff-Com:  0.381D-04-0.267D-03-0.864D-02 0.567D-01-0.242D+00 0.119D+01
 Coeff:      0.381D-04-0.267D-03-0.864D-02 0.567D-01-0.242D+00 0.119D+01
 Gap=     0.549 Goal=   None    Shift=    0.000
 RMSDP=6.95D-08 MaxDP=5.19D-07 DE=-1.86D-09 OVMax= 0.00D+00

 Cycle   7  Pass 1  IDiag  1:
 E= -227.889422374216     Delta-E=       -0.000000000002 Rises=F Damp=F
 DIIS: error= 1.57D-08 at cycle   7 NSaved=   7.
 NSaved= 7 IEnMin= 7 EnMin= -227.889422374216     IErMin= 7 ErrMin= 1.57D-08
 ErrMax= 1.57D-08  0.00D+00 EMaxC= 1.00D-01 BMatC= 6.14D-15 BMatP= 1.74D-12
 IDIUse=1 WtCom= 1.00D+00 WtEn= 0.00D+00
 Coeff-Com: -0.191D-05 0.135D-04 0.421D-03-0.278D-02 0.117D-01-0.102D+00
 Coeff-Com:  0.109D+01
 Coeff:     -0.191D-05 0.135D-04 0.421D-03-0.278D-02 0.117D-01-0.102D+00
 Coeff:      0.109D+01
 Gap=     0.549 Goal=   None    Shift=    0.000
 RMSDP=4.24D-09 MaxDP=3.03D-08 DE=-1.93D-12 OVMax= 0.00D+00

 SCF Done:  E(RHF) =  -227.889422374     A.U. after    7 cycles
            NFock=  7  Conv=0.42D-08     -V/T= 2.0088
 KE= 2.259067073513D+02 PE=-9.369006618185D+02 EE= 2.800692345934D+02
 Leave Link  502 at Wed Nov 19 18:21:40 2025, MaxMem=   104857600 cpu:               0.1 elap:               0.3
 (Enter /gaussian/g16.c01/intel64-sandybridge/g16/l601.exe)
 Copying SCF densities to generalized density rwf, IOpCl= 0 IROHF=0.

 **********************************************************************

            Population analysis using the SCF Density.

 **********************************************************************

 Orbital symmetries:
       Occupied  (E1U) (E1U) (A1G) (E2G) (E2G) (B1U) (A1G) (E1U)
                 (E1U) (E2G) (E2G) (A1G) (B1U) (B2U) (E1U) (E1U)
                 (A2U) (E2G) (E2G) (E1G) (E1G)
       Virtual   (E2U) (E2U) (B2G) (A1G) (E1U) (E1U) (B1U) (E2G)
                 (E2G) (E2G) (E2G) (E1U) (E1U) (A2G) (B1U)
 The electronic state is 1-A1G.
 Alpha  occ. eigenvalues --  -11.02930 -11.02930 -11.02927 -11.02894 -11.02894
 Alpha  occ. eigenvalues --  -11.02880  -1.08914  -0.95261  -0.95261  -0.76317
 Alpha  occ. eigenvalues --   -0.76317  -0.65727  -0.58762  -0.55244  -0.53042
 Alpha  occ. eigenvalues --   -0.53042  -0.45574  -0.42992  -0.42992  -0.27938
 Alpha  occ. eigenvalues --   -0.27938
 Alpha virt. eigenvalues --    0.26930   0.26930   0.50430   0.56478   0.63658
 Alpha virt. eigenvalues --    0.63658   0.70681   0.72609   0.72609   0.87504
 Alpha virt. eigenvalues --    0.87504   0.89412   0.89412   1.08781   1.14443
          Condensed to atoms (all electrons):
               1          2          3          4          5          6
     1  C    4.774897   0.506758  -0.030214  -0.011303  -0.030214   0.506758
     2  C    0.506758   4.774897   0.506758  -0.030214  -0.011303  -0.030214
     3  C   -0.030214   0.506758   4.774897   0.506758  -0.030214  -0.011303
     4  C   -0.011303  -0.030214   0.506758   4.774897   0.506758  -0.030214
     5  C   -0.030214  -0.011303  -0.030214   0.506758   4.774897   0.506758
     6  C    0.506758  -0.030214  -0.011303  -0.030214   0.506758   4.774897
     7  H    0.391145  -0.025062   0.001336   0.000028   0.001336  -0.025062
     8  H   -0.025062   0.391145  -0.025062   0.001336   0.000028   0.001336
     9  H    0.001336  -0.025062   0.391145  -0.025062   0.001336   0.000028
    10  H    0.000028   0.001336  -0.025062   0.391145  -0.025062   0.001336
    11  H    0.001336   0.000028   0.001336  -0.025062   0.391145  -0.025062
    12  H   -0.025062   0.001336   0.000028   0.001336  -0.025062   0.391145
               7          8          9         10         11         12
     1  C    0.391145  -0.025062   0.001336   0.000028   0.001336  -0.025062
     2  C   -0.025062   0.391145  -0.025062   0.001336   0.000028   0.001336
     3  C    0.001336  -0.025062   0.391145  -0.025062   0.001336   0.000028
     4  C    0.000028   0.001336  -0.025062   0.391145  -0.025062   0.001336
     5  C    0.001336   0.000028   0.001336  -0.025062   0.391145  -0.025062
     6  C   -0.025062   0.001336   0.000028   0.001336  -0.025062   0.391145
     7  H    0.602987  -0.003525  -0.000030   0.000002  -0.000030  -0.003525
     8  H   -0.003525   0.602987  -0.003525  -0.000030   0.000002  -0.000030
     9  H   -0.000030  -0.003525   0.602987  -0.003525  -0.000030   0.000002
    10  H    0.000002  -0.000030  -0.003525   0.602987  -0.003525  -0.000030
    11  H   -0.000030   0.000002  -0.000030  -0.003525   0.602987  -0.003525
    12  H   -0.003525  -0.000030   0.000002  -0.000030  -0.003525   0.602987
 Mulliken charges:
               1
     1  C   -0.060401
     2  C   -0.060401
     3  C   -0.060401
     4  C   -0.060401
     5  C   -0.060401
     6  C   -0.060401
     7  H    0.060401
     8  H    0.060401
     9  H    0.060401
    10  H    0.060401
    11  H    0.060401
    12  H    0.060401
 Sum of Mulliken charges =  -0.00000
 Mulliken charges with hydrogens summed into heavy atoms:
               1
     1  C   -0.000000
     2  C   -0.000000
     3  C   -0.000000
     4  C   -0.000000
     5  C   -0.000000
     6  C   -0.000000
 Electronic spatial extent (au):  <R**2>=            455.9608
 Charge=             -0.0000 electrons
 Dipole moment (field-independent basis, Debye):
    X=             -0.0000    Y=             -0.0000    Z=              0.0000  Tot=              0.0000
 Quadrupole moment (field-independent basis, Debye-Ang):
   XX=            -31.1583   YY=            -31.1583   ZZ=            -35.1302
   XY=              0.0000   XZ=             -0.0000   YZ=             -0.0000
 Traceless Quadrupole moment (field-independent basis, Debye-Ang):
   XX=              1.3240   YY=              1.3240   ZZ=             -2.6479
   XY=              0.0000   XZ=             -0.0000   YZ=             -0.0000
 Octapole moment (field-independent basis, Debye-Ang**2):
  XXX=             -0.0000  YYY=              0.0000  ZZZ=              0.0000  XYY=              0.0000
  XXY=             -0.0000  XXZ=              0.0000  XZZ=             -0.0000  YZZ=              0.0000
  YYZ=              0.0000  XYZ=              0.0000
 Hexadecapole moment (field-independent basis, Debye-Ang**3):
 XXXX=           -260.5644 YYYY=           -260.5644 ZZZZ=            -28.5481 XXXY=              0.0000
 XXXZ=              0.0000 YYYX=              0.0000 YYYZ=              0.0000 ZZZX=              0.0000
 ZZZY=              0.0000 XXYY=            -86.8548 XXZZ=            -53.9899 YYZZ=            -53.9899
 XXYZ=              0.0000 YYXZ=              0.0000 ZZXY=              0.0000
 N-N= 2.030352974996D+02 E-N=-9.369006617088D+02  KE= 2.259067073513D+02
 Symmetry AG   KE= 7.237188424597D+01
 Symmetry B1G  KE= 3.658378422829D+01
 Symmetry B2G  KE= 2.645989280866D+00
 Symmetry B3G  KE= 2.645989280866D+00
 Symmetry AU   KE= 1.241463672923D-16
 Symmetry B1U  KE= 2.167725235911D+00
 Symmetry B2U  KE= 7.028802807143D+01
 Symmetry B3U  KE= 3.920330700794D+01
 No NMR shielding tensors so no spin-rotation constants.
 Leave Link  601 at Wed Nov 19 18:21:40 2025, MaxMem=   104857600 cpu:               0.1 elap:               0.1
 (Enter /gaussian/g16.c01/intel64-sandybridge/g16/l701.exe)
 ... and contract with generalized density number  0.
 Compute integral first derivatives.
 Leave Link  701 at Wed Nov 19 18:21:41 2025, MaxMem=   104857600 cpu:               0.1 elap:               0.1
 (Enter /gaussian/g16.c01/intel64-sandybridge/g16/l702.exe)
 L702 exits ... SP integral derivatives will be done elsewhere.
 Leave Link  702 at Wed Nov 19 18:21:41 2025, MaxMem=   104857600 cpu:               0.0 elap:               0.1
 (Enter /gaussian/g16.c01/intel64-sandybridge/g16/l703.exe)
 Integral derivatives from FoFJK, PRISM(SPDF).
 Compute integral first derivatives, UseDBF=F ICtDFT=           0.
 Calling FoFJK, ICntrl=      2127 FMM=F ISym2X=1 I1Cent= 0 IOpClX= 0 NMat=1 NMatS=1 NMatT=0.
 FoFJK:  IHMeth= 1 ICntrl=    2127 DoSepK=F KAlg= 0 I1Cent=           0 FoldK=F
 IRaf=         0 NMat=       1 IRICut=       1 DoRegI=T DoRafI=F ISym2E= 1 IDoP0=0 IntGTp=1.
 FoFCou: FMM=F IPFlag=           0 FMFlag=      100000 FMFlg1=         800
         NFxFlg=           0 DoJE=F BraDBF=F KetDBF=F FulRan=T
         wScrn=  0.000000 ICntrl=      2127 IOpCl=  0 I1Cent=           0 NGrid=           0
         NMat0=    1 NMatS0=      1 NMatT0=    0 NMatD0=    1 NMtDS0=    0 NMtDT0=    0
 Petite list used in FoFCou.
 Leave Link  703 at Wed Nov 19 18:21:41 2025, MaxMem=   104857600 cpu:               0.1 elap:               0.1
 (Enter /gaussian/g16.c01/intel64-sandybridge/g16/l716.exe)
 Dipole        =-6.21724894D-15-2.22044605D-15 1.91416798D-33
 ***** Axes restored to original set *****
 -------------------------------------------------------------------
 Center     Atomic                   Forces (Hartrees/Bohr)
 Number     Number              X              Y              Z
 -------------------------------------------------------------------
      1        6          -0.000000000    0.004765721    0.000000000
      2        6          -0.004127236    0.002382861    0.000000000
      3        6          -0.004127236   -0.002382861    0.000000000
      4        6           0.000000000   -0.004765721   -0.000000000
      5        6           0.004127236   -0.002382861   -0.000000000
      6        6           0.004127236    0.002382861   -0.000000000
      7        1           0.000000000   -0.014957090   -0.000000000
      8        1           0.012953220   -0.007478545   -0.000000000
      9        1           0.012953220    0.007478545    0.000000000
     10        1          -0.000000000    0.014957090    0.000000000
     11        1          -0.012953220    0.007478545    0.000000000
     12        1          -0.012953220   -0.007478545   -0.000000000
 -------------------------------------------------------------------
 Cartesian Forces:  Max     0.014957090 RMS     0.006408674
 Z-matrix is all fixed cartesians, so copy forces.
 Force constants in Cartesian coordinates: 
                1             2             3             4             5 
      1  0.870452D+00
      2  0.000000D+00  0.800516D+00
      3  0.000000D+00  0.000000D+00  0.195890D+00
      4 -0.394252D+00 -0.116002D+00  0.000000D+00  0.818000D+00
      5 -0.127721D+00 -0.253538D+00  0.000000D+00  0.302831D-01  0.852968D+00
      6  0.000000D+00  0.000000D+00 -0.944686D-01  0.000000D+00  0.000000D+00
      7  0.179875D-01 -0.311552D-01  0.000000D+00 -0.183181D+00  0.585971D-02
      8  0.000000D+00  0.000000D+00  0.000000D+00 -0.585971D-02 -0.464609D+00
      9  0.000000D+00  0.000000D+00  0.125236D-01  0.000000D+00  0.000000D+00
     10  0.000000D+00  0.000000D+00  0.000000D+00  0.179875D-01  0.000000D+00
     11  0.000000D+00  0.000000D+00  0.000000D+00  0.311552D-01  0.000000D+00
     12  0.000000D+00  0.000000D+00 -0.826951D-02  0.000000D+00  0.000000D+00
     13  0.179875D-01  0.311552D-01  0.000000D+00  0.000000D+00  0.000000D+00
     14  0.000000D+00  0.000000D+00  0.000000D+00  0.000000D+00  0.000000D+00
     15  0.000000D+00  0.000000D+00  0.125236D-01  0.000000D+00  0.000000D+00
     16 -0.394252D+00  0.116002D+00  0.000000D+00 -0.899373D-02  0.155776D-01
     17  0.127721D+00 -0.253538D+00  0.000000D+00 -0.155776D-01  0.269812D-01
     18  0.000000D+00  0.000000D+00 -0.944686D-01  0.000000D+00  0.000000D+00
     19 -0.103318D+00  0.000000D+00  0.000000D+00  0.146043D-01 -0.252955D-01
     20  0.000000D+00 -0.337252D+00  0.000000D+00  0.000000D+00  0.000000D+00
     21  0.000000D+00  0.000000D+00 -0.639604D-01  0.000000D+00  0.000000D+00
     22 -0.730217D-02  0.126477D-01  0.000000D+00 -0.278769D+00  0.101296D+00
     23 -0.126477D-01  0.219065D-01  0.000000D+00  0.101296D+00 -0.161802D+00
     24  0.000000D+00  0.000000D+00  0.148694D-01  0.000000D+00  0.000000D+00
     25  0.000000D+00  0.000000D+00  0.000000D+00  0.146043D-01  0.000000D+00
     26  0.000000D+00  0.000000D+00  0.000000D+00 -0.252955D-01  0.000000D+00
     27  0.000000D+00  0.000000D+00  0.524544D-02  0.000000D+00  0.000000D+00
     28  0.000000D+00  0.000000D+00  0.000000D+00  0.000000D+00  0.000000D+00
     29  0.000000D+00  0.000000D+00  0.000000D+00  0.000000D+00  0.000000D+00
     30  0.000000D+00  0.000000D+00  0.000000D+00  0.000000D+00  0.000000D+00
     31  0.000000D+00  0.000000D+00  0.000000D+00  0.000000D+00  0.000000D+00
     32  0.000000D+00  0.000000D+00  0.000000D+00  0.000000D+00  0.000000D+00
     33  0.000000D+00  0.000000D+00  0.524544D-02  0.000000D+00  0.000000D+00
     34 -0.730217D-02 -0.126477D-01  0.000000D+00  0.000000D+00  0.000000D+00
     35  0.126477D-01  0.219065D-01  0.000000D+00  0.000000D+00  0.000000D+00
     36  0.000000D+00  0.000000D+00  0.148694D-01  0.000000D+00  0.000000D+00
                6             7             8             9            10 
      6  0.195890D+00
      7  0.000000D+00  0.818000D+00
      8  0.000000D+00 -0.302831D-01  0.852968D+00
      9 -0.944686D-01  0.000000D+00  0.000000D+00  0.195890D+00
     10  0.000000D+00 -0.394252D+00  0.127721D+00  0.000000D+00  0.870452D+00
     11  0.000000D+00  0.116002D+00 -0.253538D+00  0.000000D+00  0.000000D+00
     12  0.125236D-01  0.000000D+00  0.000000D+00 -0.944686D-01  0.000000D+00
     13  0.000000D+00 -0.899373D-02 -0.155776D-01  0.000000D+00 -0.394252D+00
     14  0.000000D+00  0.155776D-01  0.269812D-01  0.000000D+00 -0.127721D+00
     15 -0.826951D-02  0.000000D+00  0.000000D+00  0.125236D-01  0.000000D+00
     16  0.000000D+00  0.000000D+00  0.000000D+00  0.000000D+00  0.179875D-01
     17  0.000000D+00  0.000000D+00  0.000000D+00  0.000000D+00  0.000000D+00
     18  0.125236D-01  0.000000D+00  0.000000D+00 -0.826951D-02  0.000000D+00
     19  0.000000D+00  0.000000D+00  0.000000D+00  0.000000D+00  0.000000D+00
     20  0.000000D+00  0.000000D+00  0.000000D+00  0.000000D+00  0.000000D+00
     21  0.148694D-01  0.000000D+00  0.000000D+00  0.524544D-02  0.000000D+00
     22  0.000000D+00  0.146043D-01  0.000000D+00  0.000000D+00  0.000000D+00
     23  0.000000D+00  0.252955D-01  0.000000D+00  0.000000D+00  0.000000D+00
     24 -0.639604D-01  0.000000D+00  0.000000D+00  0.148694D-01  0.000000D+00
     25  0.000000D+00 -0.278769D+00 -0.101296D+00  0.000000D+00 -0.730217D-02
     26  0.000000D+00 -0.101296D+00 -0.161802D+00  0.000000D+00  0.126477D-01
     27  0.148694D-01  0.000000D+00  0.000000D+00 -0.639604D-01  0.000000D+00
     28  0.000000D+00  0.146043D-01  0.252955D-01  0.000000D+00 -0.103318D+00
     29  0.000000D+00  0.000000D+00  0.000000D+00  0.000000D+00  0.000000D+00
     30  0.524544D-02  0.000000D+00  0.000000D+00  0.148694D-01  0.000000D+00
     31  0.000000D+00  0.000000D+00  0.000000D+00  0.000000D+00 -0.730217D-02
     32  0.000000D+00  0.000000D+00  0.000000D+00  0.000000D+00 -0.126477D-01
     33  0.000000D+00  0.000000D+00  0.000000D+00  0.524544D-02  0.000000D+00
     34  0.000000D+00  0.000000D+00  0.000000D+00  0.000000D+00  0.000000D+00
     35  0.000000D+00  0.000000D+00  0.000000D+00  0.000000D+00  0.000000D+00
     36  0.524544D-02  0.000000D+00  0.000000D+00  0.000000D+00  0.000000D+00
               11            12            13            14            15 
     11  0.800516D+00
     12  0.000000D+00  0.195890D+00
     13 -0.116002D+00  0.000000D+00  0.818000D+00
     14 -0.253538D+00  0.000000D+00  0.302831D-01  0.852968D+00
     15  0.000000D+00 -0.944686D-01  0.000000D+00  0.000000D+00  0.195890D+00
     16 -0.311552D-01  0.000000D+00 -0.183181D+00  0.585971D-02  0.000000D+00
     17  0.000000D+00  0.000000D+00 -0.585971D-02 -0.464609D+00  0.000000D+00
     18  0.000000D+00  0.125236D-01  0.000000D+00  0.000000D+00 -0.944686D-01
     19  0.000000D+00  0.000000D+00  0.000000D+00  0.000000D+00  0.000000D+00
     20  0.000000D+00  0.000000D+00  0.000000D+00  0.000000D+00  0.000000D+00
     21  0.000000D+00  0.000000D+00  0.000000D+00  0.000000D+00  0.524544D-02
     22  0.000000D+00  0.000000D+00  0.000000D+00  0.000000D+00  0.000000D+00
     23  0.000000D+00  0.000000D+00  0.000000D+00  0.000000D+00  0.000000D+00
     24  0.000000D+00  0.524544D-02  0.000000D+00  0.000000D+00  0.000000D+00
     25 -0.126477D-01  0.000000D+00  0.000000D+00  0.000000D+00  0.000000D+00
     26  0.219065D-01  0.000000D+00  0.000000D+00  0.000000D+00  0.000000D+00
     27  0.000000D+00  0.148694D-01  0.000000D+00  0.000000D+00  0.524544D-02
     28  0.000000D+00  0.000000D+00  0.146043D-01 -0.252955D-01  0.000000D+00
     29 -0.337252D+00  0.000000D+00  0.000000D+00  0.000000D+00  0.000000D+00
     30  0.000000D+00 -0.639604D-01  0.000000D+00  0.000000D+00  0.148694D-01
     31  0.126477D-01  0.000000D+00 -0.278769D+00  0.101296D+00  0.000000D+00
     32  0.219065D-01  0.000000D+00  0.101296D+00 -0.161802D+00  0.000000D+00
     33  0.000000D+00  0.148694D-01  0.000000D+00  0.000000D+00 -0.639604D-01
     34  0.000000D+00  0.000000D+00  0.146043D-01  0.000000D+00  0.000000D+00
     35  0.000000D+00  0.000000D+00 -0.252955D-01  0.000000D+00  0.000000D+00
     36  0.000000D+00  0.524544D-02  0.000000D+00  0.000000D+00  0.148694D-01
               16            17            18            19            20 
     16  0.818000D+00
     17 -0.302831D-01  0.852968D+00
     18  0.000000D+00  0.000000D+00  0.195890D+00
     19  0.146043D-01  0.252955D-01  0.000000D+00  0.741096D-01
     20  0.000000D+00  0.000000D+00  0.000000D+00  0.000000D+00  0.337252D+00
     21  0.000000D+00  0.000000D+00  0.148694D-01  0.000000D+00  0.000000D+00
     22  0.000000D+00  0.000000D+00  0.000000D+00  0.000000D+00  0.000000D+00
     23  0.000000D+00  0.000000D+00  0.000000D+00  0.000000D+00  0.000000D+00
     24  0.000000D+00  0.000000D+00  0.524544D-02  0.000000D+00  0.000000D+00
     25  0.000000D+00  0.000000D+00  0.000000D+00  0.000000D+00  0.000000D+00
     26  0.000000D+00  0.000000D+00  0.000000D+00  0.000000D+00  0.000000D+00
     27  0.000000D+00  0.000000D+00  0.000000D+00  0.000000D+00  0.000000D+00
     28  0.000000D+00  0.000000D+00  0.000000D+00  0.000000D+00  0.000000D+00
     29  0.000000D+00  0.000000D+00  0.000000D+00  0.000000D+00  0.000000D+00
     30  0.000000D+00  0.000000D+00  0.524544D-02  0.000000D+00  0.000000D+00
     31  0.146043D-01  0.000000D+00  0.000000D+00  0.000000D+00  0.000000D+00
     32  0.252955D-01  0.000000D+00  0.000000D+00  0.000000D+00  0.000000D+00
     33  0.000000D+00  0.000000D+00  0.148694D-01  0.000000D+00  0.000000D+00
     34 -0.278769D+00 -0.101296D+00  0.000000D+00  0.000000D+00  0.000000D+00
     35 -0.101296D+00 -0.161802D+00  0.000000D+00  0.000000D+00  0.000000D+00
     36  0.000000D+00  0.000000D+00 -0.639604D-01  0.000000D+00  0.000000D+00
               21            22            23            24            25 
     21  0.370396D-01
     22  0.000000D+00  0.271467D+00
     23  0.000000D+00 -0.113944D+00  0.139895D+00
     24 -0.665449D-02  0.000000D+00  0.000000D+00  0.370396D-01
     25  0.000000D+00  0.000000D+00  0.000000D+00  0.000000D+00  0.271467D+00
     26  0.000000D+00  0.000000D+00  0.000000D+00  0.000000D+00  0.113944D+00
     27  0.000000D+00  0.000000D+00  0.000000D+00 -0.665449D-02  0.000000D+00
     28  0.000000D+00  0.000000D+00  0.000000D+00  0.000000D+00  0.000000D+00
     29  0.000000D+00  0.000000D+00  0.000000D+00  0.000000D+00  0.000000D+00
     30  0.000000D+00  0.000000D+00  0.000000D+00  0.000000D+00  0.000000D+00
     31  0.000000D+00  0.000000D+00  0.000000D+00  0.000000D+00  0.000000D+00
     32  0.000000D+00  0.000000D+00  0.000000D+00  0.000000D+00  0.000000D+00
     33  0.000000D+00  0.000000D+00  0.000000D+00  0.000000D+00  0.000000D+00
     34  0.000000D+00  0.000000D+00  0.000000D+00  0.000000D+00  0.000000D+00
     35  0.000000D+00  0.000000D+00  0.000000D+00  0.000000D+00  0.000000D+00
     36 -0.665449D-02  0.000000D+00  0.000000D+00  0.000000D+00  0.000000D+00
               26            27            28            29            30 
     26  0.139895D+00
     27  0.000000D+00  0.370396D-01
     28  0.000000D+00  0.000000D+00  0.741096D-01
     29  0.000000D+00  0.000000D+00  0.000000D+00  0.337252D+00
     30  0.000000D+00 -0.665449D-02  0.000000D+00  0.000000D+00  0.370396D-01
     31  0.000000D+00  0.000000D+00  0.000000D+00  0.000000D+00  0.000000D+00
     32  0.000000D+00  0.000000D+00  0.000000D+00  0.000000D+00  0.000000D+00
     33  0.000000D+00  0.000000D+00  0.000000D+00  0.000000D+00 -0.665449D-02
     34  0.000000D+00  0.000000D+00  0.000000D+00  0.000000D+00  0.000000D+00
     35  0.000000D+00  0.000000D+00  0.000000D+00  0.000000D+00  0.000000D+00
     36  0.000000D+00  0.000000D+00  0.000000D+00  0.000000D+00  0.000000D+00
               31            32            33            34            35 
     31  0.271467D+00
     32 -0.113944D+00  0.139895D+00
     33  0.000000D+00  0.000000D+00  0.370396D-01
     34  0.000000D+00  0.000000D+00  0.000000D+00  0.271467D+00
     35  0.000000D+00  0.000000D+00  0.000000D+00  0.113944D+00  0.139895D+00
     36  0.000000D+00  0.000000D+00 -0.665449D-02  0.000000D+00  0.000000D+00
               36 
     36  0.370396D-01
 Leave Link  716 at Wed Nov 19 18:21:41 2025, MaxMem=   104857600 cpu:               0.1 elap:               0.1
 (Enter /gaussian/g16.c01/intel64-sandybridge/g16/l103.exe)

 GradGradGradGradGradGradGradGradGradGradGradGradGradGradGradGradGradGrad
 Berny optimization.
 Search for a local minimum.
 Step number   1 out of a maximum of    2
 All quantities printed in internal units (Hartrees-Bohrs-Radians)
 Second derivative matrix not updated -- first step.
 ITU=  0
     Eigenvalues ---    0.01584   0.01584   0.03240   0.04034   0.06693
     Eigenvalues ---    0.06693   0.06863   0.06863   0.07018   0.09485
     Eigenvalues ---    0.09485   0.10536   0.10536   0.16004   0.18068
     Eigenvalues ---    0.25697   0.29742   0.29742   0.39451   0.39451
     Eigenvalues ---    0.43609   0.66204   0.66204   0.97907   1.06367
     Eigenvalues ---    1.20543   1.20543   1.47187   1.57458   1.57458
 Angle between quadratic step and forces=  35.98 degrees.
 ClnCor:  largest displacement from symmetrization is 2.24D-13 for atom     8.
 Linear search not attempted -- first point.
 ClnCor:  largest displacement from symmetrization is 8.88D-16 for atom     8.
 B after Tr=    -0.000000    0.000000   -0.000000
         Rot=    1.000000    0.000000    0.000000   -0.000000 Ang=   0.00 deg.
 Variable       Old X    -DE/DX   Delta X   Delta X   Delta X     New X
                                 (Linear)    (Quad)   (Total)
    X1       -0.00000  -0.00000   0.00000   0.00000   0.00000  -0.00000
    Y1        2.63615   0.00477   0.00000  -0.02194  -0.02194   2.61421
    Z1        0.00000   0.00000   0.00000  -0.00000  -0.00000  -0.00000
    X2       -2.28297  -0.00413   0.00000   0.01900   0.01900  -2.26398
    Y2        1.31808   0.00238   0.00000  -0.01097  -0.01097   1.30711
    Z2       -0.00000   0.00000   0.00000   0.00000  -0.00000  -0.00000
    X3       -2.28297  -0.00413   0.00000   0.01900   0.01900  -2.26398
    Y3       -1.31808  -0.00238   0.00000   0.01097   0.01097  -1.30711
    Z3       -0.00000   0.00000   0.00000   0.00000  -0.00000  -0.00000
    X4        0.00000   0.00000   0.00000  -0.00000  -0.00000   0.00000
    Y4       -2.63615  -0.00477   0.00000   0.02194   0.02194  -2.61421
    Z4        0.00000  -0.00000   0.00000  -0.00000   0.00000   0.00000
    X5        2.28297   0.00413   0.00000  -0.01900  -0.01900   2.26398
    Y5       -1.31808  -0.00238   0.00000   0.01097   0.01097  -1.30711
    Z5        0.00000  -0.00000   0.00000  -0.00000   0.00000   0.00000
    X6        2.28297   0.00413   0.00000  -0.01900  -0.01900   2.26398
    Y6        1.31808   0.00238   0.00000  -0.01097  -0.01097   1.30711
    Z6        0.00000  -0.00000   0.00000  -0.00000   0.00000   0.00000
    X7       -0.00000   0.00000   0.00000   0.00000   0.00000  -0.00000
    Y7        4.71411  -0.01496   0.00000  -0.06629  -0.06629   4.64783
    Z7        0.00000  -0.00000   0.00000   0.00000  -0.00000  -0.00000
    X8       -4.08254   0.01295   0.00000   0.05740   0.05740  -4.02514
    Y8        2.35706  -0.00748   0.00000  -0.03314  -0.03314   2.32391
    Z8       -0.00000  -0.00000   0.00000   0.00000  -0.00000  -0.00000
    X9       -4.08254   0.01295   0.00000   0.05740   0.05740  -4.02514
    Y9       -2.35706   0.00748   0.00000   0.03314   0.03314  -2.32391
    Z9       -0.00000   0.00000   0.00000   0.00000  -0.00000  -0.00000
   X10        0.00000  -0.00000   0.00000  -0.00000  -0.00000   0.00000
   Y10       -4.71411   0.01496   0.00000   0.06629   0.06629  -4.64783
   Z10        0.00000   0.00000   0.00000   0.00000   0.00000   0.00000
   X11        4.08254  -0.01295   0.00000  -0.05740  -0.05740   4.02514
   Y11       -2.35706   0.00748   0.00000   0.03314   0.03314  -2.32391
   Z11        0.00000   0.00000   0.00000  -0.00000   0.00000   0.00000
   X12        4.08254  -0.01295   0.00000  -0.05740  -0.05740   4.02514
   Y12        2.35706  -0.00748   0.00000  -0.03314  -0.03314   2.32391
   Z12        0.00000  -0.00000   0.00000  -0.00000   0.00000   0.00000
         Item               Value     Threshold  Converged?
 Maximum Force            0.014957     0.000450     NO 
 RMS     Force            0.006409     0.000300     NO 
 Maximum Displacement     0.066285     0.001800     NO 
 RMS     Displacement     0.028504     0.001200     NO 
 Predicted change in Energy=-2.660688D-03
 GradGradGradGradGradGradGradGradGradGradGradGradGradGradGradGradGradGrad

 Leave Link  103 at Wed Nov 19 18:21:41 2025, MaxMem=   104857600 cpu:               0.0 elap:               0.1
 (Enter /gaussian/g16.c01/intel64-sandybridge/g16/l9999.exe)
 Unable to Open any file for archive entry.
 1\1\GINC-THIOTIMOLINE-LARGE01\Force\RHF\STO-3G\C6H6\LCRISCI_VB\19-Nov-
 2025\0\\#p force hf/sto-3g\\title\\0,1\C,-0.0000000015,1.39499068,0.\C
 ,-1.2080973677,0.6974953387,0.\C,-1.2080973662,-0.6974953413,0.\C,0.00
 00000015,-1.39499068,0.\C,1.2080973677,-0.6974953387,0.\C,1.2080973662
 ,0.6974953413,0.\H,-0.0000000028,2.49460098,0.\H,-2.1603878224,1.24730
 04876,0.\H,-2.1603878196,-1.2473004924,0.\H,0.0000000028,-2.49460098,0
 .\H,2.1603878224,-1.2473004876,0.\H,2.1603878196,1.2473004924,0.\\Vers
 ion=ES64L-G16RevC.01\State=1-A1G\HF=-227.8894224\RMSD=4.240e-09\RMSF=6
 .409e-03\Dipole=0.,0.,0.\Quadrupole=0.9843252,0.9843252,-1.9686504,0.,
 0.,0.\PG=D06H [3C2'(H1C1.C1H1)]\\@
 The archive entry for this job was punched.


 IT CANNOT BE MY BEAUTY, FOR I HAVE NONE; AND IT CANNOT BE MY WIT,
 FOR HE HAS NOT ENOUGH TO KNOW THAT I HAVE ANY.
 -- CATHARINE SEDLEY, PUZZLED ABOUT WHY SHE WAS MISTRESS TO JAMES II
 Job cpu time:       0 days  0 hours  0 minutes  1.5 seconds.
 Elapsed time:       0 days  0 hours  0 minutes  2.5 seconds.
 File lengths (MBytes):  RWF=      5 Int=      0 D2E=      0 Chk=      1 Scr=      1
 Normal termination of Gaussian 16 at Wed Nov 19 18:21:41 2025.
