External Calculation                                                    
SP        RHF                                                         STO-3G              
Number of atoms                            I                7
Info1-9                                    I   N=           9
          21          16           0           0           0         110
           1           1           2
Full Title                                 C   N=           2
External Calculation    
Route                                      C   N=           2
#P hf/sto-3g scf=xqc    
Charge                                     I                0
Multiplicity                               I                1
Number of electrons                        I               22
Number of alpha electrons                  I               11
Number of beta electrons                   I               11
Number of basis functions                  I               19
Number of independent functions            I               19
Number of point charges in /Mol/           I                0
Number of translation vectors              I                0
Atomic numbers                             I   N=           7
           6           6           1           1           6           1
           1
Nuclear charges                            R   N=           7
  6.00000000E+00  6.00000000E+00  1.00000000E+00  1.00000000E+00  6.00000000E+00
  1.00000000E+00  1.00000000E+00
Current cartesian coordinates              R   N=          21
  0.00000000E+00  0.00000000E+00 -5.15379852E-04  0.00000000E+00  0.00000000E+00
 -2.55958250E+00  0.00000000E+00  1.74746029E+00 -3.57935712E+00 -2.14002164E-16
 -1.74746029E+00 -3.57935712E+00 -0.00000000E+00  0.00000000E+00  2.56044146E+00
  1.74746029E+00 -1.07001082E-16  3.57832636E+00 -1.74746029E+00  3.21003247E-16
  3.57832636E+00
Number of symbols in /Mol/                 I                0
Int Atom Types                             I   N=           7
           0           0           0           0           0           0
           0
Force Field                                I                0
Atom Types                                 C   N=           7
                                                            
                        
MM charges                                 R   N=           7
  0.00000000E+00  0.00000000E+00  0.00000000E+00  0.00000000E+00  0.00000000E+00
  0.00000000E+00  0.00000000E+00
Integer atomic weights                     I   N=           7
          12          12           1           1          12           1
           1
Real atomic weights                        R   N=           7
  1.20000000E+01  1.20000000E+01  1.00782504E+00  1.00782504E+00  1.20000000E+01
  1.00782504E+00  1.00782504E+00
Atom fragment info                         I   N=           7
           0           0           0           0           0           0
           0
Atom residue num                           I   N=           7
           0           0           0           0           0           0
           0
Nuclear spins                              I   N=           7
           0           0           1           1           0           1
           1
Nuclear ZEff                               R   N=           7
 -3.60000000E+00 -3.60000000E+00 -1.00000000E+00 -1.00000000E+00 -3.60000000E+00
 -1.00000000E+00 -1.00000000E+00
Nuclear ZNuc                               R   N=           7
  6.00000000E+00  6.00000000E+00  1.00000000E+00  1.00000000E+00  6.00000000E+00
  1.00000000E+00  1.00000000E+00
Nuclear QMom                               R   N=           7
  0.00000000E+00  0.00000000E+00  0.00000000E+00  0.00000000E+00  0.00000000E+00
  0.00000000E+00  0.00000000E+00
Nuclear GFac                               R   N=           7
  0.00000000E+00  0.00000000E+00  2.79284600E+00  2.79284600E+00  0.00000000E+00
  2.79284600E+00  2.79284600E+00
MicOpt                                     I   N=           7
          -1          -1          -1          -1          -1          -1
          -1
Number of residues                         I                0
Number of secondary structures             I                0
SymInf integers                            I   N=          26
           4           4           1           1           1          -1
          -1           1          -1           1           1           1
          -1           1           0           0           0           0
           0           0           0           0           0           0
           0           0
RotTr to input orientation                 R   N=          12
 -1.00000000E+00 -1.22464680E-16  0.00000000E+00 -1.22464680E-16  1.00000000E+00
  0.00000000E+00  0.00000000E+00  0.00000000E+00 -1.00000000E+00  0.00000000E+00
  0.00000000E+00 -5.15379852E-04
Number of contracted shells                I               10
Number of primitive shells                 I               30
Pure/Cartesian d shells                    I                0
Pure/Cartesian f shells                    I                0
Highest angular momentum                   I                1
Largest degree of contraction              I                3
Shell types                                I   N=          10
           0          -1           0          -1           0           0
           0          -1           0           0
Number of primitives per shell             I   N=          10
           3           3           3           3           3           3
           3           3           3           3
Shell to atom map                          I   N=          10
           1           1           2           2           3           4
           5           5           6           7
Primitive exponents                        R   N=          30
  7.16168373E+01  1.30450963E+01  3.53051216E+00  2.94124936E+00  6.83483096E-01
  2.22289916E-01  7.16168373E+01  1.30450963E+01  3.53051216E+00  2.94124936E+00
  6.83483096E-01  2.22289916E-01  3.42525091E+00  6.23913730E-01  1.68855404E-01
  3.42525091E+00  6.23913730E-01  1.68855404E-01  7.16168373E+01  1.30450963E+01
  3.53051216E+00  2.94124936E+00  6.83483096E-01  2.22289916E-01  3.42525091E+00
  6.23913730E-01  1.68855404E-01  3.42525091E+00  6.23913730E-01  1.68855404E-01
Contraction coefficients                   R   N=          30
  1.54328967E-01  5.35328142E-01  4.44634542E-01 -9.99672292E-02  3.99512826E-01
  7.00115469E-01  1.54328967E-01  5.35328142E-01  4.44634542E-01 -9.99672292E-02
  3.99512826E-01  7.00115469E-01  1.54328967E-01  5.35328142E-01  4.44634542E-01
  1.54328967E-01  5.35328142E-01  4.44634542E-01  1.54328967E-01  5.35328142E-01
  4.44634542E-01 -9.99672292E-02  3.99512826E-01  7.00115469E-01  1.54328967E-01
  5.35328142E-01  4.44634542E-01  1.54328967E-01  5.35328142E-01  4.44634542E-01
P(S=P) Contraction coefficients            R   N=          30
  0.00000000E+00  0.00000000E+00  0.00000000E+00  1.55916275E-01  6.07683719E-01
  3.91957393E-01  0.00000000E+00  0.00000000E+00  0.00000000E+00  1.55916275E-01
  6.07683719E-01  3.91957393E-01  0.00000000E+00  0.00000000E+00  0.00000000E+00
  0.00000000E+00  0.00000000E+00  0.00000000E+00  0.00000000E+00  0.00000000E+00
  0.00000000E+00  1.55916275E-01  6.07683719E-01  3.91957393E-01  0.00000000E+00
  0.00000000E+00  0.00000000E+00  0.00000000E+00  0.00000000E+00  0.00000000E+00
Coordinates of each shell                  R   N=          30
  0.00000000E+00  0.00000000E+00 -5.15379852E-04  0.00000000E+00  0.00000000E+00
 -5.15379852E-04  0.00000000E+00  0.00000000E+00 -2.55958250E+00  0.00000000E+00
  0.00000000E+00 -2.55958250E+00  0.00000000E+00  1.74746029E+00 -3.57935712E+00
 -2.14002164E-16 -1.74746029E+00 -3.57935712E+00  0.00000000E+00  0.00000000E+00
  2.56044146E+00  0.00000000E+00  0.00000000E+00  2.56044146E+00  1.74746029E+00
 -1.07001082E-16  3.57832636E+00 -1.74746029E+00  3.21003247E-16  3.57832636E+00
Num ILSW                                   I              100
ILSW                                       I   N=         100
           0           0           0           0           2           0
           0           0           0           0           0          -1
           5           0           0           0           0           0
           0           0           0           0           0           0
           1           0           0           0           0           0
           0           0      100000           0          -1           0
           0           0           0           0           0           0
           0           0           0           1           0           0
           0 -2000000000           1           0           0           0
           0           0           4          52           0           0
           0           0           0           0           0           0
           0           0           0           7           0           1
           0           0           0           0           0           0
           0           0           0           0           0           0
           0           0           0           0           0           0
           0           0           0           0           0           0
           0           0           0           0
Num RLSW                                   I               52
RLSW                                       R   N=          52
  1.00000000E+00  1.00000000E+00  1.00000000E+00  1.00000000E+00  1.00000000E+00
  0.00000000E+00  0.00000000E+00  1.00000000E+00  0.00000000E+00  0.00000000E+00
  0.00000000E+00  0.00000000E+00  1.00000000E+00  0.00000000E+00  0.00000000E+00
  0.00000000E+00  0.00000000E+00  1.00000000E+00  0.00000000E+00  0.00000000E+00
  0.00000000E+00  0.00000000E+00  1.00000000E+00  0.00000000E+00  0.00000000E+00
  0.00000000E+00  0.00000000E+00  1.00000000E+00  0.00000000E+00  0.00000000E+00
  0.00000000E+00  0.00000000E+00  1.00000000E+00  0.00000000E+00  0.00000000E+00
  0.00000000E+00  0.00000000E+00  0.00000000E+00  1.00000000E+00  1.00000000E+00
  0.00000000E+00  1.00000000E+00  0.00000000E+00  0.00000000E+00  0.00000000E+00
  0.00000000E+00  0.00000000E+00  0.00000000E+00  0.00000000E+00  0.00000000E+00
  0.00000000E+00  0.00000000E+00
MxBond                                     I                3
NBond                                      I   N=           7
           2           3           1           1           3           1
           1
IBond                                      I   N=          21
           2           5           0           1           3           4
           2           0           0           2           0           0
           1           6           7           5           0           0
           5           0           0
RBond                                      R   N=          21
  2.00000000E+00  2.00000000E+00  0.00000000E+00  2.00000000E+00  1.00000000E+00
  1.00000000E+00  1.00000000E+00  0.00000000E+00  0.00000000E+00  1.00000000E+00
  0.00000000E+00  0.00000000E+00  2.00000000E+00  1.00000000E+00  1.00000000E+00
  1.00000000E+00  0.00000000E+00  0.00000000E+00  1.00000000E+00  0.00000000E+00
  0.00000000E+00
Virial Ratio                               R      2.007167819178191E+00
SCF Energy                                 R     -1.144077497915091E+02
Total Energy                               R     -1.144077497915091E+02
RMS Density                                R      1.388019332262563E-09
Job Status                                 I                1
Nuclear derivative order                   I                0
External E-field                           R   N=          35
  0.00000000E+00  0.00000000E+00  0.00000000E+00  0.00000000E+00  0.00000000E+00
  0.00000000E+00  0.00000000E+00  0.00000000E+00  0.00000000E+00  0.00000000E+00
  0.00000000E+00  0.00000000E+00  0.00000000E+00  0.00000000E+00  0.00000000E+00
  0.00000000E+00  0.00000000E+00  0.00000000E+00  0.00000000E+00  0.00000000E+00
  0.00000000E+00  0.00000000E+00  0.00000000E+00  0.00000000E+00  0.00000000E+00
  0.00000000E+00  0.00000000E+00  0.00000000E+00  0.00000000E+00  0.00000000E+00
  0.00000000E+00  0.00000000E+00  0.00000000E+00  0.00000000E+00  0.00000000E+00
IOpCl                                      I                0
IROHF                                      I                0
Alpha Orbital Energies                     R   N=          19
 -1.10308949E+01 -1.10212998E+01 -1.10212140E+01 -9.92340032E-01 -8.88837257E-01
 -6.60766175E-01 -5.65013639E-01 -5.64806363E-01 -5.46546796E-01 -3.07174937E-01
 -3.06814958E-01  3.01531079E-01  3.01991919E-01  6.33345613E-01  7.03839269E-01
  7.50912747E-01  8.34423393E-01  8.35145738E-01  1.19900862E+00
Alpha MO coefficients                      R   N=         361
  9.91660130E-01  3.16743389E-02  0.00000000E+00  0.00000000E+00 -1.00791099E-05
  3.44048750E-02 -5.22780372E-03  0.00000000E+00  0.00000000E+00 -3.89448918E-03
 -3.34447028E-04 -3.34447028E-04  3.38302649E-02 -5.23203151E-03  0.00000000E+00
  0.00000000E+00  3.89204111E-03 -3.31778476E-04 -3.31778476E-04 -4.23369925E-02
 -1.07602786E-02  0.00000000E+00  0.00000000E+00  3.11096150E-03  9.44910372E-01
  3.47445145E-02  0.00000000E+00  0.00000000E+00  1.67953601E-03 -6.58723141E-03
 -6.58723141E-03  2.99656236E-01  1.11972769E-02  0.00000000E+00  0.00000000E+00
 -6.21681478E-04 -2.09262880E-03 -2.09262880E-03 -2.14628382E-02 -5.54477279E-03
  0.00000000E+00  0.00000000E+00 -6.00729576E-03 -3.00842802E-01 -1.08475090E-02
  0.00000000E+00  0.00000000E+00 -4.26473258E-04  2.09432858E-03  2.09432858E-03
  9.45308375E-01  3.46263963E-02  0.00000000E+00  0.00000000E+00 -1.60499581E-03
 -6.59268848E-03 -6.59268848E-03 -1.78860175E-01  4.68728843E-01  0.00000000E+00
  0.00000000E+00 -5.26408705E-04 -1.35787816E-01  3.69817695E-01  0.00000000E+00
  0.00000000E+00  9.55895359E-02  8.79202538E-02  8.79202538E-02 -1.35396610E-01
  3.68889350E-01  0.00000000E+00  0.00000000E+00 -9.52505733E-02  8.77687491E-02
  8.77687491E-02 -6.58188056E-05  2.45822610E-04  0.00000000E+00  0.00000000E+00
  2.92551201E-01  1.60901499E-01 -4.33562951E-01  0.00000000E+00  0.00000000E+00
 -1.35386160E-02 -1.44516840E-01 -1.44516840E-01 -1.61271522E-01  4.34685511E-01
  0.00000000E+00  0.00000000E+00 -1.34202497E-02  1.44998892E-01  1.44998892E-01
 -1.44760791E-01  4.51651873E-01  0.00000000E+00  0.00000000E+00 -1.36611254E-04
  6.90003437E-02 -2.20803776E-01  0.00000000E+00  0.00000000E+00  3.18831516E-01
 -2.12206233E-01 -2.12206233E-01  6.88653707E-02 -2.20205376E-01  0.00000000E+00
  0.00000000E+00 -3.18016121E-01 -2.11665204E-01 -2.11665204E-01  0.00000000E+00
  0.00000000E+00  1.83835990E-01  0.00000000E+00  0.00000000E+00  0.00000000E+00
  0.00000000E+00  8.89547003E-02  0.00000000E+00  0.00000000E+00  0.00000000E+00
  0.00000000E+00  0.00000000E+00  0.00000000E+00  5.40673392E-01  0.00000000E+00
  0.00000000E+00  3.85704260E-01 -3.85704260E-01  0.00000000E+00  0.00000000E+00
  0.00000000E+00  1.84206566E-01  0.00000000E+00  0.00000000E+00  0.00000000E+00
  0.00000000E+00  5.40691638E-01  0.00000000E+00  3.85648494E-01 -3.85648494E-01
  0.00000000E+00  0.00000000E+00  0.00000000E+00  8.90545363E-02  0.00000000E+00
  0.00000000E+00  0.00000000E+00 -1.89629159E-04  8.37114415E-04  0.00000000E+00
  0.00000000E+00  4.74970700E-01 -3.02514317E-05  3.28772623E-02  0.00000000E+00
  0.00000000E+00 -3.99591973E-01  1.87319910E-01  1.87319910E-01  1.61078838E-04
 -3.30635801E-02  0.00000000E+00  0.00000000E+00 -4.00185834E-01 -1.87607000E-01
 -1.87607000E-01  0.00000000E+00  0.00000000E+00  5.69759172E-01  0.00000000E+00
  0.00000000E+00  0.00000000E+00  0.00000000E+00  6.73769247E-01  0.00000000E+00
  0.00000000E+00  0.00000000E+00  0.00000000E+00  0.00000000E+00  0.00000000E+00
 -1.23012602E-01  0.00000000E+00  0.00000000E+00 -1.76664478E-01  1.76664478E-01
  0.00000000E+00  0.00000000E+00  0.00000000E+00  5.69639493E-01  0.00000000E+00
  0.00000000E+00  0.00000000E+00  0.00000000E+00 -1.23078757E-01  0.00000000E+00
 -1.77028607E-01  1.77028607E-01  0.00000000E+00  0.00000000E+00  0.00000000E+00
  6.73959942E-01  0.00000000E+00  0.00000000E+00  0.00000000E+00  0.00000000E+00
  0.00000000E+00  0.00000000E+00  7.92024501E-01  0.00000000E+00  0.00000000E+00
  0.00000000E+00  0.00000000E+00  1.19397774E-01  0.00000000E+00 -2.66656067E-01
  2.66656067E-01  0.00000000E+00  0.00000000E+00  0.00000000E+00 -7.56953521E-01
  0.00000000E+00  0.00000000E+00  0.00000000E+00  0.00000000E+00  0.00000000E+00
  7.92447434E-01  0.00000000E+00  0.00000000E+00  0.00000000E+00  0.00000000E+00
 -7.57320436E-01  0.00000000E+00  0.00000000E+00  0.00000000E+00  0.00000000E+00
  0.00000000E+00  0.00000000E+00  1.19124474E-01  0.00000000E+00  0.00000000E+00
 -2.66110554E-01  2.66110554E-01 -1.71929993E-01  1.10831976E+00  0.00000000E+00
  0.00000000E+00  5.17552618E-04  1.71995043E-01 -1.06123822E+00  0.00000000E+00
  0.00000000E+00 -2.60630360E-01  4.40196494E-01  4.40196494E-01  1.71598709E-01
 -1.05869303E+00  0.00000000E+00  0.00000000E+00  2.63481253E-01  4.37947912E-01
  4.37947912E-01  4.16571310E-04 -2.95980106E-03  0.00000000E+00  0.00000000E+00
 -1.25902067E-01  1.36337929E-01 -8.87118033E-01  0.00000000E+00  0.00000000E+00
  4.43249045E-01  6.46804222E-01  6.46804222E-01 -1.36965110E-01  8.91302387E-01
  0.00000000E+00  0.00000000E+00  4.40410251E-01 -6.47826145E-01 -6.47826145E-01
 -1.27686877E-01  9.26458137E-01  0.00000000E+00  0.00000000E+00  1.38063371E-03
 -3.04705558E-02  2.15842965E-01  0.00000000E+00  0.00000000E+00 -8.39553048E-01
 -4.78449369E-01 -4.78449369E-01 -3.05462428E-02  2.16727197E-01  0.00000000E+00
  0.00000000E+00  8.41890608E-01 -4.79821694E-01 -4.79821694E-01  0.00000000E+00
  0.00000000E+00  0.00000000E+00 -3.71727258E-01  0.00000000E+00  0.00000000E+00
  0.00000000E+00  0.00000000E+00  1.19241796E+00  0.00000000E+00 -8.53435095E-01
  8.53435095E-01  0.00000000E+00  0.00000000E+00  0.00000000E+00  1.52848083E-01
  0.00000000E+00  0.00000000E+00  0.00000000E+00  0.00000000E+00  0.00000000E+00
 -3.70791480E-01  0.00000000E+00  0.00000000E+00  0.00000000E+00  0.00000000E+00
  1.52627788E-01  0.00000000E+00  0.00000000E+00  0.00000000E+00  0.00000000E+00
  0.00000000E+00  0.00000000E+00  1.19308516E+00  0.00000000E+00  0.00000000E+00
 -8.54262172E-01  8.54262172E-01  3.49100571E-04 -3.57549135E-03  0.00000000E+00
  0.00000000E+00  1.48480224E+00 -9.44811820E-02  7.72758172E-01  0.00000000E+00
  0.00000000E+00  8.11457665E-01  1.53298839E-02  1.53298839E-02  9.42731655E-02
 -7.70128220E-01  0.00000000E+00  0.00000000E+00  8.08111746E-01 -1.46985360E-02
 -1.46985360E-02
Orthonormal basis                          R   N=         361
  1.05652000E-01  3.40831694E-01  0.00000000E+00  0.00000000E+00 -3.72798160E-04
  9.54206921E-02  3.00298509E-01  0.00000000E+00  0.00000000E+00  7.29822031E-02
  1.75883702E-01  1.75883702E-01  9.52401031E-02  2.99781356E-01  0.00000000E+00
  0.00000000E+00 -7.28377016E-02  1.75686406E-01  1.75686406E-01  3.75069930E-05
  1.52537017E-04  0.00000000E+00  0.00000000E+00  3.11067475E-01 -1.08982047E-01
 -3.03937641E-01  0.00000000E+00  0.00000000E+00  1.19490745E-02 -2.01995790E-01
 -2.01995790E-01  1.09135953E-01  3.04461626E-01  0.00000000E+00  0.00000000E+00
  1.18626470E-02  2.02385180E-01  2.02385180E-01  1.88130449E-01  3.27643140E-01
  0.00000000E+00  0.00000000E+00 -1.82845753E-04 -4.51704319E-02 -7.80546276E-02
  0.00000000E+00  0.00000000E+00  3.88492247E-01 -1.88899379E-01 -1.88899379E-01
 -4.52272211E-02 -7.80745868E-02  0.00000000E+00  0.00000000E+00 -3.87737719E-01
 -1.88492842E-01 -1.88492842E-01  1.93754026E-04  4.21723049E-04  0.00000000E+00
  0.00000000E+00  4.48827270E-01 -1.97711219E-02 -7.81304426E-04  0.00000000E+00
  0.00000000E+00 -4.31378269E-01  1.65756120E-01  1.65756120E-01  1.95928873E-02
  7.53164192E-04  0.00000000E+00  0.00000000E+00 -4.32215716E-01 -1.65845963E-01
 -1.65845963E-01  5.56853888E-01  5.25706960E-02  0.00000000E+00  0.00000000E+00
 -4.90759348E-06 -5.56738100E-01 -3.78482814E-02  0.00000000E+00  0.00000000E+00
 -1.30962640E-01  1.01295103E-01  1.01295103E-01 -5.56292888E-01 -3.78563237E-02
  0.00000000E+00  0.00000000E+00  1.31289612E-01  1.01197646E-01  1.01197646E-01
  2.74670606E-04 -6.49816933E-05  0.00000000E+00  0.00000000E+00 -1.66310895E-01
 -6.96106712E-01  2.27652934E-02  0.00000000E+00  0.00000000E+00  2.78790541E-02
  1.07461606E-01  1.07461606E-01  6.96926814E-01 -2.28500100E-02  0.00000000E+00
  0.00000000E+00  2.78423931E-02 -1.07623111E-01 -1.07623111E-01  8.00825894E-01
 -1.38275256E-01  0.00000000E+00  0.00000000E+00  2.18717610E-04  4.15388122E-01
 -7.81227993E-02  0.00000000E+00  0.00000000E+00 -1.66115494E-01 -6.47881750E-02
 -6.47881750E-02  4.14616708E-01 -7.80360580E-02  0.00000000E+00  0.00000000E+00
  1.66025846E-01 -6.47296729E-02 -6.47296729E-02  1.58230141E-03 -6.69525369E-03
  0.00000000E+00  0.00000000E+00 -6.72024956E-01 -1.09935151E-01  4.07886977E-01
  0.00000000E+00  0.00000000E+00 -7.69532921E-01 -5.56508879E-01 -5.56508879E-01
  1.09943578E-01 -4.08986540E-01  0.00000000E+00  0.00000000E+00 -7.78798545E-01
  5.61227219E-01  5.61227219E-01 -1.69753001E-01  8.13045434E-01  0.00000000E+00
  0.00000000E+00 -1.72812835E-03 -9.33472259E-02  4.12986480E-01  0.00000000E+00
  0.00000000E+00 -7.56254623E-01 -5.40305961E-01 -5.40305961E-01 -9.14305322E-02
  4.05543479E-01  0.00000000E+00  0.00000000E+00  7.48615726E-01 -5.33261061E-01
 -5.33261061E-01 -2.40142273E-01  1.26687399E+00  0.00000000E+00  0.00000000E+00
  6.09074417E-03  2.08865953E-01 -1.03396404E+00  0.00000000E+00  0.00000000E+00
 -3.44109265E-01  3.22348271E-01  3.22348271E-01  2.11667752E-01 -1.04917834E+00
  0.00000000E+00  0.00000000E+00  3.46079976E-01  3.28555452E-01  3.28555452E-01
  1.71655874E-03 -1.03918192E-02  0.00000000E+00  0.00000000E+00  1.32446011E+00
 -1.91710188E-01  1.15332654E+00  0.00000000E+00  0.00000000E+00  4.77345031E-01
 -2.89167694E-01 -2.89167694E-01  1.89522242E-01 -1.14108183E+00  0.00000000E+00
  0.00000000E+00  4.69961705E-01  2.87282004E-01  2.87282004E-01  0.00000000E+00
  0.00000000E+00  3.17906246E-01  0.00000000E+00  0.00000000E+00  0.00000000E+00
  0.00000000E+00  1.34314005E-01  0.00000000E+00  0.00000000E+00  0.00000000E+00
  0.00000000E+00  0.00000000E+00  0.00000000E+00  5.46590403E-01  0.00000000E+00
  0.00000000E+00  3.17718674E-01 -3.17718674E-01  0.00000000E+00  0.00000000E+00
  5.03661459E-01  0.00000000E+00  0.00000000E+00  0.00000000E+00  0.00000000E+00
  6.88229087E-01  0.00000000E+00  0.00000000E+00  0.00000000E+00  0.00000000E+00
  0.00000000E+00  0.00000000E+00 -2.31197790E-01  0.00000000E+00  0.00000000E+00
 -1.98580453E-01  1.98580453E-01  0.00000000E+00  0.00000000E+00  8.33164010E-01
  0.00000000E+00  0.00000000E+00  0.00000000E+00  0.00000000E+00 -7.48681072E-01
  0.00000000E+00  0.00000000E+00  0.00000000E+00  0.00000000E+00  0.00000000E+00
  0.00000000E+00 -6.39788573E-02  0.00000000E+00  0.00000000E+00 -2.03544000E-01
  2.03544000E-01  0.00000000E+00  0.00000000E+00  2.73822805E-01  0.00000000E+00
  0.00000000E+00  0.00000000E+00  0.00000000E+00 -8.05266767E-02  0.00000000E+00
  0.00000000E+00  0.00000000E+00  0.00000000E+00  0.00000000E+00  0.00000000E+00
 -1.17847184E+00  0.00000000E+00  0.00000000E+00  8.93726629E-01 -8.93726629E-01
  0.00000000E+00  0.00000000E+00  0.00000000E+00  3.18257352E-01  0.00000000E+00
  0.00000000E+00  0.00000000E+00  0.00000000E+00  5.46609312E-01  0.00000000E+00
  3.17598620E-01 -3.17598620E-01  0.00000000E+00  0.00000000E+00  0.00000000E+00
  1.34268146E-01  0.00000000E+00  0.00000000E+00  0.00000000E+00  0.00000000E+00
  0.00000000E+00  0.00000000E+00  5.03317516E-01  0.00000000E+00  0.00000000E+00
  0.00000000E+00  0.00000000E+00 -2.31224626E-01  0.00000000E+00 -1.98768384E-01
  1.98768384E-01  0.00000000E+00  0.00000000E+00  0.00000000E+00  6.88638118E-01
  0.00000000E+00  0.00000000E+00  0.00000000E+00  0.00000000E+00  0.00000000E+00
  0.00000000E+00  8.32997923E-01  0.00000000E+00  0.00000000E+00  0.00000000E+00
  0.00000000E+00 -6.40542220E-02  0.00000000E+00 -2.04096404E-01  2.04096404E-01
  0.00000000E+00  0.00000000E+00  0.00000000E+00 -7.48156646E-01  0.00000000E+00
  0.00000000E+00  0.00000000E+00  0.00000000E+00  0.00000000E+00  0.00000000E+00
  2.74596743E-01  0.00000000E+00  0.00000000E+00  0.00000000E+00  0.00000000E+00
 -1.17782118E+00  0.00000000E+00  8.93021675E-01 -8.93021675E-01  0.00000000E+00
  0.00000000E+00  0.00000000E+00 -8.06543524E-02  0.00000000E+00  0.00000000E+00
  0.00000000E+00
Total SCF Density                          R   N=         190
  2.07717915E+00 -2.34467674E-01  8.49693391E-01  0.00000000E+00  0.00000000E+00
  7.16842370E-01  0.00000000E+00  0.00000000E+00  0.00000000E+00  7.16842422E-01
 -1.63286941E-05  3.21183751E-04  0.00000000E+00  0.00000000E+00  6.22458865E-01
  2.97162469E-02 -7.97072918E-02  0.00000000E+00  0.00000000E+00  1.03732193E-01
  2.06726874E+00 -8.11639811E-02  1.46118846E-01  0.00000000E+00  0.00000000E+00
 -2.22429662E-01 -1.98600423E-01  7.51858724E-01  0.00000000E+00  0.00000000E+00
  8.00478567E-01  9.24446373E-33  0.00000000E+00  0.00000000E+00  0.00000000E+00
  9.23755873E-01  0.00000000E+00  0.00000000E+00  9.24446373E-33  5.89768581E-02
  0.00000000E+00  0.00000000E+00  0.00000000E+00  6.16297582E-33  6.14991656E-01
 -1.34197522E-01  3.76659057E-01  0.00000000E+00  0.00000000E+00 -3.87682533E-01
  1.68692349E-02 -8.44656163E-02  0.00000000E+00  0.00000000E+00  5.41332208E-01
  2.97399528E-02 -1.08925253E-01  7.70371978E-34 -5.96070024E-02  9.32850616E-02
 -1.13410717E-01  2.95872554E-01 -6.16297582E-33  4.60610754E-01 -2.64318815E-01
  5.77694201E-01  2.97399528E-02 -1.08925253E-01 -7.70371978E-34  5.96070024E-02
  9.32850616E-02 -1.13410717E-01  2.95872554E-01  6.16297582E-33 -4.60610754E-01
 -2.64318815E-01 -1.42561354E-01  5.77694201E-01  2.96624404E-02 -7.95899707E-02
  0.00000000E+00  0.00000000E+00 -1.03577345E-01 -5.77779881E-03  9.25833644E-03
  0.00000000E+00  0.00000000E+00  2.22027239E-02 -6.37314838E-03 -6.37314838E-03
  2.06725896E+00 -8.10609733E-02  1.46107766E-01  0.00000000E+00  0.00000000E+00
  2.22252617E-01  9.28187623E-03 -8.93159923E-03  0.00000000E+00  0.00000000E+00
 -5.51902718E-02  2.02989301E-02  2.02989301E-02 -1.98615314E-01  7.51932389E-01
  0.00000000E+00  0.00000000E+00  5.86153399E-02 -6.16297582E-33  0.00000000E+00
  0.00000000E+00  0.00000000E+00 -6.95733370E-02 -3.85185989E-34  0.00000000E+00
  1.54074396E-33 -1.54074396E-33  0.00000000E+00  0.00000000E+00  6.14919634E-01
  0.00000000E+00  0.00000000E+00 -6.16297582E-33  8.00637261E-01  0.00000000E+00
  0.00000000E+00  0.00000000E+00 -3.85185989E-34 -6.95982183E-02  0.00000000E+00
 -1.69932884E-01  1.69932884E-01  0.00000000E+00  0.00000000E+00 -6.16297582E-33
  9.24305429E-01  1.34139839E-01 -3.76957403E-01  0.00000000E+00  0.00000000E+00
 -3.87802804E-01 -2.22545261E-02  5.52615694E-02  0.00000000E+00  0.00000000E+00
  9.91574032E-02 -2.78266834E-02 -2.78266834E-02 -1.69513773E-02  8.44140519E-02
  0.00000000E+00  0.00000000E+00  5.41107680E-01  2.97392052E-02 -1.09064165E-01
 -5.94997647E-02 -7.70371978E-34 -9.33448341E-02 -6.38416539E-03  2.03226037E-02
 -1.69441771E-01 -2.31111593E-33  2.78159849E-02 -6.92778705E-03 -6.92778705E-03
 -1.13489645E-01  2.95937345E-01  4.60543975E-01  6.16297582E-33  2.64190513E-01
  5.77505288E-01  2.97392052E-02 -1.09064165E-01  5.94997647E-02  7.70371978E-34
 -9.33448341E-02 -6.38416539E-03  2.03226037E-02  1.69441771E-01  2.31111593E-33
  2.78159849E-02 -6.92778705E-03 -6.92778705E-03 -1.13489645E-01  2.95937345E-01
 -4.60543975E-01 -6.16297582E-33  2.64190513E-01 -1.42407168E-01  5.77505288E-01
Mulliken Charges                           R   N=           7
  3.54278014E-02 -1.72923435E-01  7.75993416E-02  7.75993416E-02 -1.72985385E-01
  7.76411680E-02  7.76411680E-02
ONIOM Charges                              I   N=          16
           0           0           0           0           0           0
           0           0           0           0           0           0
           0           0           0           0
ONIOM Multiplicities                       I   N=          16
           1           0           0           0           0           0
           0           0           0           0           0           0
           0           0           0           0
Atom Layers                                I   N=           7
           1           1           1           1           1           1
           1
Atom Modifiers                             I   N=           7
           0           0           0           0           0           0
           0
Int Atom Modified Types                    I   N=           7
           0           0           0           0           0           0
           0
Force Field                                I                0
Atom Modified Types                        C   N=           7
                                                            
                        
Link Atoms                                 I   N=           7
           0           0           0           0           0           0
           0
Atom Modified MM Charges                   R   N=           7
  0.00000000E+00  0.00000000E+00  0.00000000E+00  0.00000000E+00  0.00000000E+00
  0.00000000E+00  0.00000000E+00
Link Distances                             R   N=          28
  0.00000000E+00  0.00000000E+00  0.00000000E+00  0.00000000E+00  0.00000000E+00
  0.00000000E+00  0.00000000E+00  0.00000000E+00  0.00000000E+00  0.00000000E+00
  0.00000000E+00  0.00000000E+00  0.00000000E+00  0.00000000E+00  0.00000000E+00
  0.00000000E+00  0.00000000E+00  0.00000000E+00  0.00000000E+00  0.00000000E+00
  0.00000000E+00  0.00000000E+00  0.00000000E+00  0.00000000E+00  0.00000000E+00
  0.00000000E+00  0.00000000E+00  0.00000000E+00
Cartesian Gradient                         R   N=          21
  0.00000000E+00  0.00000000E+00  0.00000000E+00  0.00000000E+00  0.00000000E+00
  0.00000000E+00  0.00000000E+00  0.00000000E+00  0.00000000E+00  0.00000000E+00
  0.00000000E+00  0.00000000E+00  0.00000000E+00  0.00000000E+00  0.00000000E+00
  0.00000000E+00  0.00000000E+00  0.00000000E+00  0.00000000E+00  0.00000000E+00
  0.00000000E+00
Nonadiabatic coupling                      R   N=          21
  0.00000000E+00  0.00000000E+00  0.00000000E+00  0.00000000E+00  0.00000000E+00
  0.00000000E+00  0.00000000E+00  0.00000000E+00  0.00000000E+00  0.00000000E+00
  0.00000000E+00  0.00000000E+00  0.00000000E+00  0.00000000E+00  0.00000000E+00
  0.00000000E+00  0.00000000E+00  0.00000000E+00  0.00000000E+00  0.00000000E+00
  0.00000000E+00
Dipole Moment                              R   N=           3
  0.00000000E+00  9.52549216E-17 -5.52452927E-04
Quadrupole Moment                          R   N=           6
 -3.66635896E-01 -3.66893933E-01  7.33529829E-01 -4.45999922E-17 -1.18584613E-20
  3.40645020E-16
QEq coupling tensors                       R   N=          42
  2.24630709E-02 -2.15451305E-20  2.21989934E-02 -3.46944695E-18  1.17643758E-18
 -4.46620642E-02  3.57699367E-01  5.48698816E-17 -1.23976469E-01  3.33934269E-17
 -3.72253971E-19 -2.33722899E-01  1.86556165E-01  2.92734587E-18 -2.20876804E-01
  1.08420217E-18  2.30186358E-01  3.43206399E-02  1.86556165E-01 -8.18572640E-17
 -2.20876804E-01 -4.74880552E-17 -2.30186358E-01  3.43206399E-02 -1.24409865E-01
 -1.09806720E-16  3.58321293E-01  0.00000000E+00  3.35890459E-17 -2.33911428E-01
 -2.21932482E-01  3.60102264E-17  1.87166224E-01 -2.30735435E-01  2.54339952E-17
  3.47662571E-02 -2.21932482E-01  1.22476636E-16  1.87166224E-01  2.30735435E-01
 -7.21820174E-17  3.47662571E-02
ClPar MaxAn                                I              200
ClPar NIntPar                              I                4
ClPar NRealPar                             I               16
ClPar NBits                                I               30
ClPar LenBitVec                            I                1
ClPar Read BitMap                          I   N=         200
           0           0           0           0           0           0
           0           0           0           0           0           0
           0           0           0           0           0           0
           0           0           0           0           0           0
           0           0           0           0           0           0
           0           0           0           0           0           0
           0           0           0           0           0           0
           0           0           0           0           0           0
           0           0           0           0           0           0
           0           0           0           0           0           0
           0           0           0           0           0           0
           0           0           0           0           0           0
           0           0           0           0           0           0
           0           0           0           0           0           0
           0           0           0           0           0           0
           0           0           0           0           0           0
           0           0           0           0           0           0
           0           0           0           0           0           0
           0           0           0           0           0           0
           0           0           0           0           0           0
           0           0           0           0           0           0
           0           0           0           0           0           0
           0           0           0           0           0           0
           0           0           0           0           0           0
           0           0           0           0           0           0
           0           0           0           0           0           0
           0           0           0           0           0           0
           0           0           0           0           0           0
           0           0           0           0           0           0
           0           0           0           0           0           0
           0           0           0           0           0           0
           0           0           0           0           0           0
           0           0           0           0           0           0
           0           0
ClPar Default BitMap                       I   N=         200
        2016        2016        2016        2016        2016        2016
        2016        2016        2016        2016        2016        2016
        2016        2016        2016        2016        2016        2016
        2016        2016        2016        2016        2016        2016
        2016        2016        2016        2016        2016        2016
        2016        2016        2016        2016        2016        2016
        2016        2016        2016        2016        2016        2016
        2016        2016        2016        2016        2016        2016
        2016        2016        2016        2016        2016        2016
        2016        2016        2016        2016        2016        2016
        2016        2016        2016        2016        2016        2016
        2016        2016        2016        2016        2016        2016
        2016        2016        2016        2016        2016        2016
        2016        2016        2016        2016        2016        2016
        2016        2016         480         480         480         480
         480         480         480         480         480         480
         480         480         480         480         480         480
         480         480         480         480         480         480
         480         480         480         480         480         480
         480         480         480         480         480         480
         480         480         480         480         480         480
         480         480         480         480         480         480
         480         480         480         480         480         480
         480         480         480         480         480         480
         480         480         480         480         480         480
         480         480         480         480         480         480
         480         480         480         480         480         480
         480         480         480         480         480         480
         480         480         480         480         480         480
         480         480         480         480         480         480
         480         480         480         480         480         480
         480         480         480         480         480         480
         480         480         480         480         480         480
         480         480
ClPar Int Params                           I   N=         800
           0           0           0           0           0           0
           0           0           0           0           0           0
           0           0           0           0           0           0
           0           0           0           0           0           0
           0           0           0           0           0           0
           0           0           0           0           0           0
           0           0           0           0           0           0
           0           0           0           0           0           0
           0           0           0           0           0           0
           0           0           0           0           0           0
           0           0           0           0           0           0
           0           0           0           0           0           0
           0           0           0           0           0           0
           0           0           0           0           0           0
           0           0           0           0           0           0
           0           0           0           0           0           0
           0           0           0           0           0           0
           0           0           0           0           0           0
           0           0           0           0           0           0
           0           0           0           0           0           0
           0           0           0           0           0           0
           0           0           0           0           0           0
           0           0           0           0           0           0
           0           0           0           0           0           0
           0           0           0           0           0           0
           0           0           0           0           0           0
           0           0           0           0           0           0
           0           0           0           0           0           0
           0           0           0           0           0           0
           0           0           0           0           0           0
           0           0           0           0           0           0
           0           0           0           0           0           0
           0           0           0           0           0           0
           0           0           0           0           0           0
           0           0           0           0           0           0
           0           0           0           0           0           0
           0           0           0           0           0           0
           0           0           0           0           0           0
           0           0           0           0           0           0
           0           0           0           0           0           0
           0           0           0           0           0           0
           0           0           0           0           0           0
           0           0           0           0           0           0
           0           0           0           0           0           0
           0           0           0           0           0           0
           0           0           0           0           0           0
           0           0           0           0           0           0
           0           0           0           0           0           0
           0           0           0           0           0           0
           0           0           0           0           0           0
           0           0           0           0           0           0
           0           0           0           0           0           0
           0           0           0           0           0           0
           0           0           0           0           0           0
           0           0           0           0           0           0
           0           0           0           0           0           0
           0           0           0           0           0           0
           0           0           0           0           0           0
           0           0           0           0           0           0
           0           0           0           0           0           0
           0           0           0           0           0           0
           0           0           0           0           0           0
           0           0           0           0           0           0
           0           0           0           0           0           0
           0           0           0           0           0           0
           0           0           0           0           0           0
           0           0           0           0           0           0
           0           0           0           0           0           0
           0           0           0           0           0           0
           0           0           0           0           0           0
           0           0           0           0           0           0
           0           0           0           0           0           0
           0           0           0           0           0           0
           0           0           0           0           0           0
           0           0           0           0           0           0
           0           0           0           0           0           0
           0           0           0           0           0           0
           0           0           0           0           0           0
           0           0           0           0           0           0
           0           0           0           0           0           0
           0           0           0           0           0           0
           0           0           0           0           0           0
           0           0           0           0           0           0
           0           0           0           0           0           0
           0           0           0           0           0           0
           0           0           0           0           0           0
           0           0           0           0           0           0
           0           0           0           0           0           0
           0           0           0           0           0           0
           0           0           0           0           0           0
           0           0           0           0           0           0
           0           0           0           0           0           0
           0           0           0           0           0           0
           0           0           0           0           0           0
           0           0           0           0           0           0
           0           0           0           0           0           0
           0           0           0           0           0           0
           0           0           0           0           0           0
           0           0           0           0           0           0
           0           0           0           0           0           0
           0           0           0           0           0           0
           0           0           0           0           0           0
           0           0           0           0           0           0
           0           0           0           0           0           0
           0           0           0           0           0           0
           0           0           0           0           0           0
           0           0           0           0           0           0
           0           0           0           0           0           0
           0           0           0           0           0           0
           0           0           0           0           0           0
           0           0           0           0           0           0
           0           0           0           0           0           0
           0           0           0           0           0           0
           0           0           0           0           0           0
           0           0           0           0           0           0
           0           0           0           0           0           0
           0           0           0           0           0           0
           0           0           0           0           0           0
           0           0           0           0           0           0
           0           0           0           0           0           0
           0           0           0           0           0           0
           0           0           0           0           0           0
           0           0           0           0           0           0
           0           0           0           0           0           0
           0           0           0           0           0           0
           0           0           0           0           0           0
           0           0           0           0           0           0
           0           0           0           0           0           0
           0           0           0           0           0           0
           0           0           0           0           0           0
           0           0           0           0           0           0
           0           0           0           0           0           0
           0           0           0           0           0           0
           0           0
ClPar Real Params                          R   N=        3200
  0.00000000E+00  0.00000000E+00  0.00000000E+00  0.00000000E+00  0.00000000E+00
  0.00000000E+00  0.00000000E+00  0.00000000E+00  0.00000000E+00  0.00000000E+00
  0.00000000E+00  0.00000000E+00  0.00000000E+00  0.00000000E+00  0.00000000E+00
  0.00000000E+00  0.00000000E+00  0.00000000E+00  0.00000000E+00  0.00000000E+00
  0.00000000E+00  0.00000000E+00  0.00000000E+00  0.00000000E+00  0.00000000E+00
  0.00000000E+00  0.00000000E+00  0.00000000E+00  0.00000000E+00  0.00000000E+00
  0.00000000E+00  0.00000000E+00  0.00000000E+00  0.00000000E+00  0.00000000E+00
  0.00000000E+00  0.00000000E+00  0.00000000E+00  0.00000000E+00  0.00000000E+00
  0.00000000E+00  0.00000000E+00  0.00000000E+00  0.00000000E+00  0.00000000E+00
  0.00000000E+00  0.00000000E+00  0.00000000E+00  0.00000000E+00  0.00000000E+00
  0.00000000E+00  0.00000000E+00  0.00000000E+00  0.00000000E+00  0.00000000E+00
  0.00000000E+00  0.00000000E+00  0.00000000E+00  0.00000000E+00  0.00000000E+00
  0.00000000E+00  0.00000000E+00  0.00000000E+00  0.00000000E+00  0.00000000E+00
  0.00000000E+00  0.00000000E+00  0.00000000E+00  0.00000000E+00  0.00000000E+00
  0.00000000E+00  0.00000000E+00  0.00000000E+00  0.00000000E+00  0.00000000E+00
  0.00000000E+00  0.00000000E+00  0.00000000E+00  0.00000000E+00  0.00000000E+00
  0.00000000E+00  0.00000000E+00  0.00000000E+00  0.00000000E+00  0.00000000E+00
  0.00000000E+00  0.00000000E+00  0.00000000E+00  0.00000000E+00  0.00000000E+00
  0.00000000E+00  0.00000000E+00  0.00000000E+00  0.00000000E+00  0.00000000E+00
  0.00000000E+00  0.00000000E+00  0.00000000E+00  0.00000000E+00  0.00000000E+00
  0.00000000E+00  0.00000000E+00  0.00000000E+00  0.00000000E+00  0.00000000E+00
  0.00000000E+00  0.00000000E+00  0.00000000E+00  0.00000000E+00  0.00000000E+00
  0.00000000E+00  0.00000000E+00  0.00000000E+00  0.00000000E+00  0.00000000E+00
  0.00000000E+00  0.00000000E+00  0.00000000E+00  0.00000000E+00  0.00000000E+00
  0.00000000E+00  0.00000000E+00  0.00000000E+00  0.00000000E+00  0.00000000E+00
  0.00000000E+00  0.00000000E+00  0.00000000E+00  0.00000000E+00  0.00000000E+00
  0.00000000E+00  0.00000000E+00  0.00000000E+00  0.00000000E+00  0.00000000E+00
  0.00000000E+00  0.00000000E+00  0.00000000E+00  0.00000000E+00  0.00000000E+00
  0.00000000E+00  0.00000000E+00  0.00000000E+00  0.00000000E+00  0.00000000E+00
  0.00000000E+00  0.00000000E+00  0.00000000E+00  0.00000000E+00  0.00000000E+00
  0.00000000E+00  0.00000000E+00  0.00000000E+00  0.00000000E+00  0.00000000E+00
  0.00000000E+00  0.00000000E+00  0.00000000E+00  0.00000000E+00  0.00000000E+00
  0.00000000E+00  0.00000000E+00  0.00000000E+00  0.00000000E+00  0.00000000E+00
  0.00000000E+00  0.00000000E+00  0.00000000E+00  0.00000000E+00  0.00000000E+00
  0.00000000E+00  0.00000000E+00  0.00000000E+00  0.00000000E+00  0.00000000E+00
  0.00000000E+00  0.00000000E+00  0.00000000E+00  0.00000000E+00  0.00000000E+00
  0.00000000E+00  0.00000000E+00  0.00000000E+00  0.00000000E+00  0.00000000E+00
  0.00000000E+00  0.00000000E+00  0.00000000E+00  0.00000000E+00  0.00000000E+00
  0.00000000E+00  0.00000000E+00  0.00000000E+00  0.00000000E+00  0.00000000E+00
  0.00000000E+00  0.00000000E+00  0.00000000E+00  0.00000000E+00  0.00000000E+00
  2.26000000E-01  4.43000000E-01  1.01000000E-01  1.47000000E-01  1.92000000E-01
  2.40000000E-01  2.75000000E-01  3.03000000E-01  3.25000000E-01  4.13000000E-01
  9.60000000E-02  1.35000000E-01  1.73000000E-01  2.11000000E-01  2.48000000E-01
  2.86000000E-01  3.23000000E-01  3.60000000E-01  8.20000000E-02  1.04000000E-01
  1.17000000E-01  1.23000000E-01  1.29000000E-01  1.34000000E-01  1.40000000E-01
  1.44000000E-01  1.48000000E-01  1.52000000E-01  1.55000000E-01  1.76000000E-01
  1.98000000E-01  2.19000000E-01  2.39000000E-01  2.60000000E-01  2.80000000E-01
  3.00000000E-01  7.90000000E-02  9.90000000E-02  1.19000000E-01  1.26000000E-01
  1.33000000E-01  1.40000000E-01  1.47000000E-01  1.53000000E-01  1.58000000E-01
  1.63000000E-01  1.57000000E-01  1.70000000E-01  1.87000000E-01  2.03000000E-01
  2.19000000E-01  2.34000000E-01  2.50000000E-01  2.65000000E-01  7.40000000E-02
  9.20000000E-02  1.05000000E-01  1.06000000E-01  1.07000000E-01  1.08000000E-01
  1.09000000E-01  1.10000000E-01  1.11000000E-01  1.12000000E-01  1.13000000E-01
  1.14000000E-01  1.15000000E-01  1.16000000E-01  1.17000000E-01  1.17000000E-01
  1.26000000E-01  1.36000000E-01  1.46000000E-01  1.55000000E-01  1.65000000E-01
  1.73000000E-01  1.82000000E-01  1.90000000E-01  1.62000000E-01  1.78000000E-01
  1.10000000E-01  1.35000000E-01  1.59000000E-01  1.83000000E-01  2.07000000E-01
  2.31000000E-01  6.90000000E-02  9.40000000E-02  1.02000000E-01  1.03000000E-01
  1.05000000E-01  1.07000000E-01  1.09000000E-01  1.11000000E-01  1.13000000E-01
  1.15000000E-01  1.17000000E-01  1.19000000E-01  1.20000000E-01  1.22000000E-01
  1.24000000E-01  1.26000000E-01  1.28000000E-01  1.28000000E-01  1.28000000E-01
  1.28000000E-01  1.28000000E-01  1.28000000E-01  1.28000000E-01  1.28000000E-01
  1.28000000E-01  1.28000000E-01  1.28000000E-01  1.28000000E-01  1.28000000E-01
  1.28000000E-01  1.28000000E-01  1.28000000E-01  1.28000000E-01  1.28000000E-01
  1.28000000E-01  1.28000000E-01  1.28000000E-01  1.28000000E-01  1.28000000E-01
  1.28000000E-01  1.28000000E-01  1.28000000E-01  1.28000000E-01  1.28000000E-01
  1.28000000E-01  1.28000000E-01  1.28000000E-01  1.28000000E-01  1.28000000E-01
  1.28000000E-01  1.28000000E-01  1.28000000E-01  1.28000000E-01  1.28000000E-01
  1.28000000E-01  1.28000000E-01  1.28000000E-01  1.28000000E-01  1.28000000E-01
  1.28000000E-01  1.28000000E-01  1.28000000E-01  1.28000000E-01  1.28000000E-01
  1.28000000E-01  1.28000000E-01  1.28000000E-01  1.28000000E-01  1.28000000E-01
  1.28000000E-01  1.28000000E-01  1.28000000E-01  1.28000000E-01  1.28000000E-01
  1.28000000E-01  1.28000000E-01  1.28000000E-01  1.28000000E-01  1.28000000E-01
  1.28000000E-01  1.28000000E-01  1.28000000E-01  1.28000000E-01  1.28000000E-01
  1.28000000E-01  1.28000000E-01  1.28000000E-01  1.28000000E-01  1.28000000E-01
  1.28000000E-01  1.28000000E-01  1.28000000E-01  1.28000000E-01  1.28000000E-01
  1.28000000E-01  1.28000000E-01  1.28000000E-01  1.28000000E-01  1.28000000E-01
  1.28000000E-01  1.28000000E-01  1.28000000E-01  1.28000000E-01  1.28000000E-01
  1.28000000E-01  1.28000000E-01  1.28000000E-01  1.28000000E-01  1.28000000E-01
  1.28000000E-01  1.28000000E-01  1.28000000E-01  1.28000000E-01  1.28000000E-01
  5.47000000E-01  5.92000000E-01  5.99000000E-01  6.68000000E-01  6.98000000E-01
  7.18000000E-01  7.26000000E-01  7.36000000E-01  7.43000000E-01  7.45000000E-01
  6.07000000E-01  6.66000000E-01  6.93000000E-01  7.09000000E-01  7.20000000E-01
  7.29000000E-01  7.35000000E-01  7.40000000E-01  6.08000000E-01  7.34000000E-01
  7.46000000E-01  7.55000000E-01  7.61000000E-01  7.65000000E-01  7.67000000E-01
  7.60000000E-01  7.49000000E-01  7.33000000E-01  7.08000000E-01  6.48000000E-01
  6.88000000E-01  7.09000000E-01  7.22000000E-01  7.31000000E-01  7.38000000E-01
  7.44000000E-01  6.09000000E-01  7.30000000E-01  7.41000000E-01  7.52000000E-01
  7.58000000E-01  7.63000000E-01  7.66000000E-01  7.58000000E-01  7.48000000E-01
  7.33000000E-01  7.01000000E-01  6.45000000E-01  6.86000000E-01  7.08000000E-01
  7.22000000E-01  7.31000000E-01  7.38000000E-01  7.44000000E-01  6.08000000E-01
  7.28000000E-01  7.32000000E-01  7.32000000E-01  7.32000000E-01  7.32000000E-01
  7.32000000E-01  7.32000000E-01  7.32000000E-01  7.32000000E-01  7.32000000E-01
  7.31000000E-01  7.31000000E-01  7.31000000E-01  7.31000000E-01  7.46000000E-01
  7.37000000E-01  7.46000000E-01  7.51000000E-01  7.55000000E-01  7.58000000E-01
  7.47000000E-01  7.32000000E-01  7.11000000E-01  7.41000000E-01  7.07000000E-01
  7.47000000E-01  7.43000000E-01  7.42000000E-01  7.42000000E-01  7.43000000E-01
  7.44000000E-01  6.05000000E-01  7.24000000E-01  7.26000000E-01  7.26000000E-01
  7.27000000E-01  7.27000000E-01  7.27000000E-01  7.28000000E-01  7.28000000E-01
  7.28000000E-01  7.28000000E-01  7.28000000E-01  7.29000000E-01  7.29000000E-01
  7.29000000E-01  7.29000000E-01  7.29000000E-01  7.29000000E-01  7.29000000E-01
  7.29000000E-01  7.29000000E-01  7.29000000E-01  7.29000000E-01  7.29000000E-01
  7.29000000E-01  7.29000000E-01  7.29000000E-01  7.29000000E-01  7.29000000E-01
  7.29000000E-01  7.29000000E-01  7.29000000E-01  7.29000000E-01  7.29000000E-01
  7.29000000E-01  7.29000000E-01  7.29000000E-01  7.29000000E-01  7.29000000E-01
  7.29000000E-01  7.29000000E-01  7.29000000E-01  7.29000000E-01  7.29000000E-01
  7.29000000E-01  7.29000000E-01  7.29000000E-01  7.29000000E-01  7.29000000E-01
  7.29000000E-01  7.29000000E-01  7.29000000E-01  7.29000000E-01  7.29000000E-01
  7.29000000E-01  7.29000000E-01  7.29000000E-01  7.29000000E-01  7.29000000E-01
  7.29000000E-01  7.29000000E-01  7.29000000E-01  7.29000000E-01  7.29000000E-01
  7.29000000E-01  7.29000000E-01  7.29000000E-01  7.29000000E-01  7.29000000E-01
  7.29000000E-01  7.29000000E-01  7.29000000E-01  7.29000000E-01  7.29000000E-01
  7.29000000E-01  7.29000000E-01  7.29000000E-01  7.29000000E-01  7.29000000E-01
  7.29000000E-01  7.29000000E-01  7.29000000E-01  7.29000000E-01  7.29000000E-01
  7.29000000E-01  7.29000000E-01  7.29000000E-01  7.29000000E-01  7.29000000E-01
  7.29000000E-01  7.29000000E-01  7.29000000E-01  7.29000000E-01  7.29000000E-01
  7.29000000E-01  7.29000000E-01  7.29000000E-01  7.29000000E-01  7.29000000E-01
  7.29000000E-01  7.29000000E-01  7.29000000E-01  7.29000000E-01  7.29000000E-01
  7.29000000E-01  7.29000000E-01  7.29000000E-01  7.29000000E-01  7.29000000E-01
  7.29000000E-01  7.29000000E-01  7.29000000E-01  7.29000000E-01  7.29000000E-01
  1.00000000E+00  1.70400000E+00  3.23000000E-01  3.89000000E-01  4.67000000E-01
  5.67000000E-01  6.36000000E-01  6.64000000E-01  6.96000000E-01  8.79000000E-01
  3.07000000E-01  3.48000000E-01  4.00000000E-01  4.54000000E-01  5.09000000E-01
  5.65000000E-01  6.21000000E-01  6.77000000E-01  2.56000000E-01  3.50000000E-01
  3.64000000E-01  3.62000000E-01  3.62000000E-01  3.62000000E-01  3.62000000E-01
  3.65000000E-01  3.69000000E-01  3.75000000E-01  3.86000000E-01  4.46000000E-01
  4.55000000E-01  4.74000000E-01  4.96000000E-01  5.20000000E-01  5.45000000E-01
  5.70000000E-01  2.45000000E-01  3.22000000E-01  3.55000000E-01  3.59000000E-01
  3.64000000E-01  3.70000000E-01  3.76000000E-01  3.85000000E-01  3.95000000E-01
  4.08000000E-01  3.76000000E-01  4.23000000E-01  4.22000000E-01  4.32000000E-01
  4.45000000E-01  4.59000000E-01  4.75000000E-01  4.91000000E-01  2.28000000E-01
  2.92000000E-01  2.89000000E-01  2.92000000E-01  2.95000000E-01  2.98000000E-01
  3.00000000E-01  3.03000000E-01  3.06000000E-01  3.09000000E-01  3.12000000E-01
  3.15000000E-01  3.18000000E-01  3.21000000E-01  3.24000000E-01  3.61000000E-01
  3.69000000E-01  3.70000000E-01  3.72000000E-01  3.75000000E-01  3.78000000E-01
  3.85000000E-01  3.94000000E-01  4.07000000E-01  5.26000000E-01  6.21000000E-01
  3.36000000E-01  3.54000000E-01  3.71000000E-01  3.86000000E-01  4.02000000E-01
  4.17000000E-01  2.09000000E-01  2.94000000E-01  2.65000000E-01  2.72000000E-01
  2.78000000E-01  2.84000000E-01  2.91000000E-01  2.97000000E-01  3.03000000E-01
  3.10000000E-01  3.16000000E-01  3.22000000E-01  3.29000000E-01  3.35000000E-01
  3.41000000E-01  3.48000000E-01  3.54000000E-01  3.54000000E-01  3.54000000E-01
  3.54000000E-01  3.54000000E-01  3.54000000E-01  3.54000000E-01  3.54000000E-01
  3.54000000E-01  3.54000000E-01  3.54000000E-01  3.54000000E-01  3.54000000E-01
  3.54000000E-01  3.54000000E-01  3.54000000E-01  3.54000000E-01  3.54000000E-01
  3.54000000E-01  3.54000000E-01  3.54000000E-01  3.54000000E-01  3.54000000E-01
  3.54000000E-01  3.54000000E-01  3.54000000E-01  3.54000000E-01  3.54000000E-01
  3.54000000E-01  3.54000000E-01  3.54000000E-01  3.54000000E-01  3.54000000E-01
  3.54000000E-01  3.54000000E-01  3.54000000E-01  3.54000000E-01  3.54000000E-01
  3.54000000E-01  3.54000000E-01  3.54000000E-01  3.54000000E-01  3.54000000E-01
  3.54000000E-01  3.54000000E-01  3.54000000E-01  3.54000000E-01  3.54000000E-01
  3.54000000E-01  3.54000000E-01  3.54000000E-01  3.54000000E-01  3.54000000E-01
  3.54000000E-01  3.54000000E-01  3.54000000E-01  3.54000000E-01  3.54000000E-01
  3.54000000E-01  3.54000000E-01  3.54000000E-01  3.54000000E-01  3.54000000E-01
  3.54000000E-01  3.54000000E-01  3.54000000E-01  3.54000000E-01  3.54000000E-01
  3.54000000E-01  3.54000000E-01  3.54000000E-01  3.54000000E-01  3.54000000E-01
  3.54000000E-01  3.54000000E-01  3.54000000E-01  3.54000000E-01  3.54000000E-01
  3.54000000E-01  3.54000000E-01  3.54000000E-01  3.54000000E-01  3.54000000E-01
  3.54000000E-01  3.54000000E-01  3.54000000E-01  3.54000000E-01  3.54000000E-01
  3.54000000E-01  3.54000000E-01  3.54000000E-01  3.54000000E-01  3.54000000E-01
  3.54000000E-01  3.54000000E-01  3.54000000E-01  3.54000000E-01  3.54000000E-01
  2.74000000E-01  2.96000000E-01  5.80000000E-02  4.40000000E-02  3.90000000E-02
  3.90000000E-02  3.60000000E-02  3.20000000E-02  2.90000000E-02  3.30000000E-02
  5.50000000E-02  3.90000000E-02  3.30000000E-02  3.00000000E-02  2.80000000E-02
  2.60000000E-02  2.50000000E-02  2.50000000E-02  4.50000000E-02  4.40000000E-02
  3.30000000E-02  2.50000000E-02  2.10000000E-02  1.80000000E-02  1.50000000E-02
  1.80000000E-02  2.10000000E-02  2.50000000E-02  3.30000000E-02  5.00000000E-02
  3.80000000E-02  3.10000000E-02  2.70000000E-02  2.40000000E-02  2.20000000E-02
  2.10000000E-02  4.30000000E-02  4.00000000E-02  3.20000000E-02  2.50000000E-02
  2.10000000E-02  1.80000000E-02  1.60000000E-02  1.90000000E-02  2.20000000E-02
  2.80000000E-02  3.10000000E-02  4.70000000E-02  3.40000000E-02  2.80000000E-02
  2.40000000E-02  2.10000000E-02  1.90000000E-02  1.80000000E-02  3.90000000E-02
  3.60000000E-02  2.50000000E-02  2.50000000E-02  2.50000000E-02  2.60000000E-02
  2.60000000E-02  2.60000000E-02  2.70000000E-02  2.70000000E-02  2.70000000E-02
  2.70000000E-02  2.80000000E-02  2.80000000E-02  2.80000000E-02  3.30000000E-02
  3.30000000E-02  2.60000000E-02  2.10000000E-02  1.80000000E-02  1.60000000E-02
  1.80000000E-02  2.20000000E-02  2.60000000E-02  4.90000000E-02  8.20000000E-02
  3.00000000E-02  2.40000000E-02  2.10000000E-02  1.80000000E-02  1.60000000E-02
  1.50000000E-02  3.50000000E-02  3.60000000E-02  2.20000000E-02  2.30000000E-02
  2.40000000E-02  2.40000000E-02  2.50000000E-02  2.50000000E-02  2.60000000E-02
  2.70000000E-02  2.70000000E-02  2.80000000E-02  2.80000000E-02  2.90000000E-02
  3.00000000E-02  3.00000000E-02  3.10000000E-02  3.10000000E-02  3.10000000E-02
  3.10000000E-02  3.10000000E-02  3.10000000E-02  3.10000000E-02  3.10000000E-02
  3.10000000E-02  3.10000000E-02  3.10000000E-02  3.10000000E-02  3.10000000E-02
  3.10000000E-02  3.10000000E-02  3.10000000E-02  3.10000000E-02  3.10000000E-02
  3.10000000E-02  3.10000000E-02  3.10000000E-02  3.10000000E-02  3.10000000E-02
  3.10000000E-02  3.10000000E-02  3.10000000E-02  3.10000000E-02  3.10000000E-02
  3.10000000E-02  3.10000000E-02  3.10000000E-02  3.10000000E-02  3.10000000E-02
  3.10000000E-02  3.10000000E-02  3.10000000E-02  3.10000000E-02  3.10000000E-02
  3.10000000E-02  3.10000000E-02  3.10000000E-02  3.10000000E-02  3.10000000E-02
  3.10000000E-02  3.10000000E-02  3.10000000E-02  3.10000000E-02  3.10000000E-02
  3.10000000E-02  3.10000000E-02  3.10000000E-02  3.10000000E-02  3.10000000E-02
  3.10000000E-02  3.10000000E-02  3.10000000E-02  3.10000000E-02  3.10000000E-02
  3.10000000E-02  3.10000000E-02  3.10000000E-02  3.10000000E-02  3.10000000E-02
  3.10000000E-02  3.10000000E-02  3.10000000E-02  3.10000000E-02  3.10000000E-02
  3.10000000E-02  3.10000000E-02  3.10000000E-02  3.10000000E-02  3.10000000E-02
  3.10000000E-02  3.10000000E-02  3.10000000E-02  3.10000000E-02  3.10000000E-02
  3.10000000E-02  3.10000000E-02  3.10000000E-02  3.10000000E-02  3.10000000E-02
  3.10000000E-02  3.10000000E-02  3.10000000E-02  3.10000000E-02  3.10000000E-02
  3.10000000E-02  3.10000000E-02  3.10000000E-02  3.10000000E-02  3.10000000E-02
  3.10000000E-02  3.10000000E-02  3.10000000E-02  3.10000000E-02  3.10000000E-02
 -5.92770000E-01 -9.17860000E-01 -2.48668000E+00 -8.36430000E-01 -3.18470000E-01
 -4.55790000E-01 -5.70730000E-01 -6.77940000E-01 -7.69860000E-01 -8.51140000E-01
 -1.51908000E+00 -3.18830000E-01 -2.17900000E-01 -3.01260000E-01 -3.72750000E-01
 -4.15890000E-01 -4.45930000E-01 -5.91320000E-01 -9.56370000E-01 -2.88450000E-01
 -4.87320000E-01 -6.34280000E-01 -7.17490000E-01 -7.91980000E-01 -8.68490000E-01
 -9.17520000E-01 -9.54890000E-01 -9.88460000E-01 -1.50055000E+00 -2.92560000E-01
 -2.14960000E-01 -2.91180000E-01 -3.42080000E-01 -3.84480000E-01 -4.34940000E-01
 -5.24310000E-01 -8.10070000E-01 -2.58460000E-01 -4.35550000E-01 -5.32740000E-01
 -6.08450000E-01 -6.10260000E-01 -7.58920000E-01 -8.90130000E-01 -8.45780000E-01
 -8.69340000E-01 -1.38234000E+00 -2.64850000E-01 -1.97280000E-01 -2.65040000E-01
 -2.94470000E-01 -3.16570000E-01 -3.63590000E-01 -4.57840000E-01 -8.61830000E-01
 -1.33004000E+00 -6.82880000E-01 -6.25540000E-01 -6.35430000E-01 -8.79690000E-01
 -9.02690000E-01 -9.59650000E-01 -1.01869000E+00 -6.81170000E-01 -7.96500000E-01
 -9.04950000E-01 -8.34790000E-01 -9.01560000E-01 -9.74130000E-01 -1.03326000E+00
 -7.15490000E-01 -7.83960000E-01 -8.28380000E-01 -5.61040000E-01 -1.03841000E+00
 -8.62500000E-01 -9.59300000E-01 -1.01755000E+00 -7.64900000E-01 -1.29467000E+00
 -1.92740000E-01 -2.56010000E-01 -3.19820000E-01 -1.94660000E-01 -2.60090000E-01
 -4.27990000E-01  0.00000000E+00  0.00000000E+00  0.00000000E+00  0.00000000E+00
  0.00000000E+00  0.00000000E+00  0.00000000E+00  0.00000000E+00  0.00000000E+00
  0.00000000E+00  0.00000000E+00  0.00000000E+00  0.00000000E+00  0.00000000E+00
  0.00000000E+00  0.00000000E+00  0.00000000E+00  0.00000000E+00  0.00000000E+00
  0.00000000E+00  0.00000000E+00  0.00000000E+00  0.00000000E+00  0.00000000E+00
  0.00000000E+00  0.00000000E+00  0.00000000E+00  0.00000000E+00  0.00000000E+00
  0.00000000E+00  0.00000000E+00  0.00000000E+00  0.00000000E+00  0.00000000E+00
  0.00000000E+00  0.00000000E+00  0.00000000E+00  0.00000000E+00  0.00000000E+00
  0.00000000E+00  0.00000000E+00  0.00000000E+00  0.00000000E+00  0.00000000E+00
  0.00000000E+00  0.00000000E+00  0.00000000E+00  0.00000000E+00  0.00000000E+00
  0.00000000E+00  0.00000000E+00  0.00000000E+00  0.00000000E+00  0.00000000E+00
  0.00000000E+00  0.00000000E+00  0.00000000E+00  0.00000000E+00  0.00000000E+00
  0.00000000E+00  0.00000000E+00  0.00000000E+00  0.00000000E+00  0.00000000E+00
  0.00000000E+00  0.00000000E+00  0.00000000E+00  0.00000000E+00  0.00000000E+00
  0.00000000E+00  0.00000000E+00  0.00000000E+00  0.00000000E+00  0.00000000E+00
  0.00000000E+00  0.00000000E+00  0.00000000E+00  0.00000000E+00  0.00000000E+00
  0.00000000E+00  0.00000000E+00  0.00000000E+00  0.00000000E+00  0.00000000E+00
  0.00000000E+00  0.00000000E+00  0.00000000E+00  0.00000000E+00  0.00000000E+00
  0.00000000E+00  0.00000000E+00  0.00000000E+00  0.00000000E+00  0.00000000E+00
  0.00000000E+00  0.00000000E+00  0.00000000E+00  0.00000000E+00  0.00000000E+00
  0.00000000E+00  0.00000000E+00  0.00000000E+00  0.00000000E+00  0.00000000E+00
  0.00000000E+00  0.00000000E+00  0.00000000E+00  0.00000000E+00  0.00000000E+00
  0.00000000E+00  0.00000000E+00  0.00000000E+00  0.00000000E+00  0.00000000E+00
  1.90440000E+00  1.36430000E+00  4.84000000E-01  7.31600000E+00  9.24030000E+00
  8.78200000E+00  5.61290000E+00  4.83340000E+00  3.24870000E+00  2.71090000E+00
  2.01130000E+00  1.50282000E+01  1.46788000E+01  2.13546000E+01  2.38290000E+01
  1.98022000E+01  1.50468000E+01  1.09745000E+01  1.27219000E+01  1.51949000E+01
  1.57342000E+01  2.79222000E+01  1.61366000E+01  2.21252000E+01  2.45676000E+01
  1.96016000E+01  1.79818000E+01  1.72396000E+01  5.01500000E+00  1.92898000E+01
  2.34477000E+01  2.23993000E+01  2.96586000E+01  2.60081000E+01  2.15580000E+01
  1.69594000E+01  1.56479000E+01  1.86897000E+01  1.93530000E+01  3.43444000E+01
  1.98480000E+01  2.72140000E+01  3.02182000E+01  2.41099000E+01  2.21176000E+01
  2.12047000E+01  7.56690000E+00  2.37264000E+01  2.93879000E+01  3.01278000E+01
  4.19382000E+01  3.85203000E+01  3.39511000E+01  2.75774000E+01  1.56460000E+01
  1.04460000E+01  2.01830000E+01  4.99540000E+01  4.76430000E+01  1.18690000E+01
  1.08670000E+01  9.96100000E+00  9.18700000E+00  3.67980000E+01  1.34070000E+01
  9.38200000E+00  9.81700000E+00  8.90800000E+00  8.40700000E+00  8.05800000E+00
  1.29600000E+01  2.67920000E+01  2.49300000E+01  3.45630000E+01  1.11860000E+01
  1.09440000E+01  1.01270000E+01  9.40400000E+00  1.36660000E+01  7.81000000E+00
  6.93600000E+01  5.86630000E+01  4.79690000E+01  4.52740000E+01  3.92290000E+01
  3.30660000E+01  0.00000000E+00  0.00000000E+00  0.00000000E+00  0.00000000E+00
  0.00000000E+00  0.00000000E+00  0.00000000E+00  0.00000000E+00  0.00000000E+00
  0.00000000E+00  0.00000000E+00  0.00000000E+00  0.00000000E+00  0.00000000E+00
  0.00000000E+00  0.00000000E+00  0.00000000E+00  0.00000000E+00  0.00000000E+00
  0.00000000E+00  0.00000000E+00  0.00000000E+00  0.00000000E+00  0.00000000E+00
  0.00000000E+00  0.00000000E+00  0.00000000E+00  0.00000000E+00  0.00000000E+00
  0.00000000E+00  0.00000000E+00  0.00000000E+00  0.00000000E+00  0.00000000E+00
  0.00000000E+00  0.00000000E+00  0.00000000E+00  0.00000000E+00  0.00000000E+00
  0.00000000E+00  0.00000000E+00  0.00000000E+00  0.00000000E+00  0.00000000E+00
  0.00000000E+00  0.00000000E+00  0.00000000E+00  0.00000000E+00  0.00000000E+00
  0.00000000E+00  0.00000000E+00  0.00000000E+00  0.00000000E+00  0.00000000E+00
  0.00000000E+00  0.00000000E+00  0.00000000E+00  0.00000000E+00  0.00000000E+00
  0.00000000E+00  0.00000000E+00  0.00000000E+00  0.00000000E+00  0.00000000E+00
  0.00000000E+00  0.00000000E+00  0.00000000E+00  0.00000000E+00  0.00000000E+00
  0.00000000E+00  0.00000000E+00  0.00000000E+00  0.00000000E+00  0.00000000E+00
  0.00000000E+00  0.00000000E+00  0.00000000E+00  0.00000000E+00  0.00000000E+00
  0.00000000E+00  0.00000000E+00  0.00000000E+00  0.00000000E+00  0.00000000E+00
  0.00000000E+00  0.00000000E+00  0.00000000E+00  0.00000000E+00  0.00000000E+00
  0.00000000E+00  0.00000000E+00  0.00000000E+00  0.00000000E+00  0.00000000E+00
  0.00000000E+00  0.00000000E+00  0.00000000E+00  0.00000000E+00  0.00000000E+00
  0.00000000E+00  0.00000000E+00  0.00000000E+00  0.00000000E+00  0.00000000E+00
  0.00000000E+00  0.00000000E+00  0.00000000E+00  0.00000000E+00  0.00000000E+00
  0.00000000E+00  0.00000000E+00  0.00000000E+00  0.00000000E+00  0.00000000E+00
  0.00000000E+00  0.00000000E+00  0.00000000E+00  0.00000000E+00  0.00000000E+00
  0.00000000E+00  0.00000000E+00  0.00000000E+00  0.00000000E+00  0.00000000E+00
  0.00000000E+00  0.00000000E+00  0.00000000E+00  0.00000000E+00  0.00000000E+00
  0.00000000E+00  0.00000000E+00  0.00000000E+00  0.00000000E+00  0.00000000E+00
  0.00000000E+00  0.00000000E+00  0.00000000E+00  0.00000000E+00  0.00000000E+00
  0.00000000E+00  0.00000000E+00  0.00000000E+00  0.00000000E+00  0.00000000E+00
  0.00000000E+00  0.00000000E+00  0.00000000E+00  0.00000000E+00  0.00000000E+00
  0.00000000E+00  0.00000000E+00  0.00000000E+00  0.00000000E+00  0.00000000E+00
  0.00000000E+00  0.00000000E+00  0.00000000E+00  0.00000000E+00  0.00000000E+00
  0.00000000E+00  0.00000000E+00  0.00000000E+00  0.00000000E+00  0.00000000E+00
  0.00000000E+00  0.00000000E+00  0.00000000E+00  0.00000000E+00  0.00000000E+00
  0.00000000E+00  0.00000000E+00  0.00000000E+00  0.00000000E+00  0.00000000E+00
  0.00000000E+00  0.00000000E+00  0.00000000E+00  0.00000000E+00  0.00000000E+00
  0.00000000E+00  0.00000000E+00  0.00000000E+00  0.00000000E+00  0.00000000E+00
  0.00000000E+00  0.00000000E+00  0.00000000E+00  0.00000000E+00  0.00000000E+00
  0.00000000E+00  0.00000000E+00  0.00000000E+00  0.00000000E+00  0.00000000E+00
  0.00000000E+00  0.00000000E+00  0.00000000E+00  0.00000000E+00  0.00000000E+00
  0.00000000E+00  0.00000000E+00  0.00000000E+00  0.00000000E+00  0.00000000E+00
  0.00000000E+00  0.00000000E+00  0.00000000E+00  0.00000000E+00  0.00000000E+00
  0.00000000E+00  0.00000000E+00  0.00000000E+00  0.00000000E+00  0.00000000E+00
  0.00000000E+00  0.00000000E+00  0.00000000E+00  0.00000000E+00  0.00000000E+00
  0.00000000E+00  0.00000000E+00  0.00000000E+00  0.00000000E+00  0.00000000E+00
  0.00000000E+00  0.00000000E+00  0.00000000E+00  0.00000000E+00  0.00000000E+00
  0.00000000E+00  0.00000000E+00  0.00000000E+00  0.00000000E+00  0.00000000E+00
  0.00000000E+00  0.00000000E+00  0.00000000E+00  0.00000000E+00  0.00000000E+00
  0.00000000E+00  0.00000000E+00  0.00000000E+00  0.00000000E+00  0.00000000E+00
  0.00000000E+00  0.00000000E+00  0.00000000E+00  0.00000000E+00  0.00000000E+00
  0.00000000E+00  0.00000000E+00  0.00000000E+00  0.00000000E+00  0.00000000E+00
  0.00000000E+00  0.00000000E+00  0.00000000E+00  0.00000000E+00  0.00000000E+00
  0.00000000E+00  0.00000000E+00  0.00000000E+00  0.00000000E+00  0.00000000E+00
  0.00000000E+00  0.00000000E+00  0.00000000E+00  0.00000000E+00  0.00000000E+00
  0.00000000E+00  0.00000000E+00  0.00000000E+00  0.00000000E+00  0.00000000E+00
  0.00000000E+00  0.00000000E+00  0.00000000E+00  0.00000000E+00  0.00000000E+00
  0.00000000E+00  0.00000000E+00  0.00000000E+00  0.00000000E+00  0.00000000E+00
  0.00000000E+00  0.00000000E+00  0.00000000E+00  0.00000000E+00  0.00000000E+00
  0.00000000E+00  0.00000000E+00  0.00000000E+00  0.00000000E+00  0.00000000E+00
  0.00000000E+00  0.00000000E+00  0.00000000E+00  0.00000000E+00  0.00000000E+00
  0.00000000E+00  0.00000000E+00  0.00000000E+00  0.00000000E+00  0.00000000E+00
  0.00000000E+00  0.00000000E+00  0.00000000E+00  0.00000000E+00  0.00000000E+00
  0.00000000E+00  0.00000000E+00  0.00000000E+00  0.00000000E+00  0.00000000E+00
  0.00000000E+00  0.00000000E+00  0.00000000E+00  0.00000000E+00  0.00000000E+00
  0.00000000E+00  0.00000000E+00  0.00000000E+00  0.00000000E+00  0.00000000E+00
  0.00000000E+00  0.00000000E+00  0.00000000E+00  0.00000000E+00  0.00000000E+00
  0.00000000E+00  0.00000000E+00  0.00000000E+00  0.00000000E+00  0.00000000E+00
  0.00000000E+00  0.00000000E+00  0.00000000E+00  0.00000000E+00  0.00000000E+00
  0.00000000E+00  0.00000000E+00  0.00000000E+00  0.00000000E+00  0.00000000E+00
  0.00000000E+00  0.00000000E+00  0.00000000E+00  0.00000000E+00  0.00000000E+00
  0.00000000E+00  0.00000000E+00  0.00000000E+00  0.00000000E+00  0.00000000E+00
  0.00000000E+00  0.00000000E+00  0.00000000E+00  0.00000000E+00  0.00000000E+00
  0.00000000E+00  0.00000000E+00  0.00000000E+00  0.00000000E+00  0.00000000E+00
  0.00000000E+00  0.00000000E+00  0.00000000E+00  0.00000000E+00  0.00000000E+00
  0.00000000E+00  0.00000000E+00  0.00000000E+00  0.00000000E+00  0.00000000E+00
  0.00000000E+00  0.00000000E+00  0.00000000E+00  0.00000000E+00  0.00000000E+00
  0.00000000E+00  0.00000000E+00  0.00000000E+00  0.00000000E+00  0.00000000E+00
  0.00000000E+00  0.00000000E+00  0.00000000E+00  0.00000000E+00  0.00000000E+00
  0.00000000E+00  0.00000000E+00  0.00000000E+00  0.00000000E+00  0.00000000E+00
  0.00000000E+00  0.00000000E+00  0.00000000E+00  0.00000000E+00  0.00000000E+00
  0.00000000E+00  0.00000000E+00  0.00000000E+00  0.00000000E+00  0.00000000E+00
  0.00000000E+00  0.00000000E+00  0.00000000E+00  0.00000000E+00  0.00000000E+00
  0.00000000E+00  0.00000000E+00  0.00000000E+00  0.00000000E+00  0.00000000E+00
  0.00000000E+00  0.00000000E+00  0.00000000E+00  0.00000000E+00  0.00000000E+00
  0.00000000E+00  0.00000000E+00  0.00000000E+00  0.00000000E+00  0.00000000E+00
  0.00000000E+00  0.00000000E+00  0.00000000E+00  0.00000000E+00  0.00000000E+00
  0.00000000E+00  0.00000000E+00  0.00000000E+00  0.00000000E+00  0.00000000E+00
  0.00000000E+00  0.00000000E+00  0.00000000E+00  0.00000000E+00  0.00000000E+00
  0.00000000E+00  0.00000000E+00  0.00000000E+00  0.00000000E+00  0.00000000E+00
  0.00000000E+00  0.00000000E+00  0.00000000E+00  0.00000000E+00  0.00000000E+00
  0.00000000E+00  0.00000000E+00  0.00000000E+00  0.00000000E+00  0.00000000E+00
  0.00000000E+00  0.00000000E+00  0.00000000E+00  0.00000000E+00  0.00000000E+00
  0.00000000E+00  0.00000000E+00  0.00000000E+00  0.00000000E+00  0.00000000E+00
  0.00000000E+00  0.00000000E+00  0.00000000E+00  0.00000000E+00  0.00000000E+00
  0.00000000E+00  0.00000000E+00  0.00000000E+00  0.00000000E+00  0.00000000E+00
  0.00000000E+00  0.00000000E+00  0.00000000E+00  0.00000000E+00  0.00000000E+00
  0.00000000E+00  0.00000000E+00  0.00000000E+00  0.00000000E+00  0.00000000E+00
  0.00000000E+00  0.00000000E+00  0.00000000E+00  0.00000000E+00  0.00000000E+00
  0.00000000E+00  0.00000000E+00  0.00000000E+00  0.00000000E+00  0.00000000E+00
  0.00000000E+00  0.00000000E+00  0.00000000E+00  0.00000000E+00  0.00000000E+00
  0.00000000E+00  0.00000000E+00  0.00000000E+00  0.00000000E+00  0.00000000E+00
  0.00000000E+00  0.00000000E+00  0.00000000E+00  0.00000000E+00  0.00000000E+00
  0.00000000E+00  0.00000000E+00  0.00000000E+00  0.00000000E+00  0.00000000E+00
  0.00000000E+00  0.00000000E+00  0.00000000E+00  0.00000000E+00  0.00000000E+00
  0.00000000E+00  0.00000000E+00  0.00000000E+00  0.00000000E+00  0.00000000E+00
  0.00000000E+00  0.00000000E+00  0.00000000E+00  0.00000000E+00  0.00000000E+00
  0.00000000E+00  0.00000000E+00  0.00000000E+00  0.00000000E+00  0.00000000E+00
  0.00000000E+00  0.00000000E+00  0.00000000E+00  0.00000000E+00  0.00000000E+00
  0.00000000E+00  0.00000000E+00  0.00000000E+00  0.00000000E+00  0.00000000E+00
  0.00000000E+00  0.00000000E+00  0.00000000E+00  0.00000000E+00  0.00000000E+00
  0.00000000E+00  0.00000000E+00  0.00000000E+00  0.00000000E+00  0.00000000E+00
  0.00000000E+00  0.00000000E+00  0.00000000E+00  0.00000000E+00  0.00000000E+00
  0.00000000E+00  0.00000000E+00  0.00000000E+00  0.00000000E+00  0.00000000E+00
  0.00000000E+00  0.00000000E+00  0.00000000E+00  0.00000000E+00  0.00000000E+00
  0.00000000E+00  0.00000000E+00  0.00000000E+00  0.00000000E+00  0.00000000E+00
  0.00000000E+00  0.00000000E+00  0.00000000E+00  0.00000000E+00  0.00000000E+00
  0.00000000E+00  0.00000000E+00  0.00000000E+00  0.00000000E+00  0.00000000E+00
  0.00000000E+00  0.00000000E+00  0.00000000E+00  0.00000000E+00  0.00000000E+00
  0.00000000E+00  0.00000000E+00  0.00000000E+00  0.00000000E+00  0.00000000E+00
  0.00000000E+00  0.00000000E+00  0.00000000E+00  0.00000000E+00  0.00000000E+00
  0.00000000E+00  0.00000000E+00  0.00000000E+00  0.00000000E+00  0.00000000E+00
  0.00000000E+00  0.00000000E+00  0.00000000E+00  0.00000000E+00  0.00000000E+00
  0.00000000E+00  0.00000000E+00  0.00000000E+00  0.00000000E+00  0.00000000E+00
  0.00000000E+00  0.00000000E+00  0.00000000E+00  0.00000000E+00  0.00000000E+00
  0.00000000E+00  0.00000000E+00  0.00000000E+00  0.00000000E+00  0.00000000E+00
  0.00000000E+00  0.00000000E+00  0.00000000E+00  0.00000000E+00  0.00000000E+00
  0.00000000E+00  0.00000000E+00  0.00000000E+00  0.00000000E+00  0.00000000E+00
  0.00000000E+00  0.00000000E+00  0.00000000E+00  0.00000000E+00  0.00000000E+00
  0.00000000E+00  0.00000000E+00  0.00000000E+00  0.00000000E+00  0.00000000E+00
  0.00000000E+00  0.00000000E+00  0.00000000E+00  0.00000000E+00  0.00000000E+00
  0.00000000E+00  0.00000000E+00  0.00000000E+00  0.00000000E+00  0.00000000E+00
  0.00000000E+00  0.00000000E+00  0.00000000E+00  0.00000000E+00  0.00000000E+00
  0.00000000E+00  0.00000000E+00  0.00000000E+00  0.00000000E+00  0.00000000E+00
  0.00000000E+00  0.00000000E+00  0.00000000E+00  0.00000000E+00  0.00000000E+00
  0.00000000E+00  0.00000000E+00  0.00000000E+00  0.00000000E+00  0.00000000E+00
  0.00000000E+00  0.00000000E+00  0.00000000E+00  0.00000000E+00  0.00000000E+00
  0.00000000E+00  0.00000000E+00  0.00000000E+00  0.00000000E+00  0.00000000E+00
  0.00000000E+00  0.00000000E+00  0.00000000E+00  0.00000000E+00  0.00000000E+00
  0.00000000E+00  0.00000000E+00  0.00000000E+00  0.00000000E+00  0.00000000E+00
  0.00000000E+00  0.00000000E+00  0.00000000E+00  0.00000000E+00  0.00000000E+00
  0.00000000E+00  0.00000000E+00  0.00000000E+00  0.00000000E+00  0.00000000E+00
  0.00000000E+00  0.00000000E+00  0.00000000E+00  0.00000000E+00  0.00000000E+00
  0.00000000E+00  0.00000000E+00  0.00000000E+00  0.00000000E+00  0.00000000E+00
  0.00000000E+00  0.00000000E+00  0.00000000E+00  0.00000000E+00  0.00000000E+00
  0.00000000E+00  0.00000000E+00  0.00000000E+00  0.00000000E+00  0.00000000E+00
  0.00000000E+00  0.00000000E+00  0.00000000E+00  0.00000000E+00  0.00000000E+00
  0.00000000E+00  0.00000000E+00  0.00000000E+00  0.00000000E+00  0.00000000E+00
  0.00000000E+00  0.00000000E+00  0.00000000E+00  0.00000000E+00  0.00000000E+00
  0.00000000E+00  0.00000000E+00  0.00000000E+00  0.00000000E+00  0.00000000E+00
  0.00000000E+00  0.00000000E+00  0.00000000E+00  0.00000000E+00  0.00000000E+00
  0.00000000E+00  0.00000000E+00  0.00000000E+00  0.00000000E+00  0.00000000E+00
  0.00000000E+00  0.00000000E+00  0.00000000E+00  0.00000000E+00  0.00000000E+00
  0.00000000E+00  0.00000000E+00  0.00000000E+00  0.00000000E+00  0.00000000E+00
  0.00000000E+00  0.00000000E+00  0.00000000E+00  0.00000000E+00  0.00000000E+00
  0.00000000E+00  0.00000000E+00  0.00000000E+00  0.00000000E+00  0.00000000E+00
  0.00000000E+00  0.00000000E+00  0.00000000E+00  0.00000000E+00  0.00000000E+00
  0.00000000E+00  0.00000000E+00  0.00000000E+00  0.00000000E+00  0.00000000E+00
  0.00000000E+00  0.00000000E+00  0.00000000E+00  0.00000000E+00  0.00000000E+00
  0.00000000E+00  0.00000000E+00  0.00000000E+00  0.00000000E+00  0.00000000E+00
  0.00000000E+00  0.00000000E+00  0.00000000E+00  0.00000000E+00  0.00000000E+00
  0.00000000E+00  0.00000000E+00  0.00000000E+00  0.00000000E+00  0.00000000E+00
  0.00000000E+00  0.00000000E+00  0.00000000E+00  0.00000000E+00  0.00000000E+00
  0.00000000E+00  0.00000000E+00  0.00000000E+00  0.00000000E+00  0.00000000E+00
  0.00000000E+00  0.00000000E+00  0.00000000E+00  0.00000000E+00  0.00000000E+00
  0.00000000E+00  0.00000000E+00  0.00000000E+00  0.00000000E+00  0.00000000E+00
  0.00000000E+00  0.00000000E+00  0.00000000E+00  0.00000000E+00  0.00000000E+00
  0.00000000E+00  0.00000000E+00  0.00000000E+00  0.00000000E+00  0.00000000E+00
  0.00000000E+00  0.00000000E+00  0.00000000E+00  0.00000000E+00  0.00000000E+00
  0.00000000E+00  0.00000000E+00  0.00000000E+00  0.00000000E+00  0.00000000E+00
  0.00000000E+00  0.00000000E+00  0.00000000E+00  0.00000000E+00  0.00000000E+00
  0.00000000E+00  0.00000000E+00  0.00000000E+00  0.00000000E+00  0.00000000E+00
  0.00000000E+00  0.00000000E+00  0.00000000E+00  0.00000000E+00  0.00000000E+00
  0.00000000E+00  0.00000000E+00  0.00000000E+00  0.00000000E+00  0.00000000E+00
  0.00000000E+00  0.00000000E+00  0.00000000E+00  0.00000000E+00  0.00000000E+00
  0.00000000E+00  0.00000000E+00  0.00000000E+00  0.00000000E+00  0.00000000E+00
  0.00000000E+00  0.00000000E+00  0.00000000E+00  0.00000000E+00  0.00000000E+00
  0.00000000E+00  0.00000000E+00  0.00000000E+00  0.00000000E+00  0.00000000E+00
  0.00000000E+00  0.00000000E+00  0.00000000E+00  0.00000000E+00  0.00000000E+00
  0.00000000E+00  0.00000000E+00  0.00000000E+00  0.00000000E+00  0.00000000E+00
  0.00000000E+00  0.00000000E+00  0.00000000E+00  0.00000000E+00  0.00000000E+00
  0.00000000E+00  0.00000000E+00  0.00000000E+00  0.00000000E+00  0.00000000E+00
  0.00000000E+00  0.00000000E+00  0.00000000E+00  0.00000000E+00  0.00000000E+00
  0.00000000E+00  0.00000000E+00  0.00000000E+00  0.00000000E+00  0.00000000E+00
  0.00000000E+00  0.00000000E+00  0.00000000E+00  0.00000000E+00  0.00000000E+00
  0.00000000E+00  0.00000000E+00  0.00000000E+00  0.00000000E+00  0.00000000E+00
  0.00000000E+00  0.00000000E+00  0.00000000E+00  0.00000000E+00  0.00000000E+00
  0.00000000E+00  0.00000000E+00  0.00000000E+00  0.00000000E+00  0.00000000E+00
  0.00000000E+00  0.00000000E+00  0.00000000E+00  0.00000000E+00  0.00000000E+00
  0.00000000E+00  0.00000000E+00  0.00000000E+00  0.00000000E+00  0.00000000E+00
  0.00000000E+00  0.00000000E+00  0.00000000E+00  0.00000000E+00  0.00000000E+00
  0.00000000E+00  0.00000000E+00  0.00000000E+00  0.00000000E+00  0.00000000E+00
  0.00000000E+00  0.00000000E+00  0.00000000E+00  0.00000000E+00  0.00000000E+00
  0.00000000E+00  0.00000000E+00  0.00000000E+00  0.00000000E+00  0.00000000E+00
  0.00000000E+00  0.00000000E+00  0.00000000E+00  0.00000000E+00  0.00000000E+00
  0.00000000E+00  0.00000000E+00  0.00000000E+00  0.00000000E+00  0.00000000E+00
  0.00000000E+00  0.00000000E+00  0.00000000E+00  0.00000000E+00  0.00000000E+00
  0.00000000E+00  0.00000000E+00  0.00000000E+00  0.00000000E+00  0.00000000E+00
  0.00000000E+00  0.00000000E+00  0.00000000E+00  0.00000000E+00  0.00000000E+00
  0.00000000E+00  0.00000000E+00  0.00000000E+00  0.00000000E+00  0.00000000E+00
  0.00000000E+00  0.00000000E+00  0.00000000E+00  0.00000000E+00  0.00000000E+00
  0.00000000E+00  0.00000000E+00  0.00000000E+00  0.00000000E+00  0.00000000E+00
  0.00000000E+00  0.00000000E+00  0.00000000E+00  0.00000000E+00  0.00000000E+00
  0.00000000E+00  0.00000000E+00  0.00000000E+00  0.00000000E+00  0.00000000E+00
  0.00000000E+00  0.00000000E+00  0.00000000E+00  0.00000000E+00  0.00000000E+00
  0.00000000E+00  0.00000000E+00  0.00000000E+00  0.00000000E+00  0.00000000E+00
  0.00000000E+00  0.00000000E+00  0.00000000E+00  0.00000000E+00  0.00000000E+00
  0.00000000E+00  0.00000000E+00  0.00000000E+00  0.00000000E+00  0.00000000E+00
  0.00000000E+00  0.00000000E+00  0.00000000E+00  0.00000000E+00  0.00000000E+00
  0.00000000E+00  0.00000000E+00  0.00000000E+00  0.00000000E+00  0.00000000E+00
  0.00000000E+00  0.00000000E+00  0.00000000E+00  0.00000000E+00  0.00000000E+00
  0.00000000E+00  0.00000000E+00  0.00000000E+00  0.00000000E+00  0.00000000E+00
  0.00000000E+00  0.00000000E+00  0.00000000E+00  0.00000000E+00  0.00000000E+00
  0.00000000E+00  0.00000000E+00  0.00000000E+00  0.00000000E+00  0.00000000E+00
  0.00000000E+00  0.00000000E+00  0.00000000E+00  0.00000000E+00  0.00000000E+00
  0.00000000E+00  0.00000000E+00  0.00000000E+00  0.00000000E+00  0.00000000E+00
  0.00000000E+00  0.00000000E+00  0.00000000E+00  0.00000000E+00  0.00000000E+00
  0.00000000E+00  0.00000000E+00  0.00000000E+00  0.00000000E+00  0.00000000E+00
  0.00000000E+00  0.00000000E+00  0.00000000E+00  0.00000000E+00  0.00000000E+00
  0.00000000E+00  0.00000000E+00  0.00000000E+00  0.00000000E+00  0.00000000E+00
  0.00000000E+00  0.00000000E+00  0.00000000E+00  0.00000000E+00  0.00000000E+00
  0.00000000E+00  0.00000000E+00  0.00000000E+00  0.00000000E+00  0.00000000E+00
  0.00000000E+00  0.00000000E+00  0.00000000E+00  0.00000000E+00  0.00000000E+00
  0.00000000E+00  0.00000000E+00  0.00000000E+00  0.00000000E+00  0.00000000E+00
  0.00000000E+00  0.00000000E+00  0.00000000E+00  0.00000000E+00  0.00000000E+00
  0.00000000E+00  0.00000000E+00  0.00000000E+00  0.00000000E+00  0.00000000E+00
  0.00000000E+00  0.00000000E+00  0.00000000E+00  0.00000000E+00  0.00000000E+00
  0.00000000E+00  0.00000000E+00  0.00000000E+00  0.00000000E+00  0.00000000E+00
  0.00000000E+00  0.00000000E+00  0.00000000E+00  0.00000000E+00  0.00000000E+00
  0.00000000E+00  0.00000000E+00  0.00000000E+00  0.00000000E+00  0.00000000E+00
  0.00000000E+00  0.00000000E+00  0.00000000E+00  0.00000000E+00  0.00000000E+00
  0.00000000E+00  0.00000000E+00  0.00000000E+00  0.00000000E+00  0.00000000E+00
  0.00000000E+00  0.00000000E+00  0.00000000E+00  0.00000000E+00  0.00000000E+00
  0.00000000E+00  0.00000000E+00  0.00000000E+00  0.00000000E+00  0.00000000E+00
  0.00000000E+00  0.00000000E+00  0.00000000E+00  0.00000000E+00  0.00000000E+00
  0.00000000E+00  0.00000000E+00  0.00000000E+00  0.00000000E+00  0.00000000E+00
  0.00000000E+00  0.00000000E+00  0.00000000E+00  0.00000000E+00  0.00000000E+00
  0.00000000E+00  0.00000000E+00  0.00000000E+00  0.00000000E+00  0.00000000E+00
  0.00000000E+00  0.00000000E+00  0.00000000E+00  0.00000000E+00  0.00000000E+00
  0.00000000E+00  0.00000000E+00  0.00000000E+00  0.00000000E+00  0.00000000E+00
  0.00000000E+00  0.00000000E+00  0.00000000E+00  0.00000000E+00  0.00000000E+00
  0.00000000E+00  0.00000000E+00  0.00000000E+00  0.00000000E+00  0.00000000E+00
  0.00000000E+00  0.00000000E+00  0.00000000E+00  0.00000000E+00  0.00000000E+00
  0.00000000E+00  0.00000000E+00  0.00000000E+00  0.00000000E+00  0.00000000E+00
  0.00000000E+00  0.00000000E+00  0.00000000E+00  0.00000000E+00  0.00000000E+00
  0.00000000E+00  0.00000000E+00  0.00000000E+00  0.00000000E+00  0.00000000E+00
  0.00000000E+00  0.00000000E+00  0.00000000E+00  0.00000000E+00  0.00000000E+00
  0.00000000E+00  0.00000000E+00  0.00000000E+00  0.00000000E+00  0.00000000E+00
  0.00000000E+00  0.00000000E+00  0.00000000E+00  0.00000000E+00  0.00000000E+00
  0.00000000E+00  0.00000000E+00  0.00000000E+00  0.00000000E+00  0.00000000E+00
  0.00000000E+00  0.00000000E+00  0.00000000E+00  0.00000000E+00  0.00000000E+00
  0.00000000E+00  0.00000000E+00  0.00000000E+00  0.00000000E+00  0.00000000E+00
  0.00000000E+00  0.00000000E+00  0.00000000E+00  0.00000000E+00  0.00000000E+00
  0.00000000E+00  0.00000000E+00  0.00000000E+00  0.00000000E+00  0.00000000E+00
  0.00000000E+00  0.00000000E+00  0.00000000E+00  0.00000000E+00  0.00000000E+00
  0.00000000E+00  0.00000000E+00  0.00000000E+00  0.00000000E+00  0.00000000E+00
  0.00000000E+00  0.00000000E+00  0.00000000E+00  0.00000000E+00  0.00000000E+00
  0.00000000E+00  0.00000000E+00  0.00000000E+00  0.00000000E+00  0.00000000E+00
  0.00000000E+00  0.00000000E+00  0.00000000E+00  0.00000000E+00  0.00000000E+00
  0.00000000E+00  0.00000000E+00  0.00000000E+00  0.00000000E+00  0.00000000E+00
  0.00000000E+00  0.00000000E+00  0.00000000E+00  0.00000000E+00  0.00000000E+00
  0.00000000E+00  0.00000000E+00  0.00000000E+00  0.00000000E+00  0.00000000E+00
  0.00000000E+00  0.00000000E+00  0.00000000E+00  0.00000000E+00  0.00000000E+00
  0.00000000E+00  0.00000000E+00  0.00000000E+00  0.00000000E+00  0.00000000E+00
  0.00000000E+00  0.00000000E+00  0.00000000E+00  0.00000000E+00  0.00000000E+00
  0.00000000E+00  0.00000000E+00  0.00000000E+00  0.00000000E+00  0.00000000E+00
  0.00000000E+00  0.00000000E+00  0.00000000E+00  0.00000000E+00  0.00000000E+00
  0.00000000E+00  0.00000000E+00  0.00000000E+00  0.00000000E+00  0.00000000E+00
  0.00000000E+00  0.00000000E+00  0.00000000E+00  0.00000000E+00  0.00000000E+00
  0.00000000E+00  0.00000000E+00  0.00000000E+00  0.00000000E+00  0.00000000E+00
  0.00000000E+00  0.00000000E+00  0.00000000E+00  0.00000000E+00  0.00000000E+00
  0.00000000E+00  0.00000000E+00  0.00000000E+00  0.00000000E+00  0.00000000E+00
  0.00000000E+00  0.00000000E+00  0.00000000E+00  0.00000000E+00  0.00000000E+00
  0.00000000E+00  0.00000000E+00  0.00000000E+00  0.00000000E+00  0.00000000E+00
  0.00000000E+00  0.00000000E+00  0.00000000E+00  0.00000000E+00  0.00000000E+00
  0.00000000E+00  0.00000000E+00  0.00000000E+00  0.00000000E+00  0.00000000E+00
  0.00000000E+00  0.00000000E+00  0.00000000E+00  0.00000000E+00  0.00000000E+00
  0.00000000E+00  0.00000000E+00  0.00000000E+00  0.00000000E+00  0.00000000E+00
  0.00000000E+00  0.00000000E+00  0.00000000E+00  0.00000000E+00  0.00000000E+00
  0.00000000E+00  0.00000000E+00  0.00000000E+00  0.00000000E+00  0.00000000E+00
  0.00000000E+00  0.00000000E+00  0.00000000E+00  0.00000000E+00  0.00000000E+00
  0.00000000E+00  0.00000000E+00  0.00000000E+00  0.00000000E+00  0.00000000E+00
  0.00000000E+00  0.00000000E+00  0.00000000E+00  0.00000000E+00  0.00000000E+00
  0.00000000E+00  0.00000000E+00  0.00000000E+00  0.00000000E+00  0.00000000E+00
  0.00000000E+00  0.00000000E+00  0.00000000E+00  0.00000000E+00  0.00000000E+00
  0.00000000E+00  0.00000000E+00  0.00000000E+00  0.00000000E+00  0.00000000E+00
  0.00000000E+00  0.00000000E+00  0.00000000E+00  0.00000000E+00  0.00000000E+00
  0.00000000E+00  0.00000000E+00  0.00000000E+00  0.00000000E+00  0.00000000E+00
  0.00000000E+00  0.00000000E+00  0.00000000E+00  0.00000000E+00  0.00000000E+00
  0.00000000E+00  0.00000000E+00  0.00000000E+00  0.00000000E+00  0.00000000E+00
  0.00000000E+00  0.00000000E+00  0.00000000E+00  0.00000000E+00  0.00000000E+00
  0.00000000E+00  0.00000000E+00  0.00000000E+00  0.00000000E+00  0.00000000E+00
  0.00000000E+00  0.00000000E+00  0.00000000E+00  0.00000000E+00  0.00000000E+00
  0.00000000E+00  0.00000000E+00  0.00000000E+00  0.00000000E+00  0.00000000E+00
  0.00000000E+00  0.00000000E+00  0.00000000E+00  0.00000000E+00  0.00000000E+00
  0.00000000E+00  0.00000000E+00  0.00000000E+00  0.00000000E+00  0.00000000E+00
  0.00000000E+00  0.00000000E+00  0.00000000E+00  0.00000000E+00  0.00000000E+00
  0.00000000E+00  0.00000000E+00  0.00000000E+00  0.00000000E+00  0.00000000E+00
  0.00000000E+00  0.00000000E+00  0.00000000E+00  0.00000000E+00  0.00000000E+00
  0.00000000E+00  0.00000000E+00  0.00000000E+00  0.00000000E+00  0.00000000E+00
  0.00000000E+00  0.00000000E+00  0.00000000E+00  0.00000000E+00  0.00000000E+00
  0.00000000E+00  0.00000000E+00  0.00000000E+00  0.00000000E+00  0.00000000E+00
  0.00000000E+00  0.00000000E+00  0.00000000E+00  0.00000000E+00  0.00000000E+00
  0.00000000E+00  0.00000000E+00  0.00000000E+00  0.00000000E+00  0.00000000E+00
  0.00000000E+00  0.00000000E+00  0.00000000E+00  0.00000000E+00  0.00000000E+00
  0.00000000E+00  0.00000000E+00  0.00000000E+00  0.00000000E+00  0.00000000E+00
  0.00000000E+00  0.00000000E+00  0.00000000E+00  0.00000000E+00  0.00000000E+00
  0.00000000E+00  0.00000000E+00  0.00000000E+00  0.00000000E+00  0.00000000E+00
  0.00000000E+00  0.00000000E+00  0.00000000E+00  0.00000000E+00  0.00000000E+00
  0.00000000E+00  0.00000000E+00  0.00000000E+00  0.00000000E+00  0.00000000E+00
  0.00000000E+00  0.00000000E+00  0.00000000E+00  0.00000000E+00  0.00000000E+00
  0.00000000E+00  0.00000000E+00  0.00000000E+00  0.00000000E+00  0.00000000E+00
  0.00000000E+00  0.00000000E+00  0.00000000E+00  0.00000000E+00  0.00000000E+00
  0.00000000E+00  0.00000000E+00  0.00000000E+00  0.00000000E+00  0.00000000E+00
  0.00000000E+00  0.00000000E+00  0.00000000E+00  0.00000000E+00  0.00000000E+00
  0.00000000E+00  0.00000000E+00  0.00000000E+00  0.00000000E+00  0.00000000E+00
  0.00000000E+00  0.00000000E+00  0.00000000E+00  0.00000000E+00  0.00000000E+00
  0.00000000E+00  0.00000000E+00  0.00000000E+00  0.00000000E+00  0.00000000E+00
  0.00000000E+00  0.00000000E+00  0.00000000E+00  0.00000000E+00  0.00000000E+00
  0.00000000E+00  0.00000000E+00  0.00000000E+00  0.00000000E+00  0.00000000E+00
  0.00000000E+00  0.00000000E+00  0.00000000E+00  0.00000000E+00  0.00000000E+00
  0.00000000E+00  0.00000000E+00  0.00000000E+00  0.00000000E+00  0.00000000E+00
  0.00000000E+00  0.00000000E+00  0.00000000E+00  0.00000000E+00  0.00000000E+00
  0.00000000E+00  0.00000000E+00  0.00000000E+00  0.00000000E+00  0.00000000E+00
  0.00000000E+00  0.00000000E+00  0.00000000E+00  0.00000000E+00  0.00000000E+00
  0.00000000E+00  0.00000000E+00  0.00000000E+00  0.00000000E+00  0.00000000E+00
  0.00000000E+00  0.00000000E+00  0.00000000E+00  0.00000000E+00  0.00000000E+00
  0.00000000E+00  0.00000000E+00  0.00000000E+00  0.00000000E+00  0.00000000E+00
  0.00000000E+00  0.00000000E+00  0.00000000E+00  0.00000000E+00  0.00000000E+00
  0.00000000E+00  0.00000000E+00  0.00000000E+00  0.00000000E+00  0.00000000E+00
  0.00000000E+00  0.00000000E+00  0.00000000E+00  0.00000000E+00  0.00000000E+00
  0.00000000E+00  0.00000000E+00  0.00000000E+00  0.00000000E+00  0.00000000E+00
  0.00000000E+00  0.00000000E+00  0.00000000E+00  0.00000000E+00  0.00000000E+00
  0.00000000E+00  0.00000000E+00  0.00000000E+00  0.00000000E+00  0.00000000E+00
  0.00000000E+00  0.00000000E+00  0.00000000E+00  0.00000000E+00  0.00000000E+00
  0.00000000E+00  0.00000000E+00  0.00000000E+00  0.00000000E+00  0.00000000E+00
  0.00000000E+00  0.00000000E+00  0.00000000E+00  0.00000000E+00  0.00000000E+00
  0.00000000E+00  0.00000000E+00  0.00000000E+00  0.00000000E+00  0.00000000E+00
  0.00000000E+00  0.00000000E+00  0.00000000E+00  0.00000000E+00  0.00000000E+00
  0.00000000E+00  0.00000000E+00  0.00000000E+00  0.00000000E+00  0.00000000E+00
  0.00000000E+00  0.00000000E+00  0.00000000E+00  0.00000000E+00  0.00000000E+00
  0.00000000E+00  0.00000000E+00  0.00000000E+00  0.00000000E+00  0.00000000E+00
  0.00000000E+00  0.00000000E+00  0.00000000E+00  0.00000000E+00  0.00000000E+00
  0.00000000E+00  0.00000000E+00  0.00000000E+00  0.00000000E+00  0.00000000E+00
  0.00000000E+00  0.00000000E+00  0.00000000E+00  0.00000000E+00  0.00000000E+00
  0.00000000E+00  0.00000000E+00  0.00000000E+00  0.00000000E+00  0.00000000E+00
  0.00000000E+00  0.00000000E+00  0.00000000E+00  0.00000000E+00  0.00000000E+00
  0.00000000E+00  0.00000000E+00  0.00000000E+00  0.00000000E+00  0.00000000E+00
  0.00000000E+00  0.00000000E+00  0.00000000E+00  0.00000000E+00  0.00000000E+00
  0.00000000E+00  0.00000000E+00  0.00000000E+00  0.00000000E+00  0.00000000E+00
  0.00000000E+00  0.00000000E+00  0.00000000E+00  0.00000000E+00  0.00000000E+00
  0.00000000E+00  0.00000000E+00  0.00000000E+00  0.00000000E+00  0.00000000E+00
  0.00000000E+00  0.00000000E+00  0.00000000E+00  0.00000000E+00  0.00000000E+00
  0.00000000E+00  0.00000000E+00  0.00000000E+00  0.00000000E+00  0.00000000E+00
  0.00000000E+00  0.00000000E+00  0.00000000E+00  0.00000000E+00  0.00000000E+00
  0.00000000E+00  0.00000000E+00  0.00000000E+00  0.00000000E+00  0.00000000E+00
  0.00000000E+00  0.00000000E+00  0.00000000E+00  0.00000000E+00  0.00000000E+00
  0.00000000E+00  0.00000000E+00  0.00000000E+00  0.00000000E+00  0.00000000E+00
  0.00000000E+00  0.00000000E+00  0.00000000E+00  0.00000000E+00  0.00000000E+00
  0.00000000E+00  0.00000000E+00  0.00000000E+00  0.00000000E+00  0.00000000E+00
  0.00000000E+00  0.00000000E+00  0.00000000E+00  0.00000000E+00  0.00000000E+00
  0.00000000E+00  0.00000000E+00  0.00000000E+00  0.00000000E+00  0.00000000E+00
  0.00000000E+00  0.00000000E+00  0.00000000E+00  0.00000000E+00  0.00000000E+00
  0.00000000E+00  0.00000000E+00  0.00000000E+00  0.00000000E+00  0.00000000E+00
  0.00000000E+00  0.00000000E+00  0.00000000E+00  0.00000000E+00  0.00000000E+00
  0.00000000E+00  0.00000000E+00  0.00000000E+00  0.00000000E+00  0.00000000E+00
  0.00000000E+00  0.00000000E+00  0.00000000E+00  0.00000000E+00  0.00000000E+00
  0.00000000E+00  0.00000000E+00  0.00000000E+00  0.00000000E+00  0.00000000E+00
  0.00000000E+00  0.00000000E+00  0.00000000E+00  0.00000000E+00  0.00000000E+00
  0.00000000E+00  0.00000000E+00  0.00000000E+00  0.00000000E+00  0.00000000E+00
  0.00000000E+00  0.00000000E+00  0.00000000E+00  0.00000000E+00  0.00000000E+00
  0.00000000E+00  0.00000000E+00  0.00000000E+00  0.00000000E+00  0.00000000E+00
  0.00000000E+00  0.00000000E+00  0.00000000E+00  0.00000000E+00  0.00000000E+00
  0.00000000E+00  0.00000000E+00  0.00000000E+00  0.00000000E+00  0.00000000E+00
  0.00000000E+00  0.00000000E+00  0.00000000E+00  0.00000000E+00  0.00000000E+00
  0.00000000E+00  0.00000000E+00  0.00000000E+00  0.00000000E+00  0.00000000E+00
  0.00000000E+00  0.00000000E+00  0.00000000E+00  0.00000000E+00  0.00000000E+00
  0.00000000E+00  0.00000000E+00  0.00000000E+00  0.00000000E+00  0.00000000E+00
  0.00000000E+00  0.00000000E+00  0.00000000E+00  0.00000000E+00  0.00000000E+00
  0.00000000E+00  0.00000000E+00  0.00000000E+00  0.00000000E+00  0.00000000E+00
  0.00000000E+00  0.00000000E+00  0.00000000E+00  0.00000000E+00  0.00000000E+00
  0.00000000E+00  0.00000000E+00  0.00000000E+00  0.00000000E+00  0.00000000E+00
  0.00000000E+00  0.00000000E+00  0.00000000E+00  0.00000000E+00  0.00000000E+00
  0.00000000E+00  0.00000000E+00  0.00000000E+00  0.00000000E+00  0.00000000E+00
Gaussian Version                           C   N=           2
ES64L-G16RevC.01        
