 Entering Gaussian System, Link 0=g16
 Input=GauExternal.gjf
 Output=GauExternal.log
 Initial command:
 /gaussian/g16.c01/intel64-sandybridge/g16/l1.exe "/home/barone/lcrisci_vb/ACTUAL_PROJECTS/MRCC_new_Interface_project/TestingOldVersion/Symmetry/H2O_C2v/Iterations/Iteration_1/task_atom_1_ixyz_3_down/Gau-4152577.inp" -scrdir="/home/barone/lcrisci_vb/ACTUAL_PROJECTS/MRCC_new_Interface_project/TestingOldVersion/Symmetry/H2O_C2v/Iterations/Iteration_1/task_atom_1_ixyz_3_down/"
 Entering Link 1 = /gaussian/g16.c01/intel64-sandybridge/g16/l1.exe PID=   4152584.
  
 Copyright (c) 1988-2019, Gaussian, Inc.  All Rights Reserved.
  
 This is part of the Gaussian(R) 16 program.  It is based on
 the Gaussian(R) 09 system (copyright 2009, Gaussian, Inc.),
 the Gaussian(R) 03 system (copyright 2003, Gaussian, Inc.),
 the Gaussian(R) 98 system (copyright 1998, Gaussian, Inc.),
 the Gaussian(R) 94 system (copyright 1995, Gaussian, Inc.),
 the Gaussian 92(TM) system (copyright 1992, Gaussian, Inc.),
 the Gaussian 90(TM) system (copyright 1990, Gaussian, Inc.),
 the Gaussian 88(TM) system (copyright 1988, Gaussian, Inc.),
 the Gaussian 86(TM) system (copyright 1986, Carnegie Mellon
 University), and the Gaussian 82(TM) system (copyright 1983,
 Carnegie Mellon University). Gaussian is a federally registered
 trademark of Gaussian, Inc.
  
 This software contains proprietary and confidential information,
 including trade secrets, belonging to Gaussian, Inc.
  
 This software is provided under written license and may be
 used, copied, transmitted, or stored only in accord with that
 written license.
  
 The following legend is applicable only to US Government
 contracts under FAR:
  
                    RESTRICTED RIGHTS LEGEND
  
 Use, reproduction and disclosure by the US Government is
 subject to restrictions as set forth in subparagraphs (a)
 and (c) of the Commercial Computer Software - Restricted
 Rights clause in FAR 52.227-19.
  
 Gaussian, Inc.
 340 Quinnipiac St., Bldg. 40, Wallingford CT 06492
  
  
 ---------------------------------------------------------------
 Warning -- This program may not be used in any manner that
 competes with the business of Gaussian, Inc. or will provide
 assistance to any competitor of Gaussian, Inc.  The licensee
 of this program is prohibited from giving any competitor of
 Gaussian, Inc. access to this program.  By using this program,
 the user acknowledges that Gaussian, Inc. is engaged in the
 business of creating and licensing software in the field of
 computational chemistry and represents and warrants to the
 licensee that it is not a competitor of Gaussian, Inc. and that
 it will not use this program in any manner prohibited above.
 ---------------------------------------------------------------
  

 Cite this work as:
 Gaussian 16, Revision C.01,
 M. J. Frisch, G. W. Trucks, H. B. Schlegel, G. E. Scuseria, 
 M. A. Robb, J. R. Cheeseman, G. Scalmani, V. Barone, 
 G. A. Petersson, H. Nakatsuji, X. Li, M. Caricato, A. V. Marenich, 
 J. Bloino, B. G. Janesko, R. Gomperts, B. Mennucci, H. P. Hratchian, 
 J. V. Ortiz, A. F. Izmaylov, J. L. Sonnenberg, D. Williams-Young, 
 F. Ding, F. Lipparini, F. Egidi, J. Goings, B. Peng, A. Petrone, 
 T. Henderson, D. Ranasinghe, V. G. Zakrzewski, J. Gao, N. Rega, 
 G. Zheng, W. Liang, M. Hada, M. Ehara, K. Toyota, R. Fukuda, 
 J. Hasegawa, M. Ishida, T. Nakajima, Y. Honda, O. Kitao, H. Nakai, 
 T. Vreven, K. Throssell, J. A. Montgomery, Jr., J. E. Peralta, 
 F. Ogliaro, M. J. Bearpark, J. J. Heyd, E. N. Brothers, K. N. Kudin, 
 V. N. Staroverov, T. A. Keith, R. Kobayashi, J. Normand, 
 K. Raghavachari, A. P. Rendell, J. C. Burant, S. S. Iyengar, 
 J. Tomasi, M. Cossi, J. M. Millam, M. Klene, C. Adamo, R. Cammi, 
 J. W. Ochterski, R. L. Martin, K. Morokuma, O. Farkas, 
 J. B. Foresman, and D. J. Fox, Gaussian, Inc., Wallingford CT, 2019.
 
 ******************************************
 Gaussian 16:  ES64L-G16RevC.01  3-Jul-2019
                19-Nov-2025 
 ******************************************
 %nproc=7
 Will use up to    7 processors via shared memory.
 %mem=20GB
 %chk=GauExternal.chk
 --------------------
 #P hf/sto-3g scf=xqc
 --------------------
 1/38=1,172=1/1;
 2/12=2,17=6,18=5,40=1/2;
 3/6=3,11=9,25=1,30=1/1,2,3;
 4//1;
 5/5=2,8=3,13=1,38=5/2,8;
 6/7=2,8=2,9=2,10=2,28=1/1;
 99/5=1,9=1/99;
 Leave Link    1 at Wed Nov 19 18:11:01 2025, MaxMem=  2684354560 cpu:               0.0 elap:               0.3
 (Enter /gaussian/g16.c01/intel64-sandybridge/g16/l101.exe)
 --------------------
 External Calculation
 --------------------
 Symbolic Z-matrix:
 Charge =  0 Multiplicity = 1
 O                     0.        0.        0.10981 
 H                     0.        0.78398  -0.44325 
 H                     0.       -0.78398  -0.44325 
 
 ITRead=  0  0  0
 MicOpt= -1 -1 -1
 NAtoms=      3 NQM=        3 NQMF=       0 NMMI=      0 NMMIF=      0
                NMic=       0 NMicF=      0.
                    Isotopes and Nuclear Properties:
 (Nuclear quadrupole moments (NQMom) in fm**2, nuclear magnetic moments (NMagM)
  in nuclear magnetons)

  Atom         1           2           3
 IAtWgt=          16           1           1
 AtmWgt=  15.9949146   1.0078250   1.0078250
 NucSpn=           0           1           1
 AtZEff=  -0.0000000  -0.0000000  -0.0000000
 NQMom=    0.0000000   0.0000000   0.0000000
 NMagM=    0.0000000   2.7928460   2.7928460
 AtZNuc=   8.0000000   1.0000000   1.0000000
 Leave Link  101 at Wed Nov 19 18:11:01 2025, MaxMem=  2684354560 cpu:               0.1 elap:               0.2
 (Enter /gaussian/g16.c01/intel64-sandybridge/g16/l202.exe)
                          Input orientation:                          
 ---------------------------------------------------------------------
 Center     Atomic      Atomic             Coordinates (Angstroms)
 Number     Number       Type             X           Y           Z
 ---------------------------------------------------------------------
      1          8           0        0.000000    0.000000    0.109812
      2          1           0        0.000000    0.783976   -0.443248
      3          1           0        0.000000   -0.783976   -0.443248
 ---------------------------------------------------------------------
                    Distance matrix (angstroms):
                    1          2          3
     1  O    0.000000
     2  H    0.959423   0.000000
     3  H    0.959423   1.567952   0.000000
 Stoichiometry    H2O
 Framework group  C2V[C2(O),SGV(H2)]
 Deg. of freedom     2
 Full point group                 C2V     NOp   4
 Largest Abelian subgroup         C2V     NOp   4
 Largest concise Abelian subgroup C2      NOp   2
                         Standard orientation:                         
 ---------------------------------------------------------------------
 Center     Atomic      Atomic             Coordinates (Angstroms)
 Number     Number       Type             X           Y           Z
 ---------------------------------------------------------------------
      1          8           0        0.000000   -0.000000    0.110612
      2          1           0        0.000000    0.783976   -0.442448
      3          1           0       -0.000000   -0.783976   -0.442448
 ---------------------------------------------------------------------
 Rotational constants (GHZ):         923.0047239         407.9403341         282.9048826
 Leave Link  202 at Wed Nov 19 18:11:02 2025, MaxMem=  2684354560 cpu:               0.0 elap:               0.1
 (Enter /gaussian/g16.c01/intel64-sandybridge/g16/l301.exe)
 Standard basis: STO-3G (5D, 7F)
 Ernie: Thresh=  0.10000D-02 Tol=  0.10000D-05 Strict=F.
 There are     4 symmetry adapted cartesian basis functions of A1  symmetry.
 There are     0 symmetry adapted cartesian basis functions of A2  symmetry.
 There are     1 symmetry adapted cartesian basis functions of B1  symmetry.
 There are     2 symmetry adapted cartesian basis functions of B2  symmetry.
 There are     4 symmetry adapted basis functions of A1  symmetry.
 There are     0 symmetry adapted basis functions of A2  symmetry.
 There are     1 symmetry adapted basis functions of B1  symmetry.
 There are     2 symmetry adapted basis functions of B2  symmetry.
     7 basis functions,    21 primitive gaussians,     7 cartesian basis functions
     5 alpha electrons        5 beta electrons
       nuclear repulsion energy         9.1624182955 Hartrees.
 IExCor=    0 DFT=F Ex=HF Corr=None ExCW=0 ScaHFX=  1.000000
 ScaDFX=  1.000000  1.000000  1.000000  1.000000 ScalE2=  1.000000  1.000000
 IRadAn=      5 IRanWt=     -1 IRanGd=            0 ICorTp=0 IEmpDi=  4
 NAtoms=    3 NActive=    3 NUniq=    2 SFac= 2.25D+00 NAtFMM=   60 NAOKFM=F Big=F
 Integral buffers will be    131072 words long.
 Raffenetti 1 integral format.
 Two-electron integral symmetry is turned on.
 Leave Link  301 at Wed Nov 19 18:11:02 2025, MaxMem=  2684354560 cpu:               0.0 elap:               0.1
 (Enter /gaussian/g16.c01/intel64-sandybridge/g16/l302.exe)
 NPDir=0 NMtPBC=     1 NCelOv=     1 NCel=       1 NClECP=     1 NCelD=      1
         NCelK=      1 NCelE2=     1 NClLst=     1 CellRange=     0.0.
 One-electron integrals computed using PRISM.
 One-electron integral symmetry used in STVInt
 NBasis=     7 RedAO= T EigKep=  3.45D-01  NBF=     4     0     1     2
 NBsUse=     7 1.00D-06 EigRej= -1.00D+00 NBFU=     4     0     1     2
 Leave Link  302 at Wed Nov 19 18:11:02 2025, MaxMem=  2684354560 cpu:               0.2 elap:               0.1
 (Enter /gaussian/g16.c01/intel64-sandybridge/g16/l303.exe)
 DipDrv:  MaxL=1.
 Leave Link  303 at Wed Nov 19 18:11:02 2025, MaxMem=  2684354560 cpu:               0.0 elap:               0.1
 (Enter /gaussian/g16.c01/intel64-sandybridge/g16/l401.exe)
 ExpMin= 1.69D-01 ExpMax= 1.31D+02 ExpMxC= 1.31D+02 IAcc=3 IRadAn=         5 AccDes= 0.00D+00
 Harris functional with IExCor=  205 and IRadAn=       5 diagonalized for initial guess.
 HarFok:  IExCor=  205 AccDes= 0.00D+00 IRadAn=         5 IDoV= 1 UseB2=F ITyADJ=14
 ICtDFT=  3500011 ScaDFX=  1.000000  1.000000  1.000000  1.000000
 FoFCou: FMM=F IPFlag=           0 FMFlag=      100000 FMFlg1=           0
         NFxFlg=           0 DoJE=T BraDBF=F KetDBF=T FulRan=T
         wScrn=  0.000000 ICntrl=       500 IOpCl=  0 I1Cent=   200000004 NGrid=           0
         NMat0=    1 NMatS0=      1 NMatT0=    0 NMatD0=    1 NMtDS0=    0 NMtDT0=    0
 Petite list used in FoFCou.
 Harris En= -75.0355800204068    
 JPrj=0 DoOrth=F DoCkMO=F.
 Initial guess orbital symmetries:
       Occupied  (A1) (A1) (B2) (A1) (B1)
       Virtual   (A1) (B2)
 The electronic state of the initial guess is 1-A1.
 Leave Link  401 at Wed Nov 19 18:11:03 2025, MaxMem=  2684354560 cpu:               0.3 elap:               0.1
 (Enter /gaussian/g16.c01/intel64-sandybridge/g16/l502.exe)
 Keep R1 ints in memory in symmetry-blocked form, NReq=803179.
 FoFCou: FMM=F IPFlag=           0 FMFlag=           0 FMFlg1=           0
         NFxFlg=           0 DoJE=F BraDBF=F KetDBF=F FulRan=T
         wScrn=  0.000000 ICntrl=       600 IOpCl=  0 I1Cent=           0 NGrid=           0
         NMat0=    1 NMatS0=     28 NMatT0=    0 NMatD0=    1 NMtDS0=    0 NMtDT0=    0
 Petite list used in FoFCou.
 Closed shell SCF:
 Using DIIS extrapolation, IDIIS=  1040.
 NGot=  2684354560 LenX=  2684352617 LenY=  2684351735
 Requested convergence on RMS density matrix=1.00D-08 within  32 cycles.
 Requested convergence on MAX density matrix=1.00D-06.
 Requested convergence on             energy=1.00D-06.
 No special actions if energy rises.

 Cycle   1  Pass 1  IDiag  1:
 E= -74.9078048382044    
 DIIS: error= 7.72D-02 at cycle   1 NSaved=   1.
 NSaved= 1 IEnMin= 1 EnMin= -74.9078048382044     IErMin= 1 ErrMin= 7.72D-02
 ErrMax= 7.72D-02  0.00D+00 EMaxC= 1.00D-01 BMatC= 3.93D-02 BMatP= 3.93D-02
 IDIUse=3 WtCom= 2.28D-01 WtEn= 7.72D-01
 Coeff-Com:  0.100D+01
 Coeff-En:   0.100D+01
 Coeff:      0.100D+01
 Gap=     0.881 Goal=   None    Shift=    0.000
 GapD=    0.881 DampG=2.000 DampE=0.500 DampFc=1.0000 IDamp=-1.
 RMSDP=4.02D-02 MaxDP=1.43D-01              OVMax= 0.00D+00

 Cycle   2  Pass 1  IDiag  1:
 E= -74.9601951056561     Delta-E=       -0.052390267452 Rises=F Damp=F
 DIIS: error= 6.26D-03 at cycle   2 NSaved=   2.
 NSaved= 2 IEnMin= 2 EnMin= -74.9601951056561     IErMin= 2 ErrMin= 6.26D-03
 ErrMax= 6.26D-03  0.00D+00 EMaxC= 1.00D-01 BMatC= 3.45D-04 BMatP= 3.93D-02
 IDIUse=3 WtCom= 9.37D-01 WtEn= 6.26D-02
 Coeff-Com:  0.496D-01 0.950D+00
 Coeff-En:   0.000D+00 0.100D+01
 Coeff:      0.465D-01 0.953D+00
 Gap=     0.980 Goal=   None    Shift=    0.000
 RMSDP=2.78D-03 MaxDP=1.15D-02 DE=-5.24D-02 OVMax= 0.00D+00

 Cycle   3  Pass 1  IDiag  1:
 E= -74.9605463701800     Delta-E=       -0.000351264524 Rises=F Damp=F
 DIIS: error= 1.15D-03 at cycle   3 NSaved=   3.
 NSaved= 3 IEnMin= 3 EnMin= -74.9605463701800     IErMin= 3 ErrMin= 1.15D-03
 ErrMax= 1.15D-03  0.00D+00 EMaxC= 1.00D-01 BMatC= 9.42D-06 BMatP= 3.45D-04
 IDIUse=3 WtCom= 9.89D-01 WtEn= 1.15D-02
 Coeff-Com: -0.104D-01-0.177D+00 0.119D+01
 Coeff-En:   0.000D+00 0.000D+00 0.100D+01
 Coeff:     -0.103D-01-0.175D+00 0.118D+01
 Gap=     0.980 Goal=   None    Shift=    0.000
 RMSDP=9.19D-04 MaxDP=3.97D-03 DE=-3.51D-04 OVMax= 0.00D+00

 Cycle   4  Pass 1  IDiag  1:
 E= -74.9605628180364     Delta-E=       -0.000016447856 Rises=F Damp=F
 DIIS: error= 1.86D-04 at cycle   4 NSaved=   4.
 NSaved= 4 IEnMin= 4 EnMin= -74.9605628180364     IErMin= 4 ErrMin= 1.86D-04
 ErrMax= 1.86D-04  0.00D+00 EMaxC= 1.00D-01 BMatC= 2.70D-07 BMatP= 9.42D-06
 IDIUse=3 WtCom= 9.98D-01 WtEn= 1.86D-03
 Coeff-Com:  0.150D-02 0.136D-01-0.231D+00 0.122D+01
 Coeff-En:   0.000D+00 0.000D+00 0.000D+00 0.100D+01
 Coeff:      0.150D-02 0.136D-01-0.231D+00 0.122D+01
 Gap=     0.980 Goal=   None    Shift=    0.000
 RMSDP=2.08D-04 MaxDP=8.24D-04 DE=-1.64D-05 OVMax= 0.00D+00

 Cycle   5  Pass 1  IDiag  1:
 E= -74.9605634716066     Delta-E=       -0.000000653570 Rises=F Damp=F
 DIIS: error= 3.43D-05 at cycle   5 NSaved=   5.
 NSaved= 5 IEnMin= 5 EnMin= -74.9605634716066     IErMin= 5 ErrMin= 3.43D-05
 ErrMax= 3.43D-05  0.00D+00 EMaxC= 1.00D-01 BMatC= 1.41D-08 BMatP= 2.70D-07
 IDIUse=1 WtCom= 1.00D+00 WtEn= 0.00D+00
 Coeff-Com: -0.623D-03-0.493D-02 0.123D+00-0.796D+00 0.168D+01
 Coeff:     -0.623D-03-0.493D-02 0.123D+00-0.796D+00 0.168D+01
 Gap=     0.980 Goal=   None    Shift=    0.000
 RMSDP=6.23D-05 MaxDP=1.90D-04 DE=-6.54D-07 OVMax= 0.00D+00

 Cycle   6  Pass 1  IDiag  1:
 E= -74.9605635156252     Delta-E=       -0.000000044019 Rises=F Damp=F
 DIIS: error= 2.04D-07 at cycle   6 NSaved=   6.
 NSaved= 6 IEnMin= 6 EnMin= -74.9605635156252     IErMin= 6 ErrMin= 2.04D-07
 ErrMax= 2.04D-07  0.00D+00 EMaxC= 1.00D-01 BMatC= 4.03D-13 BMatP= 1.41D-08
 IDIUse=1 WtCom= 1.00D+00 WtEn= 0.00D+00
 Coeff-Com: -0.230D-07-0.154D-04 0.413D-03-0.305D-02 0.111D-01 0.992D+00
 Coeff:     -0.230D-07-0.154D-04 0.413D-03-0.305D-02 0.111D-01 0.992D+00
 Gap=     0.980 Goal=   None    Shift=    0.000
 RMSDP=2.76D-07 MaxDP=9.61D-07 DE=-4.40D-08 OVMax= 0.00D+00

 Cycle   7  Pass 1  IDiag  1:
 E= -74.9605635156262     Delta-E=       -0.000000000001 Rises=F Damp=F
 DIIS: error= 2.04D-10 at cycle   7 NSaved=   7.
 NSaved= 7 IEnMin= 7 EnMin= -74.9605635156262     IErMin= 7 ErrMin= 2.04D-10
 ErrMax= 2.04D-10  0.00D+00 EMaxC= 1.00D-01 BMatC= 3.53D-19 BMatP= 4.03D-13
 IDIUse=1 WtCom= 1.00D+00 WtEn= 0.00D+00
 Coeff-Com:  0.831D-10 0.112D-07 0.422D-06-0.496D-05 0.172D-04 0.161D-02
 Coeff-Com:  0.998D+00
 Coeff:      0.831D-10 0.112D-07 0.422D-06-0.496D-05 0.172D-04 0.161D-02
 Coeff:      0.998D+00
 Gap=     0.980 Goal=   None    Shift=    0.000
 RMSDP=2.45D-10 MaxDP=7.69D-10 DE=-9.95D-13 OVMax= 0.00D+00

 SCF Done:  E(RHF) =  -74.9605635156     A.U. after    7 cycles
            NFock=  7  Conv=0.24D-09     -V/T= 2.0050
 KE= 7.458547603898D+01 PE=-1.969379230891D+02 EE= 3.822946523899D+01
 Leave Link  502 at Wed Nov 19 18:11:03 2025, MaxMem=  2684354560 cpu:               0.5 elap:               0.4
 (Enter /gaussian/g16.c01/intel64-sandybridge/g16/l508.exe)
 QCSCF skips out because SCF is already converged.
 Leave Link  508 at Wed Nov 19 18:11:03 2025, MaxMem=  2684354560 cpu:               0.0 elap:               0.1
 (Enter /gaussian/g16.c01/intel64-sandybridge/g16/l601.exe)
 Copying SCF densities to generalized density rwf, IOpCl= 0 IROHF=0.

 **********************************************************************

            Population analysis using the SCF Density.

 **********************************************************************

 Orbital symmetries:
       Occupied  (A1) (A1) (B2) (A1) (B1)
       Virtual   (A1) (B2)
 The electronic state is 1-A1.
 Alpha  occ. eigenvalues --  -20.23426  -1.26091  -0.62442  -0.44027  -0.38689
 Alpha virt. eigenvalues --    0.59327   0.75519
          Condensed to atoms (all electrons):
               1          2          3
     1  O    7.839566   0.266850   0.266850
     2  H    0.266850   0.591048  -0.044530
     3  H    0.266850  -0.044530   0.591048
 Mulliken charges:
               1
     1  O   -0.373266
     2  H    0.186633
     3  H    0.186633
 Sum of Mulliken charges =  -0.00000
 Mulliken charges with hydrogens summed into heavy atoms:
               1
     1  O   -0.000000
 Electronic spatial extent (au):  <R**2>=             17.8443
 Charge=             -0.0000 electrons
 Dipole moment (field-independent basis, Debye):
    X=             -0.0000    Y=              0.0000    Z=             -1.6888  Tot=              1.6888
 Quadrupole moment (field-independent basis, Debye-Ang):
   XX=             -6.0915   YY=             -4.1927   ZZ=             -5.4621
   XY=              0.0000   XZ=              0.0000   YZ=              0.0000
 Traceless Quadrupole moment (field-independent basis, Debye-Ang):
   XX=             -0.8427   YY=              1.0560   ZZ=             -0.2133
   XY=              0.0000   XZ=              0.0000   YZ=              0.0000
 Octapole moment (field-independent basis, Debye-Ang**2):
  XXX=              0.0000  YYY=              0.0000  ZZZ=             -0.1760  XYY=             -0.0000
  XXY=             -0.0000  XXZ=             -0.0063  XZZ=              0.0000  YZZ=              0.0000
  YYZ=             -0.5893  XYZ=             -0.0000
 Hexadecapole moment (field-independent basis, Debye-Ang**3):
 XXXX=             -3.2287 YYYY=             -6.5548 ZZZZ=             -4.7055 XXXY=             -0.0000
 XXXZ=             -0.0000 YYYX=             -0.0000 YYYZ=              0.0000 ZZZX=             -0.0000
 ZZZY=              0.0000 XXYY=             -1.8133 XXZZ=             -1.3506 YYZZ=             -1.6994
 XXYZ=              0.0000 YYXZ=              0.0000 ZZXY=             -0.0000
 N-N= 9.162418295540D+00 E-N=-1.969379230857D+02  KE= 7.458547603898D+01
 Symmetry A1   KE= 6.662880055458D+01
 Symmetry A2   KE= 0.000000000000D+00
 Symmetry B1   KE= 5.057462452019D+00
 Symmetry B2   KE= 2.899213032385D+00
 No NMR shielding tensors so no spin-rotation constants.
 Leave Link  601 at Wed Nov 19 18:11:04 2025, MaxMem=  2684354560 cpu:               0.3 elap:               0.1
 (Enter /gaussian/g16.c01/intel64-sandybridge/g16/l9999.exe)
 Unable to Open any file for archive entry.
 1\1\GINC-THIOTIMOLINE-LARGE01\SP\RHF\STO-3G\H2O1\LCRISCI_VB\19-Nov-202
 5\0\\#P hf/sto-3g scf=xqc\\External Calculation\\0,1\O,0,0.,0.,0.10981
 1878\H,0,0.,0.7839758899,-0.443247512\H,0,0.,-0.7839758899,-0.44324751
 2\\Version=ES64L-G16RevC.01\State=1-A1\HF=-74.9605635\RMSD=2.449e-10\D
 ipole=0.,0.,-0.6644392\Quadrupole=-0.6265406,0.7851306,-0.15859,0.,0.,
 0.\PG=C02V [C2(O1),SGV(H2)]\\@
 The archive entry for this job was punched.


 THOSE WHO ASPIRE NOT TO GUESS AND DIVINE,
 BUT TO DISCOVER AND KNOW, WHO PROPOSE NOT TO DEVISE 
 MIMIC AND FABULOUS WORLDS OF THEIR OWN, BUT TO 
 EXAMINE AND DISSECT THE NATURE OF THIS VERY WORLD 
 ITSELF, MUST GO TO THE FACTS THEMSELVES FOR EVERYTHING.

                               -- FRANCIS BACON, 1620
 Job cpu time:       0 days  0 hours  0 minutes  1.8 seconds.
 Elapsed time:       0 days  0 hours  0 minutes  2.0 seconds.
 File lengths (MBytes):  RWF=      5 Int=      0 D2E=      0 Chk=      1 Scr=      1
 Normal termination of Gaussian 16 at Wed Nov 19 18:11:04 2025.
