External Calculation                                                    
SP        RHF                                                         STO-3G              
Number of atoms                            I                6
Info1-9                                    I   N=           9
          20          15           0           0           0         110
           1           1           2
Full Title                                 C   N=           2
External Calculation    
Route                                      C   N=           2
#P hf/sto-3g scf=xqc    
Charge                                     I                0
Multiplicity                               I                1
Number of electrons                        I               38
Number of alpha electrons                  I               19
Number of beta electrons                   I               19
Number of basis functions                  I               26
Number of independent functions            I               26
Number of point charges in /Mol/           I                0
Number of translation vectors              I                0
Atomic numbers                             I   N=           6
           6           1           6           1          17           7
Nuclear charges                            R   N=           6
  6.00000000E+00  1.00000000E+00  6.00000000E+00  1.00000000E+00  1.70000000E+01
  7.00000000E+00
Current cartesian coordinates              R   N=          18
 -2.62850312E-14  1.70480298E+00  0.00000000E+00 -5.08912485E-01  3.65982925E+00
  0.00000000E+00  2.46602071E+00  1.01208637E+00  0.00000000E+00  3.90911128E+00
  2.42842028E+00  0.00000000E+00 -2.37368170E+00 -6.26757446E-01  0.00000000E+00
  3.16518084E+00 -1.67638700E+00  0.00000000E+00
Number of symbols in /Mol/                 I                0
Int Atom Types                             I   N=           6
           0           0           0           0           0           0
Force Field                                I                0
Atom Types                                 C   N=           6
                                                            
            
MM charges                                 R   N=           6
  0.00000000E+00  0.00000000E+00  0.00000000E+00  0.00000000E+00  0.00000000E+00
  0.00000000E+00
Integer atomic weights                     I   N=           6
          12           1          12           1          35          14
Real atomic weights                        R   N=           6
  1.20000000E+01  1.00782504E+00  1.20000000E+01  1.00782504E+00  3.49688527E+01
  1.40030740E+01
Atom fragment info                         I   N=           6
           0           0           0           0           0           0
Atom residue num                           I   N=           6
           0           0           0           0           0           0
Nuclear spins                              I   N=           6
           0           1           0           1           3           2
Nuclear ZEff                               R   N=           6
 -3.60000000E+00 -1.00000000E+00 -3.60000000E+00 -1.00000000E+00 -1.42400000E+01
 -4.55000000E+00
Nuclear ZNuc                               R   N=           6
  6.00000000E+00  1.00000000E+00  6.00000000E+00  1.00000000E+00  1.70000000E+01
  7.00000000E+00
Nuclear QMom                               R   N=           6
  0.00000000E+00  0.00000000E+00  0.00000000E+00  0.00000000E+00 -8.16500000E+00
  2.04400000E+00
Nuclear GFac                               R   N=           6
  0.00000000E+00  2.79284600E+00  0.00000000E+00  2.79284600E+00  8.21874000E-01
  4.03761000E-01
MicOpt                                     I   N=           6
          -1          -1          -1          -1          -1          -1
Number of residues                         I                0
Number of secondary structures             I                0
SymInf integers                            I   N=          26
           1           2           1           1           1           1
           1          -1           0           0           0           0
           0           0           0           0           0           0
           0           0           0           0           0           0
           0           0
RotTr to input orientation                 R   N=          12
  1.00000000E+00  1.54182223E-14  0.00000000E+00 -1.54182223E-14  1.00000000E+00
  0.00000000E+00  0.00000000E+00  0.00000000E+00  1.00000000E+00  2.62713827E-14
  2.98377809E-04  0.00000000E+00
Number of contracted shells                I               11
Number of primitive shells                 I               33
Pure/Cartesian d shells                    I                0
Pure/Cartesian f shells                    I                0
Highest angular momentum                   I                1
Largest degree of contraction              I                3
Shell types                                I   N=          11
           0          -1           0           0          -1           0
           0          -1          -1           0          -1
Number of primitives per shell             I   N=          11
           3           3           3           3           3           3
           3           3           3           3           3
Shell to atom map                          I   N=          11
           1           1           2           3           3           4
           5           5           5           6           6
Primitive exponents                        R   N=          33
  7.16168373E+01  1.30450963E+01  3.53051216E+00  2.94124936E+00  6.83483096E-01
  2.22289916E-01  3.42525091E+00  6.23913730E-01  1.68855404E-01  7.16168373E+01
  1.30450963E+01  3.53051216E+00  2.94124936E+00  6.83483096E-01  2.22289916E-01
  3.42525091E+00  6.23913730E-01  1.68855404E-01  6.01345614E+02  1.09535854E+02
  2.96446769E+01  3.89604189E+01  9.05356348E+00  2.94449983E+00  2.12938650E+00
  5.94093427E-01  2.32524141E-01  9.91061690E+01  1.80523124E+01  4.88566024E+00
  3.78045588E+00  8.78496645E-01  2.85714374E-01
Contraction coefficients                   R   N=          33
  1.54328967E-01  5.35328142E-01  4.44634542E-01 -9.99672292E-02  3.99512826E-01
  7.00115469E-01  1.54328967E-01  5.35328142E-01  4.44634542E-01  1.54328967E-01
  5.35328142E-01  4.44634542E-01 -9.99672292E-02  3.99512826E-01  7.00115469E-01
  1.54328967E-01  5.35328142E-01  4.44634542E-01  1.54328967E-01  5.35328142E-01
  4.44634542E-01 -9.99672292E-02  3.99512826E-01  7.00115469E-01 -2.19620369E-01
  2.25595434E-01  9.00398426E-01  1.54328967E-01  5.35328142E-01  4.44634542E-01
 -9.99672292E-02  3.99512826E-01  7.00115469E-01
P(S=P) Contraction coefficients            R   N=          33
  0.00000000E+00  0.00000000E+00  0.00000000E+00  1.55916275E-01  6.07683719E-01
  3.91957393E-01  0.00000000E+00  0.00000000E+00  0.00000000E+00  0.00000000E+00
  0.00000000E+00  0.00000000E+00  1.55916275E-01  6.07683719E-01  3.91957393E-01
  0.00000000E+00  0.00000000E+00  0.00000000E+00  0.00000000E+00  0.00000000E+00
  0.00000000E+00  1.55916275E-01  6.07683719E-01  3.91957393E-01  1.05876043E-02
  5.95167005E-01  4.62001012E-01  0.00000000E+00  0.00000000E+00  0.00000000E+00
  1.55916275E-01  6.07683719E-01  3.91957393E-01
Coordinates of each shell                  R   N=          33
  0.00000000E+00  1.70480298E+00  0.00000000E+00  0.00000000E+00  1.70480298E+00
  0.00000000E+00 -5.08912485E-01  3.65982925E+00  0.00000000E+00  2.46602071E+00
  1.01208637E+00  0.00000000E+00  2.46602071E+00  1.01208637E+00  0.00000000E+00
  3.90911128E+00  2.42842028E+00  0.00000000E+00 -2.37368170E+00 -6.26757446E-01
  0.00000000E+00 -2.37368170E+00 -6.26757446E-01  0.00000000E+00 -2.37368170E+00
 -6.26757446E-01  0.00000000E+00  3.16518084E+00 -1.67638700E+00  0.00000000E+00
  3.16518084E+00 -1.67638700E+00  0.00000000E+00
Num ILSW                                   I              100
ILSW                                       I   N=         100
           0           0           0           0           2           0
           0           0           0           0           0          -1
           5           0           0           0           0           0
           0           0           0           0           0           0
           1           0           0           0           0           0
           0           0      100000           0          -1           0
           0           0           0           0           0           0
           0           0           0           1           0           0
           0 -2000000000           1           0           0           0
           0           0           4          52           0           0
           0           0           0           0           0           0
           0           0           0           6           0           1
           0           0           0           0           0           0
           0           0           0           0           0           0
           0           0           0           0           0           0
           0           0           0           0           0           0
           0           0           0           0
Num RLSW                                   I               52
RLSW                                       R   N=          52
  1.00000000E+00  1.00000000E+00  1.00000000E+00  1.00000000E+00  1.00000000E+00
  0.00000000E+00  0.00000000E+00  1.00000000E+00  0.00000000E+00  0.00000000E+00
  0.00000000E+00  0.00000000E+00  1.00000000E+00  0.00000000E+00  0.00000000E+00
  0.00000000E+00  0.00000000E+00  1.00000000E+00  0.00000000E+00  0.00000000E+00
  0.00000000E+00  0.00000000E+00  1.00000000E+00  0.00000000E+00  0.00000000E+00
  0.00000000E+00  0.00000000E+00  1.00000000E+00  0.00000000E+00  0.00000000E+00
  0.00000000E+00  0.00000000E+00  1.00000000E+00  0.00000000E+00  0.00000000E+00
  0.00000000E+00  0.00000000E+00  0.00000000E+00  1.00000000E+00  1.00000000E+00
  0.00000000E+00  1.00000000E+00  0.00000000E+00  0.00000000E+00  0.00000000E+00
  0.00000000E+00  0.00000000E+00  0.00000000E+00  0.00000000E+00  0.00000000E+00
  0.00000000E+00  0.00000000E+00
MxBond                                     I                3
NBond                                      I   N=           6
           3           1           3           1           1           1
IBond                                      I   N=          18
           2           3           5           1           0           0
           1           4           6           3           0           0
           1           0           0           3           0           0
RBond                                      R   N=          18
  1.00000000E+00  2.00000000E+00  1.00000000E+00  1.00000000E+00  0.00000000E+00
  0.00000000E+00  2.00000000E+00  1.00000000E+00  1.00000000E+00  1.00000000E+00
  0.00000000E+00  0.00000000E+00  1.00000000E+00  0.00000000E+00  0.00000000E+00
  1.00000000E+00  0.00000000E+00  0.00000000E+00
Virial Ratio                               R      2.015641165802356E+00
SCF Energy                                 R     -5.840962084140747E+02
Total Energy                               R     -5.840962084140747E+02
RMS Density                                R      8.442997959762088E-09
Job Status                                 I                1
Nuclear derivative order                   I                0
External E-field                           R   N=          35
  0.00000000E+00  0.00000000E+00  0.00000000E+00  0.00000000E+00  0.00000000E+00
  0.00000000E+00  0.00000000E+00  0.00000000E+00  0.00000000E+00  0.00000000E+00
  0.00000000E+00  0.00000000E+00  0.00000000E+00  0.00000000E+00  0.00000000E+00
  0.00000000E+00  0.00000000E+00  0.00000000E+00  0.00000000E+00  0.00000000E+00
  0.00000000E+00  0.00000000E+00  0.00000000E+00  0.00000000E+00  0.00000000E+00
  0.00000000E+00  0.00000000E+00  0.00000000E+00  0.00000000E+00  0.00000000E+00
  0.00000000E+00  0.00000000E+00  0.00000000E+00  0.00000000E+00  0.00000000E+00
IOpCl                                      I                0
IROHF                                      I                0
Alpha Orbital Energies                     R   N=          26
 -1.03741904E+02 -1.53172660E+01 -1.11553131E+01 -1.10755185E+01 -1.04205537E+01
 -7.86485249E+00 -7.85922627E+00 -7.85882305E+00 -1.12494095E+00 -1.02801927E+00
 -9.03932517E-01 -7.14051399E-01 -6.50309162E-01 -5.25414963E-01 -4.77874956E-01
 -4.32135975E-01 -4.11046773E-01 -3.54227237E-01 -3.11274944E-01  1.44984900E-01
  3.34804711E-01  3.47603488E-01  5.94328293E-01  6.47832713E-01  8.43627030E-01
  8.96156976E-01
Alpha MO coefficients                      R   N=         676
 -5.22147085E-05  3.69101721E-04 -2.47416436E-04 -2.50993282E-04  0.00000000E+00
  7.41127723E-06 -9.28404615E-07 -8.39942283E-06  4.75223814E-06  1.79201338E-05
  0.00000000E+00  2.88987395E-06  9.94506596E-01  1.57345747E-02  8.06208486E-05
  8.23522142E-05  0.00000000E+00 -1.80074778E-03 -1.69019104E-04 -1.65924415E-04
  0.00000000E+00 -3.03074938E-06  1.58378743E-05 -2.01110011E-05  1.70430354E-06
  0.00000000E+00 -6.07588850E-09  2.06868255E-04 -4.15423495E-05 -3.12171784E-04
  0.00000000E+00 -1.38841746E-05  5.28153212E-04 -5.34480598E-03 -1.10940270E-03
  4.62314498E-03  0.00000000E+00  9.60202977E-06 -6.73853741E-06  2.25462604E-05
  4.57671133E-05 -1.05570900E-05  0.00000000E+00 -1.87714515E-04 -2.45095806E-04
  3.98459204E-05  0.00000000E+00  9.94407161E-01  2.42302587E-02 -1.09930815E-03
  4.23256247E-03  0.00000000E+00  9.92481338E-01  3.40822940E-02  1.45463841E-03
  4.05781591E-05  0.00000000E+00 -6.82546712E-03  4.13604335E-03 -7.17375264E-03
  4.19055550E-03 -1.16702374E-03  0.00000000E+00  8.38964137E-05  1.47929865E-04
 -4.97449608E-04  3.17718515E-04  3.02717572E-04  0.00000000E+00 -4.32959100E-03
 -3.05804068E-03 -2.92912960E-03  0.00000000E+00  1.11330714E-05  1.47881725E-04
  5.21856571E-05  9.58948082E-05  0.00000000E+00 -3.47464971E-03 -7.84347701E-03
 -4.56272350E-03  1.26206079E-03  0.00000000E+00  1.30827810E-04  9.92321477E-01
  3.51161988E-02 -1.78813952E-03  9.99520887E-04  0.00000000E+00 -6.97749570E-03
  1.80240674E-05 -3.31878868E-05  2.12514667E-05 -1.19705710E-05  0.00000000E+00
  3.90362544E-05 -5.77732424E-05  1.22181873E-04  0.00000000E+00  4.93267087E-04
 -5.08893520E-03  9.26729485E-04 -3.13369482E-03  0.00000000E+00  1.74510625E-03
 -7.66207919E-03  4.75377844E-03  4.77265375E-03  0.00000000E+00 -1.47318490E-04
  1.18577098E-04  1.43366717E-04 -2.09564998E-06 -1.58029262E-04  0.00000000E+00
 -1.01513448E-04 -3.77075672E-01  1.05361782E+00  7.01569739E-03  7.57000102E-03
  0.00000000E+00  4.42343945E-02  3.97966348E-03  3.97036175E-03  0.00000000E+00
  8.38679348E-05 -3.12703414E-04  4.45208948E-04 -9.15466393E-07  0.00000000E+00
  1.34730768E-03 -1.08585444E-02  6.41950780E-03  6.41472878E-03  0.00000000E+00
  8.77773734E-06  4.35721118E-05  2.55836919E-04 -1.30787579E-04 -3.13384942E-04
  0.00000000E+00 -7.91723422E-05  4.59489850E-03 -1.30652851E-02  7.00389896E-01
  6.97603258E-01  0.00000000E+00  5.79594927E-03  3.31083964E-02  3.29164995E-02
  0.00000000E+00  6.05522528E-05 -2.78182484E-04  3.20685170E-04 -6.39610264E-05
  0.00000000E+00  0.00000000E+00  0.00000000E+00  0.00000000E+00  0.00000000E+00
 -3.10887549E-03  0.00000000E+00  0.00000000E+00  0.00000000E+00  0.00000000E+00
  0.00000000E+00  2.51411277E-04  0.00000000E+00  0.00000000E+00  0.00000000E+00
  0.00000000E+00  0.00000000E+00  9.90162399E-01  0.00000000E+00  0.00000000E+00
  0.00000000E+00  3.92624445E-02  0.00000000E+00  0.00000000E+00  0.00000000E+00
  0.00000000E+00 -1.15557309E-04 -2.46526954E-05  2.28269855E-04  2.60193437E-03
 -2.44987259E-03  0.00000000E+00  5.28242075E-04 -5.63946866E-05 -7.83823422E-04
  2.71311652E-04 -6.40344529E-04  0.00000000E+00  2.31867021E-04  1.56837589E-04
 -4.43861776E-04 -6.98759186E-01  7.01563389E-01  0.00000000E+00 -5.21747697E-06
 -2.76883166E-02  2.77623170E-02  0.00000000E+00 -1.03894103E-04  3.43368697E-04
 -6.70101517E-04 -1.21155896E-04  0.00000000E+00 -1.45111793E-01  3.87274102E-01
  2.73340185E-02 -5.82435410E-02  0.00000000E+00  7.70798221E-02 -1.22577310E-01
  3.14301570E-01 -6.92566432E-02 -2.27187101E-02  0.00000000E+00  5.74508365E-02
  4.85106914E-02 -1.61704070E-01 -2.84949598E-02 -2.61414911E-02  0.00000000E+00
  5.23132838E-01  8.23720376E-02  7.67558322E-02  0.00000000E+00 -7.81611957E-02
  2.67030704E-01 -2.94852543E-02  7.02717580E-02  0.00000000E+00 -1.10563842E-02
  2.79425200E-02 -1.41588191E-01 -1.99850293E-02  0.00000000E+00  1.50994445E-02
  1.21572434E-01 -3.30055965E-01 -2.73272276E-02  7.95145456E-02  0.00000000E+00
 -7.90392034E-02  5.60708176E-02 -1.85452275E-01 -1.19670757E-02 -2.02927335E-02
  0.00000000E+00  6.32472149E-01  3.64378625E-02  6.33258603E-02  0.00000000E+00
  1.40428233E-01 -4.97846815E-01  2.24964918E-02 -1.06999508E-01  0.00000000E+00
  1.42494183E-01 -4.25140358E-01 -1.28570315E-01 -9.69593512E-02  0.00000000E+00
 -1.70010797E-01  5.69536952E-02 -1.47242795E-01  1.52692973E-01 -2.04253379E-01
  0.00000000E+00 -6.70449345E-02  3.60528805E-02 -1.17651585E-01  8.95715992E-03
  1.07375571E-02  0.00000000E+00  4.34514990E-01 -2.45290869E-02 -3.13067724E-02
  0.00000000E+00 -1.42647236E-01  5.36513251E-01 -4.40744765E-03  4.44498973E-02
  0.00000000E+00 -9.06401902E-02  3.14592492E-01 -2.46014232E-01  1.97360945E-01
  0.00000000E+00  3.03951504E-01  1.20968605E-01 -3.77357854E-01 -8.78549567E-02
 -1.76244385E-01  0.00000000E+00 -2.79866652E-01 -2.12205286E-02  6.75657850E-02
 -2.33280039E-02 -4.87524092E-02  0.00000000E+00 -2.82425096E-01  7.41359656E-02
  1.57663121E-01  0.00000000E+00 -9.49072993E-02  3.93874472E-01 -5.89218321E-03
 -7.81520757E-02  0.00000000E+00  3.10214566E-02 -1.01328416E-01 -2.14942784E-01
  3.77431754E-01  0.00000000E+00  2.67890927E-01 -8.30008645E-03  4.57385269E-02
  3.88521281E-01  1.59512749E-01  0.00000000E+00  2.99436563E-01  1.15435194E-02
 -3.64079639E-02  6.67105922E-02 -5.57441172E-03  0.00000000E+00  1.59278319E-01
 -2.26503779E-01  2.45384132E-02  0.00000000E+00 -1.88631849E-02  8.07281813E-02
  1.61032019E-01  1.93597041E-02  0.00000000E+00 -7.94058114E-03  6.66910975E-02
 -3.63057982E-01 -2.74786036E-01  0.00000000E+00 -1.38575595E-01 -1.54008562E-02
  7.47127152E-02  2.59537356E-01 -4.99756129E-02  0.00000000E+00  1.74630329E-01
 -1.96108828E-02  6.00690665E-02 -1.12340257E-01 -1.40854198E-01  0.00000000E+00
 -2.95805980E-01  3.85045440E-01  4.89250808E-01  0.00000000E+00  4.25560466E-02
 -1.99089789E-01  6.78654937E-02  1.58457325E-01  0.00000000E+00  0.00000000E+00
  0.00000000E+00  0.00000000E+00  0.00000000E+00  4.17409155E-01  0.00000000E+00
  0.00000000E+00  0.00000000E+00  0.00000000E+00  0.00000000E+00  2.96906947E-01
  0.00000000E+00  0.00000000E+00  0.00000000E+00  0.00000000E+00  0.00000000E+00
 -2.13785319E-01  0.00000000E+00  0.00000000E+00  0.00000000E+00  7.83887037E-01
  0.00000000E+00  0.00000000E+00  0.00000000E+00  0.00000000E+00  6.95940024E-02
  1.26247322E-02 -5.28086239E-02 -1.39959850E-02  1.02493868E-01  0.00000000E+00
  8.35223697E-02 -5.12169772E-02  2.15886340E-01 -1.02172811E-02 -4.03386508E-01
  0.00000000E+00 -2.00513216E-01  1.90750783E-03 -5.58209666E-03  1.31188750E-01
 -5.64188841E-02  0.00000000E+00  3.24403360E-02 -4.81236275E-01  2.14177098E-01
  0.00000000E+00  8.26279810E-02 -4.14674449E-01 -1.61468943E-01  5.10433546E-01
  0.00000000E+00 -8.48991887E-03  2.75929708E-02  1.14199506E-01 -1.29519796E-01
  0.00000000E+00 -2.07290075E-01  3.83832268E-03 -3.08020079E-02 -1.55717934E-01
  2.14015234E-01  0.00000000E+00  1.74249047E-02 -1.07126528E-03  3.43366237E-03
  1.52935751E-01 -1.79503414E-01  0.00000000E+00 -1.42183665E-02 -5.72321698E-01
  6.68780557E-01  0.00000000E+00 -4.70233970E-02  2.32259972E-01  9.91192756E-02
 -2.80807156E-01  0.00000000E+00  0.00000000E+00  0.00000000E+00  0.00000000E+00
  0.00000000E+00 -4.30881863E-01  0.00000000E+00  0.00000000E+00  0.00000000E+00
  0.00000000E+00  0.00000000E+00 -5.75304328E-01  0.00000000E+00  0.00000000E+00
  0.00000000E+00  0.00000000E+00  0.00000000E+00 -1.69580570E-01  0.00000000E+00
  0.00000000E+00  0.00000000E+00  6.39838339E-01  0.00000000E+00  0.00000000E+00
  0.00000000E+00  0.00000000E+00 -1.64988840E-01 -3.20076079E-02  1.38836858E-01
  1.39243281E-01 -5.62414804E-02  0.00000000E+00 -4.73704561E-02  3.53208428E-03
 -2.28539261E-02 -5.07562108E-02 -3.81380249E-02  0.00000000E+00 -2.05225305E-01
  9.69331742E-04 -3.32102500E-03 -1.93501500E-03  2.19150087E-02  0.00000000E+00
  9.58797698E-03  4.31767181E-03 -8.09111134E-02  0.00000000E+00  1.19207468E-03
 -5.82150149E-03  9.41697082E-01  2.47413359E-01  0.00000000E+00  0.00000000E+00
  0.00000000E+00  0.00000000E+00  0.00000000E+00 -6.70330115E-01  0.00000000E+00
  0.00000000E+00  0.00000000E+00  0.00000000E+00  0.00000000E+00  3.70141319E-01
  0.00000000E+00  0.00000000E+00  0.00000000E+00  0.00000000E+00  0.00000000E+00
 -4.71354372E-02  0.00000000E+00  0.00000000E+00  0.00000000E+00  1.89729724E-01
  0.00000000E+00  0.00000000E+00  0.00000000E+00  0.00000000E+00  6.77151547E-01
 -1.43759554E-01  7.78141409E-01 -5.73661942E-01 -5.07104275E-01  0.00000000E+00
 -1.82411520E-01  1.82566916E-02 -9.45788860E-02  8.55345956E-02 -1.55972611E-01
  0.00000000E+00  2.14808405E-01 -2.34313109E-02  6.57101438E-02  1.52286969E-01
  1.51323244E-01  0.00000000E+00 -4.41322053E-01 -6.44059106E-01 -6.39590280E-01
  0.00000000E+00  1.30788520E-02 -7.75503825E-02  3.14573600E-02 -1.65964118E-01
  0.00000000E+00  0.00000000E+00  0.00000000E+00  0.00000000E+00  0.00000000E+00
  5.13902099E-01  0.00000000E+00  0.00000000E+00  0.00000000E+00  0.00000000E+00
  0.00000000E+00 -7.25773722E-01  0.00000000E+00  0.00000000E+00  0.00000000E+00
  0.00000000E+00  0.00000000E+00  2.72621292E-02  0.00000000E+00  0.00000000E+00
  0.00000000E+00 -1.12303218E-01  0.00000000E+00  0.00000000E+00  0.00000000E+00
  0.00000000E+00  7.31191890E-01  1.23418488E-01 -7.90154790E-01  9.21111768E-02
 -5.48875626E-01  0.00000000E+00  9.82326195E-01 -8.49360615E-02  4.59108577E-01
 -8.67692049E-02 -5.46847027E-01  0.00000000E+00  1.49528357E-01  1.11359279E-03
 -3.54792286E-03  2.97918695E-03 -1.83753364E-02  0.00000000E+00  1.61500939E-02
 -1.33651906E-02  7.80090202E-02  0.00000000E+00  6.31243186E-02 -3.89767958E-01
  2.10108802E-01 -5.78456910E-01  0.00000000E+00 -8.93474194E-03  9.12497746E-02
 -2.93661755E-01  3.92439822E-01  0.00000000E+00 -4.33527697E-01 -1.90725375E-01
  1.19476124E+00  4.49706157E-01  5.07383108E-03  0.00000000E+00 -9.54047846E-01
  7.06316695E-04 -1.81808006E-03 -1.35062125E-02  8.16920243E-03  0.00000000E+00
  1.54689597E-02  5.95576050E-02 -3.40408161E-02  0.00000000E+00  5.60227703E-02
 -3.44579976E-01  4.52235702E-02 -5.53504327E-01  0.00000000E+00  8.61202558E-02
 -6.26991245E-01 -4.28046895E-01 -6.28862381E-01  0.00000000E+00  6.32596023E-01
 -6.10909534E-02  4.71143039E-01 -8.50986418E-02  1.02132182E+00  0.00000000E+00
 -7.00893486E-01 -5.33748788E-03  1.31547052E-02  2.67253082E-02  2.73686959E-02
  0.00000000E+00 -1.23960428E-01 -1.25834617E-01 -1.27558798E-01  0.00000000E+00
 -4.98466221E-02  3.36558966E-01 -1.19655259E-01  4.18724278E-01  0.00000000E+00
 -9.79151161E-02  7.36020261E-01  9.35741160E-01 -5.27538487E-01  0.00000000E+00
  2.85185614E-01  8.89924662E-02 -6.57671390E-01  1.18242951E+00  3.51120867E-02
  0.00000000E+00 -4.13931565E-01 -7.38632371E-04  1.83692241E-03  1.98082175E-02
 -1.21398017E-02  0.00000000E+00 -1.72633092E-02 -9.06884130E-02  5.23802946E-02
  0.00000000E+00 -4.13253762E-03  2.92695361E-02 -1.76849320E-01 -5.27077266E-03
  0.00000000E+00
Orthonormal basis                          R   N=         676
  1.11397258E-01  3.52507131E-01  1.42084841E-01  5.82151011E-03  0.00000000E+00
  2.14276937E-01  1.16406015E-01  3.64908155E-01 -1.09117176E-01  6.99321473E-02
  0.00000000E+00  2.22178710E-01  7.63717468E-03  2.13420152E-02  1.93775088E-02
  1.37722856E-02  0.00000000E+00  8.00446813E-02  8.77629709E-02  6.21611283E-02
  0.00000000E+00  2.56301895E-02  1.00583567E-01 -4.62083884E-02  1.03563441E-01
  0.00000000E+00  1.15003639E-01  2.55078267E-01 -2.08864684E-01  1.30746296E-01
  0.00000000E+00  2.86022320E-01 -1.13156285E-01 -2.51635251E-01 -2.29532665E-01
  1.21665363E-01  0.00000000E+00 -2.19894176E-01  2.72774782E-02  5.67572703E-02
  2.21819677E-02  4.76028433E-02  0.00000000E+00  1.28314442E-01  6.75005308E-02
  1.49832394E-01  0.00000000E+00 -7.71781177E-02 -2.07826051E-01  3.60323902E-04
 -1.92330369E-01  0.00000000E+00 -2.98137796E-02 -7.70020855E-02  9.91504694E-02
  3.71815579E-01  0.00000000E+00  1.56134055E-01  2.93109822E-03 -4.99434757E-03
  1.83068350E-01  3.69100583E-01  0.00000000E+00  2.41638961E-01 -4.89382332E-02
 -9.58689214E-02 -6.68064479E-02 -3.28623280E-02  0.00000000E+00 -1.89848692E-01
 -1.93501863E-01 -8.99759712E-02  0.00000000E+00 -6.94107142E-02 -1.71709884E-01
  1.25801314E-01 -1.01225324E-01  0.00000000E+00 -3.18402025E-02 -1.15551178E-02
 -4.30324462E-01  1.16711506E-01  0.00000000E+00  1.56259919E-01 -2.57470619E-02
 -5.97523452E-03  4.38791555E-01 -1.11063781E-01  0.00000000E+00  1.68968829E-01
  1.34461534E-01  1.86421567E-01 -8.42251583E-03  1.01870687E-01  0.00000000E+00
  1.79363872E-01 -2.35005740E-02  2.02448634E-01  0.00000000E+00  9.39872248E-02
  1.65609441E-01  1.28390656E-01  1.31563201E-01  0.00000000E+00 -3.82730566E-02
 -4.66040613E-02  8.05801331E-02 -2.14235075E-01  0.00000000E+00 -2.14474191E-01
  3.05313924E-02  2.17344178E-02  1.15765871E-03  2.72004176E-01  0.00000000E+00
  1.65547011E-01  3.83366682E-01  4.49433053E-01  2.03300685E-02 -4.52744076E-02
  0.00000000E+00  2.36335352E-01  3.10209015E-02 -7.92561886E-02  0.00000000E+00
 -1.53204922E-01 -2.29936817E-01  3.46545166E-02 -1.06818084E-01  0.00000000E+00
 -5.39202816E-03  6.64968120E-03 -1.47710777E-01 -2.80680258E-01  0.00000000E+00
 -1.88544534E-01  1.27670613E-02  1.10816282E-02  1.34870887E-01  2.05993538E-01
  0.00000000E+00  2.10192908E-01 -2.92842987E-01 -2.83115251E-01  2.34024019E-01
  2.04407239E-01  0.00000000E+00 -1.44987325E-02  3.13257651E-01  2.74053231E-01
  0.00000000E+00 -1.61846767E-01 -2.03125855E-01  7.78837417E-02 -4.73213373E-02
  0.00000000E+00  3.24788426E-03  7.12262749E-03 -8.68516702E-02  9.33022727E-02
  0.00000000E+00  1.15368403E-01 -8.27558824E-02 -5.24209615E-02  1.07077843E-01
  6.88525755E-04  0.00000000E+00  3.00755558E-02  3.88518247E-04  2.22694582E-04
  4.62612822E-01 -4.42150161E-01  0.00000000E+00 -9.77720303E-04  4.25125525E-01
 -4.06646128E-01  0.00000000E+00  8.44820725E-02  7.76396763E-02  4.67855551E-02
 -4.56732180E-02  0.00000000E+00 -1.52992804E-02 -2.29023679E-02  1.14538672E-01
 -2.78504419E-02  0.00000000E+00 -8.30482919E-02 -9.13733903E-02 -4.17240072E-02
 -7.55220580E-02  1.96251549E-01  0.00000000E+00  4.89198617E-02  1.06165908E-01
  4.84003144E-02  9.96559331E-02  2.24314128E-01  0.00000000E+00 -1.21480746E-01
  6.24673736E-02  1.38839222E-01  0.00000000E+00  5.46167363E-01  3.58520533E-01
  1.07708109E-01 -5.00630225E-01  0.00000000E+00  1.47171386E-01  8.56967070E-02
 -1.45142457E-01 -2.09621153E-01  0.00000000E+00 -8.76935560E-02 -6.36633664E-02
 -1.56532470E-02  4.06964928E-02  1.19625469E-01  0.00000000E+00  1.11903610E-01
 -3.66510114E-01 -1.33099916E-01 -3.75432068E-01 -3.46244901E-01  0.00000000E+00
  4.61487415E-01 -1.85245750E-01 -1.70767320E-01  0.00000000E+00  1.47875444E-01
  8.26645231E-02  8.24153359E-02 -2.15466592E-01  0.00000000E+00  6.76373606E-01
  5.24522007E-02  1.00653678E-01 -7.02435414E-02  0.00000000E+00 -1.35328440E-01
 -2.79209565E-01 -3.03567349E-02  2.05778730E-02 -3.87465342E-02  0.00000000E+00
 -4.76741510E-02  1.25833982E-01  5.92683767E-03 -3.39712356E-02 -1.08884718E-02
  0.00000000E+00 -1.96620470E-01 -5.21438375E-04  2.26595969E-03  0.00000000E+00
 -1.66690205E-02 -4.77796546E-03  5.68373456E-01  2.21421630E-01  0.00000000E+00
 -1.06598574E-01 -1.14181689E-03 -4.21090183E-02  1.08527204E-02  0.00000000E+00
  2.24399330E-02  7.94398539E-01 -1.46763433E-02 -7.78162670E-02 -2.29223552E-02
  0.00000000E+00 -2.29860314E-01 -3.25350039E-02  1.38815211E-03  5.45117706E-02
 -5.48853064E-02  0.00000000E+00  4.63526821E-02 -9.70074930E-03  6.73724939E-03
  0.00000000E+00  8.99226106E-03  3.67185666E-03  5.65895502E-01 -7.10329542E-02
  0.00000000E+00  6.25208783E-01 -7.87206050E-02 -1.85622208E-01  2.91300110E-02
  0.00000000E+00 -9.52114649E-02  4.57822297E-01 -5.10280996E-02  1.81953020E-01
 -1.74471996E-02  0.00000000E+00  3.95844885E-02  1.25298950E-01 -1.80343487E-02
 -2.38408770E-02 -7.98187953E-02  0.00000000E+00 -2.00474267E-01  6.74833856E-03
  1.93207514E-02  0.00000000E+00 -2.40780829E-02  3.17722621E-03 -5.09247970E-01
 -2.47917101E-01  0.00000000E+00  2.62847733E-01 -1.15335239E-01  1.48195118E-01
  1.65117969E-01  0.00000000E+00 -3.90959407E-02  5.56650426E-02 -4.02114217E-02
  1.99831924E-02  1.11115195E-02  0.00000000E+00 -5.80833430E-02 -3.03468827E-01
  1.18909880E-01  5.05903868E-01  4.84079072E-01  0.00000000E+00  4.49272602E-01
 -3.07348273E-01 -2.93962775E-01  0.00000000E+00  1.48126939E-01 -8.70532217E-02
 -8.39021371E-02  1.34365162E-01  0.00000000E+00 -2.92964221E-02  9.27321507E-03
 -6.93859397E-02 -4.87418469E-02  0.00000000E+00 -4.71141912E-02  1.06674148E-01
 -8.51161026E-02 -4.93603559E-02  1.86756050E-01  0.00000000E+00 -1.88392895E-02
  4.76011322E-02 -2.21291148E-02 -6.12808115E-02 -1.79136006E-01  0.00000000E+00
 -7.24588630E-02  4.06029427E-02  1.26759088E-01  0.00000000E+00  7.60829922E-01
 -5.10435303E-01 -1.19575645E-01  4.73624208E-01  0.00000000E+00  1.06408499E-02
 -6.34434842E-03 -4.27854289E-02  2.57509677E-02  0.00000000E+00  9.68130951E-02
  7.68213543E-02 -6.07592606E-02  7.71363001E-02  3.46366759E-03  0.00000000E+00
 -7.12872771E-03 -3.68287049E-04  1.41976817E-04 -5.58097541E-01  5.50293258E-01
  0.00000000E+00 -1.60861043E-03  5.79763079E-01 -5.72722370E-01  0.00000000E+00
  7.30454212E-02 -7.17537686E-02  2.05815025E-02  3.47888916E-02  0.00000000E+00
  5.31980641E-02 -8.78922076E-02  1.31008358E-01  1.32933130E-01  0.00000000E+00
 -2.88438057E-02  4.77515643E-03 -1.37487632E-02  2.36083840E-02  1.63612153E-03
  0.00000000E+00 -4.24784395E-02 -7.66341386E-01  8.68044442E-01 -1.38230757E-01
 -1.37828684E-01  0.00000000E+00 -2.72457895E-01  2.41977803E-01  2.41015107E-01
  0.00000000E+00 -2.01577015E-02  3.46180400E-02 -2.33534473E-02  1.60196907E-02
  0.00000000E+00  1.01534998E-01 -2.47564675E-01  4.48284006E-01  6.09233379E-01
  0.00000000E+00 -3.31128657E-01  4.13487830E-02 -1.16508947E-01  1.31358393E-01
  4.09941313E-01  0.00000000E+00 -3.62649304E-01  1.48706953E-01 -2.58385625E-01
 -1.83932209E-01 -1.68557630E-01  0.00000000E+00  6.15345213E-01  5.11584740E-01
  4.69353407E-01  0.00000000E+00 -1.19729494E-01  3.76305890E-01 -1.20902701E-01
  2.91388909E-01  0.00000000E+00 -8.42259565E-02  2.29498282E-01 -6.85180742E-01
 -1.64277931E-02  0.00000000E+00 -3.73974186E-01  7.49573188E-02 -1.82021354E-01
 -4.47902999E-01  8.18768955E-01  0.00000000E+00 -5.25015571E-02 -5.51114802E-02
  1.05174993E-01  6.94894844E-02  1.00908573E-01  0.00000000E+00 -3.28257705E-01
 -2.19972521E-01 -3.15977850E-01  0.00000000E+00 -1.91358265E-01  6.98940632E-01
 -1.14026521E-01  5.72501635E-01  0.00000000E+00  3.12648517E-02 -1.55683568E-01
 -3.01177616E-01  7.32331798E-01  0.00000000E+00 -5.52825842E-01  5.80791887E-02
 -2.24922864E-01 -8.97016559E-01 -6.07997293E-01  0.00000000E+00  9.96469012E-01
  1.80738487E-02 -3.68722248E-02 -4.77498825E-02 -2.12047754E-02  0.00000000E+00
  1.57231611E-01  1.70543110E-01  7.80887535E-02  0.00000000E+00  2.56667730E-02
 -1.21457012E-01  1.47280656E-01 -5.05248567E-02  0.00000000E+00  1.75443850E-01
 -7.65998984E-01  3.24113888E-01 -6.12359067E-01  0.00000000E+00  9.53342784E-01
  1.78550896E-01 -7.71008658E-01 -3.53095200E-01  1.37144154E-01  0.00000000E+00
  5.60925151E-01  1.43690864E-02 -3.13445934E-02 -1.42069044E-02 -4.49814240E-02
  0.00000000E+00  1.06302365E-01  4.79874587E-02  1.54399391E-01  0.00000000E+00
 -8.70250363E-02  3.67001179E-01 -2.69534991E-02  3.35392001E-01  0.00000000E+00
  2.39336646E-01 -1.29686461E+00 -7.09959554E-01  5.58052825E-02  0.00000000E+00
  3.82853565E-01 -2.48895166E-01  1.34924179E+00 -6.16864134E-01  2.89017096E-01
  0.00000000E+00 -4.00399508E-01  8.99179730E-03 -2.21818393E-02 -3.19236077E-02
 -1.36441907E-02  0.00000000E+00  9.88977754E-02  1.29218652E-01  5.43150434E-02
  0.00000000E+00  3.36166658E-02 -1.60647397E-01  1.00869443E-01 -1.39013694E-01
  0.00000000E+00  0.00000000E+00  0.00000000E+00  0.00000000E+00  0.00000000E+00
  4.83547713E-01  0.00000000E+00  0.00000000E+00  0.00000000E+00  0.00000000E+00
  0.00000000E+00  4.66212109E-01  0.00000000E+00  0.00000000E+00  0.00000000E+00
  0.00000000E+00  0.00000000E+00  2.83800390E-01  0.00000000E+00  0.00000000E+00
  0.00000000E+00  3.97376171E-01  0.00000000E+00  0.00000000E+00  0.00000000E+00
  0.00000000E+00  2.45552932E-01  0.00000000E+00  0.00000000E+00  0.00000000E+00
  0.00000000E+00 -1.77069462E-01  0.00000000E+00  0.00000000E+00  0.00000000E+00
  0.00000000E+00  0.00000000E+00 -4.02677777E-01  0.00000000E+00  0.00000000E+00
  0.00000000E+00  0.00000000E+00  0.00000000E+00  5.50364763E-01  0.00000000E+00
  0.00000000E+00  0.00000000E+00  4.87048444E-01  0.00000000E+00  0.00000000E+00
  0.00000000E+00  0.00000000E+00 -3.11054690E-01  0.00000000E+00  0.00000000E+00
  0.00000000E+00  0.00000000E+00 -5.40912793E-01  0.00000000E+00  0.00000000E+00
  0.00000000E+00  0.00000000E+00  0.00000000E+00 -2.20794342E-02  0.00000000E+00
  0.00000000E+00  0.00000000E+00  0.00000000E+00  0.00000000E+00  2.71530225E-01
  0.00000000E+00  0.00000000E+00  0.00000000E+00 -7.43062452E-03  0.00000000E+00
  0.00000000E+00  0.00000000E+00  0.00000000E+00  8.05297706E-01  0.00000000E+00
  0.00000000E+00  0.00000000E+00  0.00000000E+00 -2.28997433E-01  0.00000000E+00
  0.00000000E+00  0.00000000E+00  0.00000000E+00  0.00000000E+00  5.46145175E-01
  0.00000000E+00  0.00000000E+00  0.00000000E+00  0.00000000E+00  0.00000000E+00
  6.53850157E-01  0.00000000E+00  0.00000000E+00  0.00000000E+00 -6.03596167E-01
  0.00000000E+00  0.00000000E+00  0.00000000E+00  0.00000000E+00 -3.64876541E-01
  0.00000000E+00  0.00000000E+00  0.00000000E+00  0.00000000E+00  6.80542886E-01
  0.00000000E+00  0.00000000E+00  0.00000000E+00  0.00000000E+00  0.00000000E+00
 -6.36094162E-01  0.00000000E+00  0.00000000E+00  0.00000000E+00  0.00000000E+00
  0.00000000E+00  4.16119643E-01  0.00000000E+00  0.00000000E+00  0.00000000E+00
 -5.60816683E-01  0.00000000E+00  0.00000000E+00  0.00000000E+00  0.00000000E+00
  2.94193655E-01
Total SCF Density                          R   N=         351
  2.07403478E+00 -2.41588359E-01  9.38831380E-01 -1.26687250E-02  9.32948670E-03
  6.17157747E-01 -9.79017702E-03  1.34287432E-02 -8.04356805E-02  6.01242845E-01
  0.00000000E+00  0.00000000E+00  0.00000000E+00  0.00000000E+00  7.19798495E-01
 -1.12322988E-01  2.89691620E-01 -1.83333036E-01  4.97882285E-01  0.00000000E+00
  5.41328502E-01  2.66480556E-02 -6.95202416E-02 -1.06289737E-01  3.89387181E-02
  0.00000000E+00  2.84895256E-02  2.07071593E+00 -6.28683676E-02  8.15651768E-02
  2.40483739E-01 -9.54481103E-02  0.00000000E+00 -8.59426161E-02 -2.21317110E-01
  8.57735331E-01  1.14094933E-01 -3.05689278E-01 -3.96944468E-01  1.39462923E-01
  0.00000000E+00  8.70056876E-02 -1.19948430E-02  7.74929060E-02  5.63672126E-01
 -2.44372967E-02  5.43780315E-02  1.32726086E-01 -1.64558634E-02  0.00000000E+00
 -9.19565539E-02  2.56141160E-03 -5.20552838E-02  1.08385233E-02  6.35128160E-01
  0.00000000E+00  0.00000000E+00  0.00000000E+00  0.00000000E+00  7.43638193E-01
  0.00000000E+00  0.00000000E+00  0.00000000E+00  0.00000000E+00  0.00000000E+00
  8.38257736E-01  4.04993381E-02 -1.51117683E-01 -1.22556990E-01  6.50760301E-03
  0.00000000E+00 -5.01098388E-02 -1.13622807E-01  2.93976860E-01  3.67913406E-01
  3.73798140E-01  0.00000000E+00  5.90403067E-01 -1.27941839E-03 -1.82326305E-03
 -6.82335202E-03 -7.24898902E-03  0.00000000E+00 -3.57212339E-03  8.75118988E-04
 -2.27323584E-03  3.95245587E-03  3.18762415E-03  0.00000000E+00  2.69894398E-03
  2.27804300E+00  4.70737402E-03  6.29997549E-03  2.25725058E-02  2.34616525E-02
  0.00000000E+00  1.20484195E-02 -2.99633835E-03  7.90115527E-03 -1.30007308E-02
 -9.61451785E-03  0.00000000E+00 -8.62122312E-03 -8.14479627E-01  2.38892967E+00
  2.46553591E-02 -9.51055202E-02  1.00042677E-01  1.04918712E-01  0.00000000E+00
  2.85786221E-03 -1.02862764E-02  4.30347829E-02 -4.57146258E-02 -3.31101796E-03
  0.00000000E+00 -3.57335911E-02  4.73150969E-03 -1.32566332E-02  2.07622710E+00
  2.45176740E-02 -9.16306573E-02  1.09580884E-01  9.37848587E-02  0.00000000E+00
  6.17856209E-02 -1.47984134E-04 -6.01157423E-03 -5.83716217E-03 -1.12670771E-02
  0.00000000E+00 -1.88921701E-02  4.72494952E-03 -1.32954830E-02 -3.75997051E-02
  2.07648395E+00  0.00000000E+00  0.00000000E+00  0.00000000E+00  0.00000000E+00
 -3.84900976E-02  0.00000000E+00  0.00000000E+00  0.00000000E+00  0.00000000E+00
  0.00000000E+00  6.86700555E-02  0.00000000E+00  0.00000000E+00  0.00000000E+00
  0.00000000E+00  0.00000000E+00  2.10976662E+00  1.58210770E-02 -1.81003561E-01
  2.20426874E-02  1.05938685E-02  0.00000000E+00 -4.19127825E-02  9.85458596E-03
 -1.85707703E-02  4.82661951E-02  4.62426055E-02  0.00000000E+00  3.45699196E-02
  1.43561941E-01 -4.98830116E-01  7.65920955E-02  7.60144625E-02  0.00000000E+00
  2.11697145E+00 -7.39845073E-02  2.50041264E-01 -3.33935721E-01 -3.09902582E-01
  0.00000000E+00 -4.37763665E-03  4.05066035E-02 -1.56806964E-01  1.77534376E-01
  1.81600475E-02  0.00000000E+00  1.35583946E-01 -1.68126260E-02  4.73437090E-02
 -3.42410233E-01  1.47873315E-01  0.00000000E+00 -2.44970941E-01  1.54964370E+00
 -7.39096411E-02  2.39948238E-01 -3.24246129E-01 -3.13435118E-01  0.00000000E+00
 -2.35966961E-01 -1.47589786E-03  2.70257424E-02  1.72047256E-02  4.23125115E-02
  0.00000000E+00  7.09598717E-02 -1.68097180E-02  4.75698651E-02  1.47975633E-01
 -3.43600714E-01  0.00000000E+00 -2.43396688E-01 -5.63837388E-01  1.55454477E+00
  0.00000000E+00  0.00000000E+00  0.00000000E+00  0.00000000E+00  1.02769656E-01
  0.00000000E+00  0.00000000E+00  0.00000000E+00  0.00000000E+00  0.00000000E+00
 -2.70700776E-01  0.00000000E+00  0.00000000E+00  0.00000000E+00  0.00000000E+00
  0.00000000E+00 -4.74422988E-01  0.00000000E+00  0.00000000E+00  0.00000000E+00
  2.05082705E+00 -2.88760120E-03  7.79397358E-03  3.73990718E-03 -1.55678828E-02
  0.00000000E+00 -5.74400007E-03  6.31114878E-03  4.36198998E-03 -5.67554607E-03
  2.96535754E-02  0.00000000E+00  9.38539196E-03  1.38357664E-04 -6.14361564E-04
 -1.49809212E-03  3.29001702E-04  0.00000000E+00  6.70294548E-04  5.43133589E-03
 -2.11021883E-03  0.00000000E+00  2.11047520E+00  9.46453701E-03 -1.71674382E-02
 -3.24752548E-03  6.60281168E-02  0.00000000E+00  1.65613925E-02  8.83076889E-03
 -1.74838482E-01 -1.90585415E-02  3.09625838E-02  0.00000000E+00 -2.73619953E-02
 -1.06479929E-04  1.09176263E-03  4.82575214E-03 -2.21204782E-03  0.00000000E+00
  3.24056888E-03 -1.69412215E-02  1.16718347E-02  0.00000000E+00 -4.71584594E-01
  2.06968200E+00 -4.91583407E-02  2.38860453E-01  1.66951740E-01 -7.93605662E-02
  0.00000000E+00 -9.57642198E-02  3.17990605E-02 -1.21557851E-01  3.97353136E-02
  1.54242816E-01  0.00000000E+00 -2.01240511E-01  1.27461499E-03 -4.98174049E-03
 -6.72564203E-03  3.61866763E-03  0.00000000E+00  1.30594917E-02  2.55854643E-02
 -1.79377192E-02  0.00000000E+00 -2.29412064E-02  1.20388752E-01  1.90931943E+00
  9.52129004E-03 -2.19540129E-02 -7.17120861E-02  3.36854569E-02  0.00000000E+00
  8.96747067E-02 -1.21198289E-01  4.12260792E-01  1.72625376E-01 -5.71318021E-01
  0.00000000E+00 -1.86280993E-01 -1.39539009E-03  4.29710598E-03  1.71373348E-02
  1.81892122E-02  0.00000000E+00 -2.07876614E-02 -6.44503070E-02 -7.11891399E-02
  0.00000000E+00  9.36385837E-02 -4.86180528E-01  2.64770356E-01  9.01180547E-01
  0.00000000E+00  0.00000000E+00  0.00000000E+00  0.00000000E+00  2.00280464E-01
  0.00000000E+00  0.00000000E+00  0.00000000E+00  0.00000000E+00  0.00000000E+00
  2.31163415E-01  0.00000000E+00  0.00000000E+00  0.00000000E+00  0.00000000E+00
  0.00000000E+00  2.59726103E-02  0.00000000E+00  0.00000000E+00  0.00000000E+00
 -1.02033773E-01  0.00000000E+00  0.00000000E+00  0.00000000E+00  0.00000000E+00
  6.41293120E-02
Mulliken Charges                           R   N=           6
  2.55224834E-02  1.18230985E-01 -4.80753282E-02  7.49553408E-02 -8.68824093E-02
 -8.37510721E-02
ONIOM Charges                              I   N=          16
           0           0           0           0           0           0
           0           0           0           0           0           0
           0           0           0           0
ONIOM Multiplicities                       I   N=          16
           1           0           0           0           0           0
           0           0           0           0           0           0
           0           0           0           0
Atom Layers                                I   N=           6
           1           1           1           1           1           1
Atom Modifiers                             I   N=           6
           0           0           0           0           0           0
Int Atom Modified Types                    I   N=           6
           0           0           0           0           0           0
Force Field                                I                0
Atom Modified Types                        C   N=           6
                                                            
            
Link Atoms                                 I   N=           6
           0           0           0           0           0           0
Atom Modified MM Charges                   R   N=           6
  0.00000000E+00  0.00000000E+00  0.00000000E+00  0.00000000E+00  0.00000000E+00
  0.00000000E+00
Link Distances                             R   N=          24
  0.00000000E+00  0.00000000E+00  0.00000000E+00  0.00000000E+00  0.00000000E+00
  0.00000000E+00  0.00000000E+00  0.00000000E+00  0.00000000E+00  0.00000000E+00
  0.00000000E+00  0.00000000E+00  0.00000000E+00  0.00000000E+00  0.00000000E+00
  0.00000000E+00  0.00000000E+00  0.00000000E+00  0.00000000E+00  0.00000000E+00
  0.00000000E+00  0.00000000E+00  0.00000000E+00  0.00000000E+00
Cartesian Gradient                         R   N=          18
  0.00000000E+00  0.00000000E+00  0.00000000E+00  0.00000000E+00  0.00000000E+00
  0.00000000E+00  0.00000000E+00  0.00000000E+00  0.00000000E+00  0.00000000E+00
  0.00000000E+00  0.00000000E+00  0.00000000E+00  0.00000000E+00  0.00000000E+00
  0.00000000E+00  0.00000000E+00  0.00000000E+00
Nonadiabatic coupling                      R   N=          18
  0.00000000E+00  0.00000000E+00  0.00000000E+00  0.00000000E+00  0.00000000E+00
  0.00000000E+00  0.00000000E+00  0.00000000E+00  0.00000000E+00  0.00000000E+00
  0.00000000E+00  0.00000000E+00  0.00000000E+00  0.00000000E+00  0.00000000E+00
  0.00000000E+00  0.00000000E+00  0.00000000E+00
Dipole Moment                              R   N=           3
  4.06265791E-02  1.15588663E+00  0.00000000E+00
Quadrupole Moment                          R   N=           6
 -1.89775228E+00  8.62696780E-01  1.03505550E+00  1.31224720E+00  0.00000000E+00
  0.00000000E+00
QEq coupling tensors                       R   N=          36
 -2.94230778E-02 -1.96248424E-01 -6.95772082E-02  0.00000000E+00  0.00000000E+00
  9.90002860E-02  1.38426839E-01  1.39467471E-01 -3.25755681E-01  0.00000000E+00
  0.00000000E+00  1.87328842E-01 -1.54180638E-01  2.35637270E-02 -7.40387697E-02
  0.00000000E+00  0.00000000E+00  2.28219408E-01 -1.00653619E-01 -2.67092655E-01
 -8.59048852E-02  0.00000000E+00  0.00000000E+00  1.86558504E-01 -8.34000821E-01
 -2.78512491E+00 -8.15587550E-01  0.00000000E+00  0.00000000E+00  1.64958837E+00
  2.53786051E+00  6.67564557E-01  4.78603326E-03  0.00000000E+00  0.00000000E+00
 -2.54264655E+00
ClPar MaxAn                                I              200
ClPar NIntPar                              I                4
ClPar NRealPar                             I               16
ClPar NBits                                I               30
ClPar LenBitVec                            I                1
ClPar Read BitMap                          I   N=         200
           0           0           0           0           0           0
           0           0           0           0           0           0
           0           0           0           0           0           0
           0           0           0           0           0           0
           0           0           0           0           0           0
           0           0           0           0           0           0
           0           0           0           0           0           0
           0           0           0           0           0           0
           0           0           0           0           0           0
           0           0           0           0           0           0
           0           0           0           0           0           0
           0           0           0           0           0           0
           0           0           0           0           0           0
           0           0           0           0           0           0
           0           0           0           0           0           0
           0           0           0           0           0           0
           0           0           0           0           0           0
           0           0           0           0           0           0
           0           0           0           0           0           0
           0           0           0           0           0           0
           0           0           0           0           0           0
           0           0           0           0           0           0
           0           0           0           0           0           0
           0           0           0           0           0           0
           0           0           0           0           0           0
           0           0           0           0           0           0
           0           0           0           0           0           0
           0           0           0           0           0           0
           0           0           0           0           0           0
           0           0           0           0           0           0
           0           0           0           0           0           0
           0           0           0           0           0           0
           0           0           0           0           0           0
           0           0
ClPar Default BitMap                       I   N=         200
        2016        2016        2016        2016        2016        2016
        2016        2016        2016        2016        2016        2016
        2016        2016        2016        2016        2016        2016
        2016        2016        2016        2016        2016        2016
        2016        2016        2016        2016        2016        2016
        2016        2016        2016        2016        2016        2016
        2016        2016        2016        2016        2016        2016
        2016        2016        2016        2016        2016        2016
        2016        2016        2016        2016        2016        2016
        2016        2016        2016        2016        2016        2016
        2016        2016        2016        2016        2016        2016
        2016        2016        2016        2016        2016        2016
        2016        2016        2016        2016        2016        2016
        2016        2016        2016        2016        2016        2016
        2016        2016         480         480         480         480
         480         480         480         480         480         480
         480         480         480         480         480         480
         480         480         480         480         480         480
         480         480         480         480         480         480
         480         480         480         480         480         480
         480         480         480         480         480         480
         480         480         480         480         480         480
         480         480         480         480         480         480
         480         480         480         480         480         480
         480         480         480         480         480         480
         480         480         480         480         480         480
         480         480         480         480         480         480
         480         480         480         480         480         480
         480         480         480         480         480         480
         480         480         480         480         480         480
         480         480         480         480         480         480
         480         480         480         480         480         480
         480         480         480         480         480         480
         480         480
ClPar Int Params                           I   N=         800
           0           0           0           0           0           0
           0           0           0           0           0           0
           0           0           0           0           0           0
           0           0           0           0           0           0
           0           0           0           0           0           0
           0           0           0           0           0           0
           0           0           0           0           0           0
           0           0           0           0           0           0
           0           0           0           0           0           0
           0           0           0           0           0           0
           0           0           0           0           0           0
           0           0           0           0           0           0
           0           0           0           0           0           0
           0           0           0           0           0           0
           0           0           0           0           0           0
           0           0           0           0           0           0
           0           0           0           0           0           0
           0           0           0           0           0           0
           0           0           0           0           0           0
           0           0           0           0           0           0
           0           0           0           0           0           0
           0           0           0           0           0           0
           0           0           0           0           0           0
           0           0           0           0           0           0
           0           0           0           0           0           0
           0           0           0           0           0           0
           0           0           0           0           0           0
           0           0           0           0           0           0
           0           0           0           0           0           0
           0           0           0           0           0           0
           0           0           0           0           0           0
           0           0           0           0           0           0
           0           0           0           0           0           0
           0           0           0           0           0           0
           0           0           0           0           0           0
           0           0           0           0           0           0
           0           0           0           0           0           0
           0           0           0           0           0           0
           0           0           0           0           0           0
           0           0           0           0           0           0
           0           0           0           0           0           0
           0           0           0           0           0           0
           0           0           0           0           0           0
           0           0           0           0           0           0
           0           0           0           0           0           0
           0           0           0           0           0           0
           0           0           0           0           0           0
           0           0           0           0           0           0
           0           0           0           0           0           0
           0           0           0           0           0           0
           0           0           0           0           0           0
           0           0           0           0           0           0
           0           0           0           0           0           0
           0           0           0           0           0           0
           0           0           0           0           0           0
           0           0           0           0           0           0
           0           0           0           0           0           0
           0           0           0           0           0           0
           0           0           0           0           0           0
           0           0           0           0           0           0
           0           0           0           0           0           0
           0           0           0           0           0           0
           0           0           0           0           0           0
           0           0           0           0           0           0
           0           0           0           0           0           0
           0           0           0           0           0           0
           0           0           0           0           0           0
           0           0           0           0           0           0
           0           0           0           0           0           0
           0           0           0           0           0           0
           0           0           0           0           0           0
           0           0           0           0           0           0
           0           0           0           0           0           0
           0           0           0           0           0           0
           0           0           0           0           0           0
           0           0           0           0           0           0
           0           0           0           0           0           0
           0           0           0           0           0           0
           0           0           0           0           0           0
           0           0           0           0           0           0
           0           0           0           0           0           0
           0           0           0           0           0           0
           0           0           0           0           0           0
           0           0           0           0           0           0
           0           0           0           0           0           0
           0           0           0           0           0           0
           0           0           0           0           0           0
           0           0           0           0           0           0
           0           0           0           0           0           0
           0           0           0           0           0           0
           0           0           0           0           0           0
           0           0           0           0           0           0
           0           0           0           0           0           0
           0           0           0           0           0           0
           0           0           0           0           0           0
           0           0           0           0           0           0
           0           0           0           0           0           0
           0           0           0           0           0           0
           0           0           0           0           0           0
           0           0           0           0           0           0
           0           0           0           0           0           0
           0           0           0           0           0           0
           0           0           0           0           0           0
           0           0           0           0           0           0
           0           0           0           0           0           0
           0           0           0           0           0           0
           0           0           0           0           0           0
           0           0           0           0           0           0
           0           0           0           0           0           0
           0           0           0           0           0           0
           0           0           0           0           0           0
           0           0           0           0           0           0
           0           0           0           0           0           0
           0           0           0           0           0           0
           0           0           0           0           0           0
           0           0           0           0           0           0
           0           0           0           0           0           0
           0           0           0           0           0           0
           0           0           0           0           0           0
           0           0           0           0           0           0
           0           0           0           0           0           0
           0           0           0           0           0           0
           0           0           0           0           0           0
           0           0           0           0           0           0
           0           0           0           0           0           0
           0           0           0           0           0           0
           0           0           0           0           0           0
           0           0           0           0           0           0
           0           0           0           0           0           0
           0           0           0           0           0           0
           0           0           0           0           0           0
           0           0           0           0           0           0
           0           0           0           0           0           0
           0           0
ClPar Real Params                          R   N=        3200
  0.00000000E+00  0.00000000E+00  0.00000000E+00  0.00000000E+00  0.00000000E+00
  0.00000000E+00  0.00000000E+00  0.00000000E+00  0.00000000E+00  0.00000000E+00
  0.00000000E+00  0.00000000E+00  0.00000000E+00  0.00000000E+00  0.00000000E+00
  0.00000000E+00  0.00000000E+00  0.00000000E+00  0.00000000E+00  0.00000000E+00
  0.00000000E+00  0.00000000E+00  0.00000000E+00  0.00000000E+00  0.00000000E+00
  0.00000000E+00  0.00000000E+00  0.00000000E+00  0.00000000E+00  0.00000000E+00
  0.00000000E+00  0.00000000E+00  0.00000000E+00  0.00000000E+00  0.00000000E+00
  0.00000000E+00  0.00000000E+00  0.00000000E+00  0.00000000E+00  0.00000000E+00
  0.00000000E+00  0.00000000E+00  0.00000000E+00  0.00000000E+00  0.00000000E+00
  0.00000000E+00  0.00000000E+00  0.00000000E+00  0.00000000E+00  0.00000000E+00
  0.00000000E+00  0.00000000E+00  0.00000000E+00  0.00000000E+00  0.00000000E+00
  0.00000000E+00  0.00000000E+00  0.00000000E+00  0.00000000E+00  0.00000000E+00
  0.00000000E+00  0.00000000E+00  0.00000000E+00  0.00000000E+00  0.00000000E+00
  0.00000000E+00  0.00000000E+00  0.00000000E+00  0.00000000E+00  0.00000000E+00
  0.00000000E+00  0.00000000E+00  0.00000000E+00  0.00000000E+00  0.00000000E+00
  0.00000000E+00  0.00000000E+00  0.00000000E+00  0.00000000E+00  0.00000000E+00
  0.00000000E+00  0.00000000E+00  0.00000000E+00  0.00000000E+00  0.00000000E+00
  0.00000000E+00  0.00000000E+00  0.00000000E+00  0.00000000E+00  0.00000000E+00
  0.00000000E+00  0.00000000E+00  0.00000000E+00  0.00000000E+00  0.00000000E+00
  0.00000000E+00  0.00000000E+00  0.00000000E+00  0.00000000E+00  0.00000000E+00
  0.00000000E+00  0.00000000E+00  0.00000000E+00  0.00000000E+00  0.00000000E+00
  0.00000000E+00  0.00000000E+00  0.00000000E+00  0.00000000E+00  0.00000000E+00
  0.00000000E+00  0.00000000E+00  0.00000000E+00  0.00000000E+00  0.00000000E+00
  0.00000000E+00  0.00000000E+00  0.00000000E+00  0.00000000E+00  0.00000000E+00
  0.00000000E+00  0.00000000E+00  0.00000000E+00  0.00000000E+00  0.00000000E+00
  0.00000000E+00  0.00000000E+00  0.00000000E+00  0.00000000E+00  0.00000000E+00
  0.00000000E+00  0.00000000E+00  0.00000000E+00  0.00000000E+00  0.00000000E+00
  0.00000000E+00  0.00000000E+00  0.00000000E+00  0.00000000E+00  0.00000000E+00
  0.00000000E+00  0.00000000E+00  0.00000000E+00  0.00000000E+00  0.00000000E+00
  0.00000000E+00  0.00000000E+00  0.00000000E+00  0.00000000E+00  0.00000000E+00
  0.00000000E+00  0.00000000E+00  0.00000000E+00  0.00000000E+00  0.00000000E+00
  0.00000000E+00  0.00000000E+00  0.00000000E+00  0.00000000E+00  0.00000000E+00
  0.00000000E+00  0.00000000E+00  0.00000000E+00  0.00000000E+00  0.00000000E+00
  0.00000000E+00  0.00000000E+00  0.00000000E+00  0.00000000E+00  0.00000000E+00
  0.00000000E+00  0.00000000E+00  0.00000000E+00  0.00000000E+00  0.00000000E+00
  0.00000000E+00  0.00000000E+00  0.00000000E+00  0.00000000E+00  0.00000000E+00
  0.00000000E+00  0.00000000E+00  0.00000000E+00  0.00000000E+00  0.00000000E+00
  0.00000000E+00  0.00000000E+00  0.00000000E+00  0.00000000E+00  0.00000000E+00
  0.00000000E+00  0.00000000E+00  0.00000000E+00  0.00000000E+00  0.00000000E+00
  0.00000000E+00  0.00000000E+00  0.00000000E+00  0.00000000E+00  0.00000000E+00
  2.26000000E-01  4.43000000E-01  1.01000000E-01  1.47000000E-01  1.92000000E-01
  2.40000000E-01  2.75000000E-01  3.03000000E-01  3.25000000E-01  4.13000000E-01
  9.60000000E-02  1.35000000E-01  1.73000000E-01  2.11000000E-01  2.48000000E-01
  2.86000000E-01  3.23000000E-01  3.60000000E-01  8.20000000E-02  1.04000000E-01
  1.17000000E-01  1.23000000E-01  1.29000000E-01  1.34000000E-01  1.40000000E-01
  1.44000000E-01  1.48000000E-01  1.52000000E-01  1.55000000E-01  1.76000000E-01
  1.98000000E-01  2.19000000E-01  2.39000000E-01  2.60000000E-01  2.80000000E-01
  3.00000000E-01  7.90000000E-02  9.90000000E-02  1.19000000E-01  1.26000000E-01
  1.33000000E-01  1.40000000E-01  1.47000000E-01  1.53000000E-01  1.58000000E-01
  1.63000000E-01  1.57000000E-01  1.70000000E-01  1.87000000E-01  2.03000000E-01
  2.19000000E-01  2.34000000E-01  2.50000000E-01  2.65000000E-01  7.40000000E-02
  9.20000000E-02  1.05000000E-01  1.06000000E-01  1.07000000E-01  1.08000000E-01
  1.09000000E-01  1.10000000E-01  1.11000000E-01  1.12000000E-01  1.13000000E-01
  1.14000000E-01  1.15000000E-01  1.16000000E-01  1.17000000E-01  1.17000000E-01
  1.26000000E-01  1.36000000E-01  1.46000000E-01  1.55000000E-01  1.65000000E-01
  1.73000000E-01  1.82000000E-01  1.90000000E-01  1.62000000E-01  1.78000000E-01
  1.10000000E-01  1.35000000E-01  1.59000000E-01  1.83000000E-01  2.07000000E-01
  2.31000000E-01  6.90000000E-02  9.40000000E-02  1.02000000E-01  1.03000000E-01
  1.05000000E-01  1.07000000E-01  1.09000000E-01  1.11000000E-01  1.13000000E-01
  1.15000000E-01  1.17000000E-01  1.19000000E-01  1.20000000E-01  1.22000000E-01
  1.24000000E-01  1.26000000E-01  1.28000000E-01  1.28000000E-01  1.28000000E-01
  1.28000000E-01  1.28000000E-01  1.28000000E-01  1.28000000E-01  1.28000000E-01
  1.28000000E-01  1.28000000E-01  1.28000000E-01  1.28000000E-01  1.28000000E-01
  1.28000000E-01  1.28000000E-01  1.28000000E-01  1.28000000E-01  1.28000000E-01
  1.28000000E-01  1.28000000E-01  1.28000000E-01  1.28000000E-01  1.28000000E-01
  1.28000000E-01  1.28000000E-01  1.28000000E-01  1.28000000E-01  1.28000000E-01
  1.28000000E-01  1.28000000E-01  1.28000000E-01  1.28000000E-01  1.28000000E-01
  1.28000000E-01  1.28000000E-01  1.28000000E-01  1.28000000E-01  1.28000000E-01
  1.28000000E-01  1.28000000E-01  1.28000000E-01  1.28000000E-01  1.28000000E-01
  1.28000000E-01  1.28000000E-01  1.28000000E-01  1.28000000E-01  1.28000000E-01
  1.28000000E-01  1.28000000E-01  1.28000000E-01  1.28000000E-01  1.28000000E-01
  1.28000000E-01  1.28000000E-01  1.28000000E-01  1.28000000E-01  1.28000000E-01
  1.28000000E-01  1.28000000E-01  1.28000000E-01  1.28000000E-01  1.28000000E-01
  1.28000000E-01  1.28000000E-01  1.28000000E-01  1.28000000E-01  1.28000000E-01
  1.28000000E-01  1.28000000E-01  1.28000000E-01  1.28000000E-01  1.28000000E-01
  1.28000000E-01  1.28000000E-01  1.28000000E-01  1.28000000E-01  1.28000000E-01
  1.28000000E-01  1.28000000E-01  1.28000000E-01  1.28000000E-01  1.28000000E-01
  1.28000000E-01  1.28000000E-01  1.28000000E-01  1.28000000E-01  1.28000000E-01
  1.28000000E-01  1.28000000E-01  1.28000000E-01  1.28000000E-01  1.28000000E-01
  1.28000000E-01  1.28000000E-01  1.28000000E-01  1.28000000E-01  1.28000000E-01
  5.47000000E-01  5.92000000E-01  5.99000000E-01  6.68000000E-01  6.98000000E-01
  7.18000000E-01  7.26000000E-01  7.36000000E-01  7.43000000E-01  7.45000000E-01
  6.07000000E-01  6.66000000E-01  6.93000000E-01  7.09000000E-01  7.20000000E-01
  7.29000000E-01  7.35000000E-01  7.40000000E-01  6.08000000E-01  7.34000000E-01
  7.46000000E-01  7.55000000E-01  7.61000000E-01  7.65000000E-01  7.67000000E-01
  7.60000000E-01  7.49000000E-01  7.33000000E-01  7.08000000E-01  6.48000000E-01
  6.88000000E-01  7.09000000E-01  7.22000000E-01  7.31000000E-01  7.38000000E-01
  7.44000000E-01  6.09000000E-01  7.30000000E-01  7.41000000E-01  7.52000000E-01
  7.58000000E-01  7.63000000E-01  7.66000000E-01  7.58000000E-01  7.48000000E-01
  7.33000000E-01  7.01000000E-01  6.45000000E-01  6.86000000E-01  7.08000000E-01
  7.22000000E-01  7.31000000E-01  7.38000000E-01  7.44000000E-01  6.08000000E-01
  7.28000000E-01  7.32000000E-01  7.32000000E-01  7.32000000E-01  7.32000000E-01
  7.32000000E-01  7.32000000E-01  7.32000000E-01  7.32000000E-01  7.32000000E-01
  7.31000000E-01  7.31000000E-01  7.31000000E-01  7.31000000E-01  7.46000000E-01
  7.37000000E-01  7.46000000E-01  7.51000000E-01  7.55000000E-01  7.58000000E-01
  7.47000000E-01  7.32000000E-01  7.11000000E-01  7.41000000E-01  7.07000000E-01
  7.47000000E-01  7.43000000E-01  7.42000000E-01  7.42000000E-01  7.43000000E-01
  7.44000000E-01  6.05000000E-01  7.24000000E-01  7.26000000E-01  7.26000000E-01
  7.27000000E-01  7.27000000E-01  7.27000000E-01  7.28000000E-01  7.28000000E-01
  7.28000000E-01  7.28000000E-01  7.28000000E-01  7.29000000E-01  7.29000000E-01
  7.29000000E-01  7.29000000E-01  7.29000000E-01  7.29000000E-01  7.29000000E-01
  7.29000000E-01  7.29000000E-01  7.29000000E-01  7.29000000E-01  7.29000000E-01
  7.29000000E-01  7.29000000E-01  7.29000000E-01  7.29000000E-01  7.29000000E-01
  7.29000000E-01  7.29000000E-01  7.29000000E-01  7.29000000E-01  7.29000000E-01
  7.29000000E-01  7.29000000E-01  7.29000000E-01  7.29000000E-01  7.29000000E-01
  7.29000000E-01  7.29000000E-01  7.29000000E-01  7.29000000E-01  7.29000000E-01
  7.29000000E-01  7.29000000E-01  7.29000000E-01  7.29000000E-01  7.29000000E-01
  7.29000000E-01  7.29000000E-01  7.29000000E-01  7.29000000E-01  7.29000000E-01
  7.29000000E-01  7.29000000E-01  7.29000000E-01  7.29000000E-01  7.29000000E-01
  7.29000000E-01  7.29000000E-01  7.29000000E-01  7.29000000E-01  7.29000000E-01
  7.29000000E-01  7.29000000E-01  7.29000000E-01  7.29000000E-01  7.29000000E-01
  7.29000000E-01  7.29000000E-01  7.29000000E-01  7.29000000E-01  7.29000000E-01
  7.29000000E-01  7.29000000E-01  7.29000000E-01  7.29000000E-01  7.29000000E-01
  7.29000000E-01  7.29000000E-01  7.29000000E-01  7.29000000E-01  7.29000000E-01
  7.29000000E-01  7.29000000E-01  7.29000000E-01  7.29000000E-01  7.29000000E-01
  7.29000000E-01  7.29000000E-01  7.29000000E-01  7.29000000E-01  7.29000000E-01
  7.29000000E-01  7.29000000E-01  7.29000000E-01  7.29000000E-01  7.29000000E-01
  7.29000000E-01  7.29000000E-01  7.29000000E-01  7.29000000E-01  7.29000000E-01
  7.29000000E-01  7.29000000E-01  7.29000000E-01  7.29000000E-01  7.29000000E-01
  7.29000000E-01  7.29000000E-01  7.29000000E-01  7.29000000E-01  7.29000000E-01
  1.00000000E+00  1.70400000E+00  3.23000000E-01  3.89000000E-01  4.67000000E-01
  5.67000000E-01  6.36000000E-01  6.64000000E-01  6.96000000E-01  8.79000000E-01
  3.07000000E-01  3.48000000E-01  4.00000000E-01  4.54000000E-01  5.09000000E-01
  5.65000000E-01  6.21000000E-01  6.77000000E-01  2.56000000E-01  3.50000000E-01
  3.64000000E-01  3.62000000E-01  3.62000000E-01  3.62000000E-01  3.62000000E-01
  3.65000000E-01  3.69000000E-01  3.75000000E-01  3.86000000E-01  4.46000000E-01
  4.55000000E-01  4.74000000E-01  4.96000000E-01  5.20000000E-01  5.45000000E-01
  5.70000000E-01  2.45000000E-01  3.22000000E-01  3.55000000E-01  3.59000000E-01
  3.64000000E-01  3.70000000E-01  3.76000000E-01  3.85000000E-01  3.95000000E-01
  4.08000000E-01  3.76000000E-01  4.23000000E-01  4.22000000E-01  4.32000000E-01
  4.45000000E-01  4.59000000E-01  4.75000000E-01  4.91000000E-01  2.28000000E-01
  2.92000000E-01  2.89000000E-01  2.92000000E-01  2.95000000E-01  2.98000000E-01
  3.00000000E-01  3.03000000E-01  3.06000000E-01  3.09000000E-01  3.12000000E-01
  3.15000000E-01  3.18000000E-01  3.21000000E-01  3.24000000E-01  3.61000000E-01
  3.69000000E-01  3.70000000E-01  3.72000000E-01  3.75000000E-01  3.78000000E-01
  3.85000000E-01  3.94000000E-01  4.07000000E-01  5.26000000E-01  6.21000000E-01
  3.36000000E-01  3.54000000E-01  3.71000000E-01  3.86000000E-01  4.02000000E-01
  4.17000000E-01  2.09000000E-01  2.94000000E-01  2.65000000E-01  2.72000000E-01
  2.78000000E-01  2.84000000E-01  2.91000000E-01  2.97000000E-01  3.03000000E-01
  3.10000000E-01  3.16000000E-01  3.22000000E-01  3.29000000E-01  3.35000000E-01
  3.41000000E-01  3.48000000E-01  3.54000000E-01  3.54000000E-01  3.54000000E-01
  3.54000000E-01  3.54000000E-01  3.54000000E-01  3.54000000E-01  3.54000000E-01
  3.54000000E-01  3.54000000E-01  3.54000000E-01  3.54000000E-01  3.54000000E-01
  3.54000000E-01  3.54000000E-01  3.54000000E-01  3.54000000E-01  3.54000000E-01
  3.54000000E-01  3.54000000E-01  3.54000000E-01  3.54000000E-01  3.54000000E-01
  3.54000000E-01  3.54000000E-01  3.54000000E-01  3.54000000E-01  3.54000000E-01
  3.54000000E-01  3.54000000E-01  3.54000000E-01  3.54000000E-01  3.54000000E-01
  3.54000000E-01  3.54000000E-01  3.54000000E-01  3.54000000E-01  3.54000000E-01
  3.54000000E-01  3.54000000E-01  3.54000000E-01  3.54000000E-01  3.54000000E-01
  3.54000000E-01  3.54000000E-01  3.54000000E-01  3.54000000E-01  3.54000000E-01
  3.54000000E-01  3.54000000E-01  3.54000000E-01  3.54000000E-01  3.54000000E-01
  3.54000000E-01  3.54000000E-01  3.54000000E-01  3.54000000E-01  3.54000000E-01
  3.54000000E-01  3.54000000E-01  3.54000000E-01  3.54000000E-01  3.54000000E-01
  3.54000000E-01  3.54000000E-01  3.54000000E-01  3.54000000E-01  3.54000000E-01
  3.54000000E-01  3.54000000E-01  3.54000000E-01  3.54000000E-01  3.54000000E-01
  3.54000000E-01  3.54000000E-01  3.54000000E-01  3.54000000E-01  3.54000000E-01
  3.54000000E-01  3.54000000E-01  3.54000000E-01  3.54000000E-01  3.54000000E-01
  3.54000000E-01  3.54000000E-01  3.54000000E-01  3.54000000E-01  3.54000000E-01
  3.54000000E-01  3.54000000E-01  3.54000000E-01  3.54000000E-01  3.54000000E-01
  3.54000000E-01  3.54000000E-01  3.54000000E-01  3.54000000E-01  3.54000000E-01
  2.74000000E-01  2.96000000E-01  5.80000000E-02  4.40000000E-02  3.90000000E-02
  3.90000000E-02  3.60000000E-02  3.20000000E-02  2.90000000E-02  3.30000000E-02
  5.50000000E-02  3.90000000E-02  3.30000000E-02  3.00000000E-02  2.80000000E-02
  2.60000000E-02  2.50000000E-02  2.50000000E-02  4.50000000E-02  4.40000000E-02
  3.30000000E-02  2.50000000E-02  2.10000000E-02  1.80000000E-02  1.50000000E-02
  1.80000000E-02  2.10000000E-02  2.50000000E-02  3.30000000E-02  5.00000000E-02
  3.80000000E-02  3.10000000E-02  2.70000000E-02  2.40000000E-02  2.20000000E-02
  2.10000000E-02  4.30000000E-02  4.00000000E-02  3.20000000E-02  2.50000000E-02
  2.10000000E-02  1.80000000E-02  1.60000000E-02  1.90000000E-02  2.20000000E-02
  2.80000000E-02  3.10000000E-02  4.70000000E-02  3.40000000E-02  2.80000000E-02
  2.40000000E-02  2.10000000E-02  1.90000000E-02  1.80000000E-02  3.90000000E-02
  3.60000000E-02  2.50000000E-02  2.50000000E-02  2.50000000E-02  2.60000000E-02
  2.60000000E-02  2.60000000E-02  2.70000000E-02  2.70000000E-02  2.70000000E-02
  2.70000000E-02  2.80000000E-02  2.80000000E-02  2.80000000E-02  3.30000000E-02
  3.30000000E-02  2.60000000E-02  2.10000000E-02  1.80000000E-02  1.60000000E-02
  1.80000000E-02  2.20000000E-02  2.60000000E-02  4.90000000E-02  8.20000000E-02
  3.00000000E-02  2.40000000E-02  2.10000000E-02  1.80000000E-02  1.60000000E-02
  1.50000000E-02  3.50000000E-02  3.60000000E-02  2.20000000E-02  2.30000000E-02
  2.40000000E-02  2.40000000E-02  2.50000000E-02  2.50000000E-02  2.60000000E-02
  2.70000000E-02  2.70000000E-02  2.80000000E-02  2.80000000E-02  2.90000000E-02
  3.00000000E-02  3.00000000E-02  3.10000000E-02  3.10000000E-02  3.10000000E-02
  3.10000000E-02  3.10000000E-02  3.10000000E-02  3.10000000E-02  3.10000000E-02
  3.10000000E-02  3.10000000E-02  3.10000000E-02  3.10000000E-02  3.10000000E-02
  3.10000000E-02  3.10000000E-02  3.10000000E-02  3.10000000E-02  3.10000000E-02
  3.10000000E-02  3.10000000E-02  3.10000000E-02  3.10000000E-02  3.10000000E-02
  3.10000000E-02  3.10000000E-02  3.10000000E-02  3.10000000E-02  3.10000000E-02
  3.10000000E-02  3.10000000E-02  3.10000000E-02  3.10000000E-02  3.10000000E-02
  3.10000000E-02  3.10000000E-02  3.10000000E-02  3.10000000E-02  3.10000000E-02
  3.10000000E-02  3.10000000E-02  3.10000000E-02  3.10000000E-02  3.10000000E-02
  3.10000000E-02  3.10000000E-02  3.10000000E-02  3.10000000E-02  3.10000000E-02
  3.10000000E-02  3.10000000E-02  3.10000000E-02  3.10000000E-02  3.10000000E-02
  3.10000000E-02  3.10000000E-02  3.10000000E-02  3.10000000E-02  3.10000000E-02
  3.10000000E-02  3.10000000E-02  3.10000000E-02  3.10000000E-02  3.10000000E-02
  3.10000000E-02  3.10000000E-02  3.10000000E-02  3.10000000E-02  3.10000000E-02
  3.10000000E-02  3.10000000E-02  3.10000000E-02  3.10000000E-02  3.10000000E-02
  3.10000000E-02  3.10000000E-02  3.10000000E-02  3.10000000E-02  3.10000000E-02
  3.10000000E-02  3.10000000E-02  3.10000000E-02  3.10000000E-02  3.10000000E-02
  3.10000000E-02  3.10000000E-02  3.10000000E-02  3.10000000E-02  3.10000000E-02
  3.10000000E-02  3.10000000E-02  3.10000000E-02  3.10000000E-02  3.10000000E-02
  3.10000000E-02  3.10000000E-02  3.10000000E-02  3.10000000E-02  3.10000000E-02
 -5.92770000E-01 -9.17860000E-01 -2.48668000E+00 -8.36430000E-01 -3.18470000E-01
 -4.55790000E-01 -5.70730000E-01 -6.77940000E-01 -7.69860000E-01 -8.51140000E-01
 -1.51908000E+00 -3.18830000E-01 -2.17900000E-01 -3.01260000E-01 -3.72750000E-01
 -4.15890000E-01 -4.45930000E-01 -5.91320000E-01 -9.56370000E-01 -2.88450000E-01
 -4.87320000E-01 -6.34280000E-01 -7.17490000E-01 -7.91980000E-01 -8.68490000E-01
 -9.17520000E-01 -9.54890000E-01 -9.88460000E-01 -1.50055000E+00 -2.92560000E-01
 -2.14960000E-01 -2.91180000E-01 -3.42080000E-01 -3.84480000E-01 -4.34940000E-01
 -5.24310000E-01 -8.10070000E-01 -2.58460000E-01 -4.35550000E-01 -5.32740000E-01
 -6.08450000E-01 -6.10260000E-01 -7.58920000E-01 -8.90130000E-01 -8.45780000E-01
 -8.69340000E-01 -1.38234000E+00 -2.64850000E-01 -1.97280000E-01 -2.65040000E-01
 -2.94470000E-01 -3.16570000E-01 -3.63590000E-01 -4.57840000E-01 -8.61830000E-01
 -1.33004000E+00 -6.82880000E-01 -6.25540000E-01 -6.35430000E-01 -8.79690000E-01
 -9.02690000E-01 -9.59650000E-01 -1.01869000E+00 -6.81170000E-01 -7.96500000E-01
 -9.04950000E-01 -8.34790000E-01 -9.01560000E-01 -9.74130000E-01 -1.03326000E+00
 -7.15490000E-01 -7.83960000E-01 -8.28380000E-01 -5.61040000E-01 -1.03841000E+00
 -8.62500000E-01 -9.59300000E-01 -1.01755000E+00 -7.64900000E-01 -1.29467000E+00
 -1.92740000E-01 -2.56010000E-01 -3.19820000E-01 -1.94660000E-01 -2.60090000E-01
 -4.27990000E-01  0.00000000E+00  0.00000000E+00  0.00000000E+00  0.00000000E+00
  0.00000000E+00  0.00000000E+00  0.00000000E+00  0.00000000E+00  0.00000000E+00
  0.00000000E+00  0.00000000E+00  0.00000000E+00  0.00000000E+00  0.00000000E+00
  0.00000000E+00  0.00000000E+00  0.00000000E+00  0.00000000E+00  0.00000000E+00
  0.00000000E+00  0.00000000E+00  0.00000000E+00  0.00000000E+00  0.00000000E+00
  0.00000000E+00  0.00000000E+00  0.00000000E+00  0.00000000E+00  0.00000000E+00
  0.00000000E+00  0.00000000E+00  0.00000000E+00  0.00000000E+00  0.00000000E+00
  0.00000000E+00  0.00000000E+00  0.00000000E+00  0.00000000E+00  0.00000000E+00
  0.00000000E+00  0.00000000E+00  0.00000000E+00  0.00000000E+00  0.00000000E+00
  0.00000000E+00  0.00000000E+00  0.00000000E+00  0.00000000E+00  0.00000000E+00
  0.00000000E+00  0.00000000E+00  0.00000000E+00  0.00000000E+00  0.00000000E+00
  0.00000000E+00  0.00000000E+00  0.00000000E+00  0.00000000E+00  0.00000000E+00
  0.00000000E+00  0.00000000E+00  0.00000000E+00  0.00000000E+00  0.00000000E+00
  0.00000000E+00  0.00000000E+00  0.00000000E+00  0.00000000E+00  0.00000000E+00
  0.00000000E+00  0.00000000E+00  0.00000000E+00  0.00000000E+00  0.00000000E+00
  0.00000000E+00  0.00000000E+00  0.00000000E+00  0.00000000E+00  0.00000000E+00
  0.00000000E+00  0.00000000E+00  0.00000000E+00  0.00000000E+00  0.00000000E+00
  0.00000000E+00  0.00000000E+00  0.00000000E+00  0.00000000E+00  0.00000000E+00
  0.00000000E+00  0.00000000E+00  0.00000000E+00  0.00000000E+00  0.00000000E+00
  0.00000000E+00  0.00000000E+00  0.00000000E+00  0.00000000E+00  0.00000000E+00
  0.00000000E+00  0.00000000E+00  0.00000000E+00  0.00000000E+00  0.00000000E+00
  0.00000000E+00  0.00000000E+00  0.00000000E+00  0.00000000E+00  0.00000000E+00
  0.00000000E+00  0.00000000E+00  0.00000000E+00  0.00000000E+00  0.00000000E+00
  1.90440000E+00  1.36430000E+00  4.84000000E-01  7.31600000E+00  9.24030000E+00
  8.78200000E+00  5.61290000E+00  4.83340000E+00  3.24870000E+00  2.71090000E+00
  2.01130000E+00  1.50282000E+01  1.46788000E+01  2.13546000E+01  2.38290000E+01
  1.98022000E+01  1.50468000E+01  1.09745000E+01  1.27219000E+01  1.51949000E+01
  1.57342000E+01  2.79222000E+01  1.61366000E+01  2.21252000E+01  2.45676000E+01
  1.96016000E+01  1.79818000E+01  1.72396000E+01  5.01500000E+00  1.92898000E+01
  2.34477000E+01  2.23993000E+01  2.96586000E+01  2.60081000E+01  2.15580000E+01
  1.69594000E+01  1.56479000E+01  1.86897000E+01  1.93530000E+01  3.43444000E+01
  1.98480000E+01  2.72140000E+01  3.02182000E+01  2.41099000E+01  2.21176000E+01
  2.12047000E+01  7.56690000E+00  2.37264000E+01  2.93879000E+01  3.01278000E+01
  4.19382000E+01  3.85203000E+01  3.39511000E+01  2.75774000E+01  1.56460000E+01
  1.04460000E+01  2.01830000E+01  4.99540000E+01  4.76430000E+01  1.18690000E+01
  1.08670000E+01  9.96100000E+00  9.18700000E+00  3.67980000E+01  1.34070000E+01
  9.38200000E+00  9.81700000E+00  8.90800000E+00  8.40700000E+00  8.05800000E+00
  1.29600000E+01  2.67920000E+01  2.49300000E+01  3.45630000E+01  1.11860000E+01
  1.09440000E+01  1.01270000E+01  9.40400000E+00  1.36660000E+01  7.81000000E+00
  6.93600000E+01  5.86630000E+01  4.79690000E+01  4.52740000E+01  3.92290000E+01
  3.30660000E+01  0.00000000E+00  0.00000000E+00  0.00000000E+00  0.00000000E+00
  0.00000000E+00  0.00000000E+00  0.00000000E+00  0.00000000E+00  0.00000000E+00
  0.00000000E+00  0.00000000E+00  0.00000000E+00  0.00000000E+00  0.00000000E+00
  0.00000000E+00  0.00000000E+00  0.00000000E+00  0.00000000E+00  0.00000000E+00
  0.00000000E+00  0.00000000E+00  0.00000000E+00  0.00000000E+00  0.00000000E+00
  0.00000000E+00  0.00000000E+00  0.00000000E+00  0.00000000E+00  0.00000000E+00
  0.00000000E+00  0.00000000E+00  0.00000000E+00  0.00000000E+00  0.00000000E+00
  0.00000000E+00  0.00000000E+00  0.00000000E+00  0.00000000E+00  0.00000000E+00
  0.00000000E+00  0.00000000E+00  0.00000000E+00  0.00000000E+00  0.00000000E+00
  0.00000000E+00  0.00000000E+00  0.00000000E+00  0.00000000E+00  0.00000000E+00
  0.00000000E+00  0.00000000E+00  0.00000000E+00  0.00000000E+00  0.00000000E+00
  0.00000000E+00  0.00000000E+00  0.00000000E+00  0.00000000E+00  0.00000000E+00
  0.00000000E+00  0.00000000E+00  0.00000000E+00  0.00000000E+00  0.00000000E+00
  0.00000000E+00  0.00000000E+00  0.00000000E+00  0.00000000E+00  0.00000000E+00
  0.00000000E+00  0.00000000E+00  0.00000000E+00  0.00000000E+00  0.00000000E+00
  0.00000000E+00  0.00000000E+00  0.00000000E+00  0.00000000E+00  0.00000000E+00
  0.00000000E+00  0.00000000E+00  0.00000000E+00  0.00000000E+00  0.00000000E+00
  0.00000000E+00  0.00000000E+00  0.00000000E+00  0.00000000E+00  0.00000000E+00
  0.00000000E+00  0.00000000E+00  0.00000000E+00  0.00000000E+00  0.00000000E+00
  0.00000000E+00  0.00000000E+00  0.00000000E+00  0.00000000E+00  0.00000000E+00
  0.00000000E+00  0.00000000E+00  0.00000000E+00  0.00000000E+00  0.00000000E+00
  0.00000000E+00  0.00000000E+00  0.00000000E+00  0.00000000E+00  0.00000000E+00
  0.00000000E+00  0.00000000E+00  0.00000000E+00  0.00000000E+00  0.00000000E+00
  0.00000000E+00  0.00000000E+00  0.00000000E+00  0.00000000E+00  0.00000000E+00
  0.00000000E+00  0.00000000E+00  0.00000000E+00  0.00000000E+00  0.00000000E+00
  0.00000000E+00  0.00000000E+00  0.00000000E+00  0.00000000E+00  0.00000000E+00
  0.00000000E+00  0.00000000E+00  0.00000000E+00  0.00000000E+00  0.00000000E+00
  0.00000000E+00  0.00000000E+00  0.00000000E+00  0.00000000E+00  0.00000000E+00
  0.00000000E+00  0.00000000E+00  0.00000000E+00  0.00000000E+00  0.00000000E+00
  0.00000000E+00  0.00000000E+00  0.00000000E+00  0.00000000E+00  0.00000000E+00
  0.00000000E+00  0.00000000E+00  0.00000000E+00  0.00000000E+00  0.00000000E+00
  0.00000000E+00  0.00000000E+00  0.00000000E+00  0.00000000E+00  0.00000000E+00
  0.00000000E+00  0.00000000E+00  0.00000000E+00  0.00000000E+00  0.00000000E+00
  0.00000000E+00  0.00000000E+00  0.00000000E+00  0.00000000E+00  0.00000000E+00
  0.00000000E+00  0.00000000E+00  0.00000000E+00  0.00000000E+00  0.00000000E+00
  0.00000000E+00  0.00000000E+00  0.00000000E+00  0.00000000E+00  0.00000000E+00
  0.00000000E+00  0.00000000E+00  0.00000000E+00  0.00000000E+00  0.00000000E+00
  0.00000000E+00  0.00000000E+00  0.00000000E+00  0.00000000E+00  0.00000000E+00
  0.00000000E+00  0.00000000E+00  0.00000000E+00  0.00000000E+00  0.00000000E+00
  0.00000000E+00  0.00000000E+00  0.00000000E+00  0.00000000E+00  0.00000000E+00
  0.00000000E+00  0.00000000E+00  0.00000000E+00  0.00000000E+00  0.00000000E+00
  0.00000000E+00  0.00000000E+00  0.00000000E+00  0.00000000E+00  0.00000000E+00
  0.00000000E+00  0.00000000E+00  0.00000000E+00  0.00000000E+00  0.00000000E+00
  0.00000000E+00  0.00000000E+00  0.00000000E+00  0.00000000E+00  0.00000000E+00
  0.00000000E+00  0.00000000E+00  0.00000000E+00  0.00000000E+00  0.00000000E+00
  0.00000000E+00  0.00000000E+00  0.00000000E+00  0.00000000E+00  0.00000000E+00
  0.00000000E+00  0.00000000E+00  0.00000000E+00  0.00000000E+00  0.00000000E+00
  0.00000000E+00  0.00000000E+00  0.00000000E+00  0.00000000E+00  0.00000000E+00
  0.00000000E+00  0.00000000E+00  0.00000000E+00  0.00000000E+00  0.00000000E+00
  0.00000000E+00  0.00000000E+00  0.00000000E+00  0.00000000E+00  0.00000000E+00
  0.00000000E+00  0.00000000E+00  0.00000000E+00  0.00000000E+00  0.00000000E+00
  0.00000000E+00  0.00000000E+00  0.00000000E+00  0.00000000E+00  0.00000000E+00
  0.00000000E+00  0.00000000E+00  0.00000000E+00  0.00000000E+00  0.00000000E+00
  0.00000000E+00  0.00000000E+00  0.00000000E+00  0.00000000E+00  0.00000000E+00
  0.00000000E+00  0.00000000E+00  0.00000000E+00  0.00000000E+00  0.00000000E+00
  0.00000000E+00  0.00000000E+00  0.00000000E+00  0.00000000E+00  0.00000000E+00
  0.00000000E+00  0.00000000E+00  0.00000000E+00  0.00000000E+00  0.00000000E+00
  0.00000000E+00  0.00000000E+00  0.00000000E+00  0.00000000E+00  0.00000000E+00
  0.00000000E+00  0.00000000E+00  0.00000000E+00  0.00000000E+00  0.00000000E+00
  0.00000000E+00  0.00000000E+00  0.00000000E+00  0.00000000E+00  0.00000000E+00
  0.00000000E+00  0.00000000E+00  0.00000000E+00  0.00000000E+00  0.00000000E+00
  0.00000000E+00  0.00000000E+00  0.00000000E+00  0.00000000E+00  0.00000000E+00
  0.00000000E+00  0.00000000E+00  0.00000000E+00  0.00000000E+00  0.00000000E+00
  0.00000000E+00  0.00000000E+00  0.00000000E+00  0.00000000E+00  0.00000000E+00
  0.00000000E+00  0.00000000E+00  0.00000000E+00  0.00000000E+00  0.00000000E+00
  0.00000000E+00  0.00000000E+00  0.00000000E+00  0.00000000E+00  0.00000000E+00
  0.00000000E+00  0.00000000E+00  0.00000000E+00  0.00000000E+00  0.00000000E+00
  0.00000000E+00  0.00000000E+00  0.00000000E+00  0.00000000E+00  0.00000000E+00
  0.00000000E+00  0.00000000E+00  0.00000000E+00  0.00000000E+00  0.00000000E+00
  0.00000000E+00  0.00000000E+00  0.00000000E+00  0.00000000E+00  0.00000000E+00
  0.00000000E+00  0.00000000E+00  0.00000000E+00  0.00000000E+00  0.00000000E+00
  0.00000000E+00  0.00000000E+00  0.00000000E+00  0.00000000E+00  0.00000000E+00
  0.00000000E+00  0.00000000E+00  0.00000000E+00  0.00000000E+00  0.00000000E+00
  0.00000000E+00  0.00000000E+00  0.00000000E+00  0.00000000E+00  0.00000000E+00
  0.00000000E+00  0.00000000E+00  0.00000000E+00  0.00000000E+00  0.00000000E+00
  0.00000000E+00  0.00000000E+00  0.00000000E+00  0.00000000E+00  0.00000000E+00
  0.00000000E+00  0.00000000E+00  0.00000000E+00  0.00000000E+00  0.00000000E+00
  0.00000000E+00  0.00000000E+00  0.00000000E+00  0.00000000E+00  0.00000000E+00
  0.00000000E+00  0.00000000E+00  0.00000000E+00  0.00000000E+00  0.00000000E+00
  0.00000000E+00  0.00000000E+00  0.00000000E+00  0.00000000E+00  0.00000000E+00
  0.00000000E+00  0.00000000E+00  0.00000000E+00  0.00000000E+00  0.00000000E+00
  0.00000000E+00  0.00000000E+00  0.00000000E+00  0.00000000E+00  0.00000000E+00
  0.00000000E+00  0.00000000E+00  0.00000000E+00  0.00000000E+00  0.00000000E+00
  0.00000000E+00  0.00000000E+00  0.00000000E+00  0.00000000E+00  0.00000000E+00
  0.00000000E+00  0.00000000E+00  0.00000000E+00  0.00000000E+00  0.00000000E+00
  0.00000000E+00  0.00000000E+00  0.00000000E+00  0.00000000E+00  0.00000000E+00
  0.00000000E+00  0.00000000E+00  0.00000000E+00  0.00000000E+00  0.00000000E+00
  0.00000000E+00  0.00000000E+00  0.00000000E+00  0.00000000E+00  0.00000000E+00
  0.00000000E+00  0.00000000E+00  0.00000000E+00  0.00000000E+00  0.00000000E+00
  0.00000000E+00  0.00000000E+00  0.00000000E+00  0.00000000E+00  0.00000000E+00
  0.00000000E+00  0.00000000E+00  0.00000000E+00  0.00000000E+00  0.00000000E+00
  0.00000000E+00  0.00000000E+00  0.00000000E+00  0.00000000E+00  0.00000000E+00
  0.00000000E+00  0.00000000E+00  0.00000000E+00  0.00000000E+00  0.00000000E+00
  0.00000000E+00  0.00000000E+00  0.00000000E+00  0.00000000E+00  0.00000000E+00
  0.00000000E+00  0.00000000E+00  0.00000000E+00  0.00000000E+00  0.00000000E+00
  0.00000000E+00  0.00000000E+00  0.00000000E+00  0.00000000E+00  0.00000000E+00
  0.00000000E+00  0.00000000E+00  0.00000000E+00  0.00000000E+00  0.00000000E+00
  0.00000000E+00  0.00000000E+00  0.00000000E+00  0.00000000E+00  0.00000000E+00
  0.00000000E+00  0.00000000E+00  0.00000000E+00  0.00000000E+00  0.00000000E+00
  0.00000000E+00  0.00000000E+00  0.00000000E+00  0.00000000E+00  0.00000000E+00
  0.00000000E+00  0.00000000E+00  0.00000000E+00  0.00000000E+00  0.00000000E+00
  0.00000000E+00  0.00000000E+00  0.00000000E+00  0.00000000E+00  0.00000000E+00
  0.00000000E+00  0.00000000E+00  0.00000000E+00  0.00000000E+00  0.00000000E+00
  0.00000000E+00  0.00000000E+00  0.00000000E+00  0.00000000E+00  0.00000000E+00
  0.00000000E+00  0.00000000E+00  0.00000000E+00  0.00000000E+00  0.00000000E+00
  0.00000000E+00  0.00000000E+00  0.00000000E+00  0.00000000E+00  0.00000000E+00
  0.00000000E+00  0.00000000E+00  0.00000000E+00  0.00000000E+00  0.00000000E+00
  0.00000000E+00  0.00000000E+00  0.00000000E+00  0.00000000E+00  0.00000000E+00
  0.00000000E+00  0.00000000E+00  0.00000000E+00  0.00000000E+00  0.00000000E+00
  0.00000000E+00  0.00000000E+00  0.00000000E+00  0.00000000E+00  0.00000000E+00
  0.00000000E+00  0.00000000E+00  0.00000000E+00  0.00000000E+00  0.00000000E+00
  0.00000000E+00  0.00000000E+00  0.00000000E+00  0.00000000E+00  0.00000000E+00
  0.00000000E+00  0.00000000E+00  0.00000000E+00  0.00000000E+00  0.00000000E+00
  0.00000000E+00  0.00000000E+00  0.00000000E+00  0.00000000E+00  0.00000000E+00
  0.00000000E+00  0.00000000E+00  0.00000000E+00  0.00000000E+00  0.00000000E+00
  0.00000000E+00  0.00000000E+00  0.00000000E+00  0.00000000E+00  0.00000000E+00
  0.00000000E+00  0.00000000E+00  0.00000000E+00  0.00000000E+00  0.00000000E+00
  0.00000000E+00  0.00000000E+00  0.00000000E+00  0.00000000E+00  0.00000000E+00
  0.00000000E+00  0.00000000E+00  0.00000000E+00  0.00000000E+00  0.00000000E+00
  0.00000000E+00  0.00000000E+00  0.00000000E+00  0.00000000E+00  0.00000000E+00
  0.00000000E+00  0.00000000E+00  0.00000000E+00  0.00000000E+00  0.00000000E+00
  0.00000000E+00  0.00000000E+00  0.00000000E+00  0.00000000E+00  0.00000000E+00
  0.00000000E+00  0.00000000E+00  0.00000000E+00  0.00000000E+00  0.00000000E+00
  0.00000000E+00  0.00000000E+00  0.00000000E+00  0.00000000E+00  0.00000000E+00
  0.00000000E+00  0.00000000E+00  0.00000000E+00  0.00000000E+00  0.00000000E+00
  0.00000000E+00  0.00000000E+00  0.00000000E+00  0.00000000E+00  0.00000000E+00
  0.00000000E+00  0.00000000E+00  0.00000000E+00  0.00000000E+00  0.00000000E+00
  0.00000000E+00  0.00000000E+00  0.00000000E+00  0.00000000E+00  0.00000000E+00
  0.00000000E+00  0.00000000E+00  0.00000000E+00  0.00000000E+00  0.00000000E+00
  0.00000000E+00  0.00000000E+00  0.00000000E+00  0.00000000E+00  0.00000000E+00
  0.00000000E+00  0.00000000E+00  0.00000000E+00  0.00000000E+00  0.00000000E+00
  0.00000000E+00  0.00000000E+00  0.00000000E+00  0.00000000E+00  0.00000000E+00
  0.00000000E+00  0.00000000E+00  0.00000000E+00  0.00000000E+00  0.00000000E+00
  0.00000000E+00  0.00000000E+00  0.00000000E+00  0.00000000E+00  0.00000000E+00
  0.00000000E+00  0.00000000E+00  0.00000000E+00  0.00000000E+00  0.00000000E+00
  0.00000000E+00  0.00000000E+00  0.00000000E+00  0.00000000E+00  0.00000000E+00
  0.00000000E+00  0.00000000E+00  0.00000000E+00  0.00000000E+00  0.00000000E+00
  0.00000000E+00  0.00000000E+00  0.00000000E+00  0.00000000E+00  0.00000000E+00
  0.00000000E+00  0.00000000E+00  0.00000000E+00  0.00000000E+00  0.00000000E+00
  0.00000000E+00  0.00000000E+00  0.00000000E+00  0.00000000E+00  0.00000000E+00
  0.00000000E+00  0.00000000E+00  0.00000000E+00  0.00000000E+00  0.00000000E+00
  0.00000000E+00  0.00000000E+00  0.00000000E+00  0.00000000E+00  0.00000000E+00
  0.00000000E+00  0.00000000E+00  0.00000000E+00  0.00000000E+00  0.00000000E+00
  0.00000000E+00  0.00000000E+00  0.00000000E+00  0.00000000E+00  0.00000000E+00
  0.00000000E+00  0.00000000E+00  0.00000000E+00  0.00000000E+00  0.00000000E+00
  0.00000000E+00  0.00000000E+00  0.00000000E+00  0.00000000E+00  0.00000000E+00
  0.00000000E+00  0.00000000E+00  0.00000000E+00  0.00000000E+00  0.00000000E+00
  0.00000000E+00  0.00000000E+00  0.00000000E+00  0.00000000E+00  0.00000000E+00
  0.00000000E+00  0.00000000E+00  0.00000000E+00  0.00000000E+00  0.00000000E+00
  0.00000000E+00  0.00000000E+00  0.00000000E+00  0.00000000E+00  0.00000000E+00
  0.00000000E+00  0.00000000E+00  0.00000000E+00  0.00000000E+00  0.00000000E+00
  0.00000000E+00  0.00000000E+00  0.00000000E+00  0.00000000E+00  0.00000000E+00
  0.00000000E+00  0.00000000E+00  0.00000000E+00  0.00000000E+00  0.00000000E+00
  0.00000000E+00  0.00000000E+00  0.00000000E+00  0.00000000E+00  0.00000000E+00
  0.00000000E+00  0.00000000E+00  0.00000000E+00  0.00000000E+00  0.00000000E+00
  0.00000000E+00  0.00000000E+00  0.00000000E+00  0.00000000E+00  0.00000000E+00
  0.00000000E+00  0.00000000E+00  0.00000000E+00  0.00000000E+00  0.00000000E+00
  0.00000000E+00  0.00000000E+00  0.00000000E+00  0.00000000E+00  0.00000000E+00
  0.00000000E+00  0.00000000E+00  0.00000000E+00  0.00000000E+00  0.00000000E+00
  0.00000000E+00  0.00000000E+00  0.00000000E+00  0.00000000E+00  0.00000000E+00
  0.00000000E+00  0.00000000E+00  0.00000000E+00  0.00000000E+00  0.00000000E+00
  0.00000000E+00  0.00000000E+00  0.00000000E+00  0.00000000E+00  0.00000000E+00
  0.00000000E+00  0.00000000E+00  0.00000000E+00  0.00000000E+00  0.00000000E+00
  0.00000000E+00  0.00000000E+00  0.00000000E+00  0.00000000E+00  0.00000000E+00
  0.00000000E+00  0.00000000E+00  0.00000000E+00  0.00000000E+00  0.00000000E+00
  0.00000000E+00  0.00000000E+00  0.00000000E+00  0.00000000E+00  0.00000000E+00
  0.00000000E+00  0.00000000E+00  0.00000000E+00  0.00000000E+00  0.00000000E+00
  0.00000000E+00  0.00000000E+00  0.00000000E+00  0.00000000E+00  0.00000000E+00
  0.00000000E+00  0.00000000E+00  0.00000000E+00  0.00000000E+00  0.00000000E+00
  0.00000000E+00  0.00000000E+00  0.00000000E+00  0.00000000E+00  0.00000000E+00
  0.00000000E+00  0.00000000E+00  0.00000000E+00  0.00000000E+00  0.00000000E+00
  0.00000000E+00  0.00000000E+00  0.00000000E+00  0.00000000E+00  0.00000000E+00
  0.00000000E+00  0.00000000E+00  0.00000000E+00  0.00000000E+00  0.00000000E+00
  0.00000000E+00  0.00000000E+00  0.00000000E+00  0.00000000E+00  0.00000000E+00
  0.00000000E+00  0.00000000E+00  0.00000000E+00  0.00000000E+00  0.00000000E+00
  0.00000000E+00  0.00000000E+00  0.00000000E+00  0.00000000E+00  0.00000000E+00
  0.00000000E+00  0.00000000E+00  0.00000000E+00  0.00000000E+00  0.00000000E+00
  0.00000000E+00  0.00000000E+00  0.00000000E+00  0.00000000E+00  0.00000000E+00
  0.00000000E+00  0.00000000E+00  0.00000000E+00  0.00000000E+00  0.00000000E+00
  0.00000000E+00  0.00000000E+00  0.00000000E+00  0.00000000E+00  0.00000000E+00
  0.00000000E+00  0.00000000E+00  0.00000000E+00  0.00000000E+00  0.00000000E+00
  0.00000000E+00  0.00000000E+00  0.00000000E+00  0.00000000E+00  0.00000000E+00
  0.00000000E+00  0.00000000E+00  0.00000000E+00  0.00000000E+00  0.00000000E+00
  0.00000000E+00  0.00000000E+00  0.00000000E+00  0.00000000E+00  0.00000000E+00
  0.00000000E+00  0.00000000E+00  0.00000000E+00  0.00000000E+00  0.00000000E+00
  0.00000000E+00  0.00000000E+00  0.00000000E+00  0.00000000E+00  0.00000000E+00
  0.00000000E+00  0.00000000E+00  0.00000000E+00  0.00000000E+00  0.00000000E+00
  0.00000000E+00  0.00000000E+00  0.00000000E+00  0.00000000E+00  0.00000000E+00
  0.00000000E+00  0.00000000E+00  0.00000000E+00  0.00000000E+00  0.00000000E+00
  0.00000000E+00  0.00000000E+00  0.00000000E+00  0.00000000E+00  0.00000000E+00
  0.00000000E+00  0.00000000E+00  0.00000000E+00  0.00000000E+00  0.00000000E+00
  0.00000000E+00  0.00000000E+00  0.00000000E+00  0.00000000E+00  0.00000000E+00
  0.00000000E+00  0.00000000E+00  0.00000000E+00  0.00000000E+00  0.00000000E+00
  0.00000000E+00  0.00000000E+00  0.00000000E+00  0.00000000E+00  0.00000000E+00
  0.00000000E+00  0.00000000E+00  0.00000000E+00  0.00000000E+00  0.00000000E+00
  0.00000000E+00  0.00000000E+00  0.00000000E+00  0.00000000E+00  0.00000000E+00
  0.00000000E+00  0.00000000E+00  0.00000000E+00  0.00000000E+00  0.00000000E+00
  0.00000000E+00  0.00000000E+00  0.00000000E+00  0.00000000E+00  0.00000000E+00
  0.00000000E+00  0.00000000E+00  0.00000000E+00  0.00000000E+00  0.00000000E+00
  0.00000000E+00  0.00000000E+00  0.00000000E+00  0.00000000E+00  0.00000000E+00
  0.00000000E+00  0.00000000E+00  0.00000000E+00  0.00000000E+00  0.00000000E+00
  0.00000000E+00  0.00000000E+00  0.00000000E+00  0.00000000E+00  0.00000000E+00
  0.00000000E+00  0.00000000E+00  0.00000000E+00  0.00000000E+00  0.00000000E+00
  0.00000000E+00  0.00000000E+00  0.00000000E+00  0.00000000E+00  0.00000000E+00
  0.00000000E+00  0.00000000E+00  0.00000000E+00  0.00000000E+00  0.00000000E+00
  0.00000000E+00  0.00000000E+00  0.00000000E+00  0.00000000E+00  0.00000000E+00
  0.00000000E+00  0.00000000E+00  0.00000000E+00  0.00000000E+00  0.00000000E+00
  0.00000000E+00  0.00000000E+00  0.00000000E+00  0.00000000E+00  0.00000000E+00
  0.00000000E+00  0.00000000E+00  0.00000000E+00  0.00000000E+00  0.00000000E+00
  0.00000000E+00  0.00000000E+00  0.00000000E+00  0.00000000E+00  0.00000000E+00
  0.00000000E+00  0.00000000E+00  0.00000000E+00  0.00000000E+00  0.00000000E+00
  0.00000000E+00  0.00000000E+00  0.00000000E+00  0.00000000E+00  0.00000000E+00
  0.00000000E+00  0.00000000E+00  0.00000000E+00  0.00000000E+00  0.00000000E+00
  0.00000000E+00  0.00000000E+00  0.00000000E+00  0.00000000E+00  0.00000000E+00
  0.00000000E+00  0.00000000E+00  0.00000000E+00  0.00000000E+00  0.00000000E+00
  0.00000000E+00  0.00000000E+00  0.00000000E+00  0.00000000E+00  0.00000000E+00
  0.00000000E+00  0.00000000E+00  0.00000000E+00  0.00000000E+00  0.00000000E+00
  0.00000000E+00  0.00000000E+00  0.00000000E+00  0.00000000E+00  0.00000000E+00
  0.00000000E+00  0.00000000E+00  0.00000000E+00  0.00000000E+00  0.00000000E+00
  0.00000000E+00  0.00000000E+00  0.00000000E+00  0.00000000E+00  0.00000000E+00
  0.00000000E+00  0.00000000E+00  0.00000000E+00  0.00000000E+00  0.00000000E+00
  0.00000000E+00  0.00000000E+00  0.00000000E+00  0.00000000E+00  0.00000000E+00
  0.00000000E+00  0.00000000E+00  0.00000000E+00  0.00000000E+00  0.00000000E+00
  0.00000000E+00  0.00000000E+00  0.00000000E+00  0.00000000E+00  0.00000000E+00
  0.00000000E+00  0.00000000E+00  0.00000000E+00  0.00000000E+00  0.00000000E+00
  0.00000000E+00  0.00000000E+00  0.00000000E+00  0.00000000E+00  0.00000000E+00
  0.00000000E+00  0.00000000E+00  0.00000000E+00  0.00000000E+00  0.00000000E+00
  0.00000000E+00  0.00000000E+00  0.00000000E+00  0.00000000E+00  0.00000000E+00
  0.00000000E+00  0.00000000E+00  0.00000000E+00  0.00000000E+00  0.00000000E+00
  0.00000000E+00  0.00000000E+00  0.00000000E+00  0.00000000E+00  0.00000000E+00
  0.00000000E+00  0.00000000E+00  0.00000000E+00  0.00000000E+00  0.00000000E+00
  0.00000000E+00  0.00000000E+00  0.00000000E+00  0.00000000E+00  0.00000000E+00
  0.00000000E+00  0.00000000E+00  0.00000000E+00  0.00000000E+00  0.00000000E+00
  0.00000000E+00  0.00000000E+00  0.00000000E+00  0.00000000E+00  0.00000000E+00
  0.00000000E+00  0.00000000E+00  0.00000000E+00  0.00000000E+00  0.00000000E+00
  0.00000000E+00  0.00000000E+00  0.00000000E+00  0.00000000E+00  0.00000000E+00
  0.00000000E+00  0.00000000E+00  0.00000000E+00  0.00000000E+00  0.00000000E+00
  0.00000000E+00  0.00000000E+00  0.00000000E+00  0.00000000E+00  0.00000000E+00
  0.00000000E+00  0.00000000E+00  0.00000000E+00  0.00000000E+00  0.00000000E+00
  0.00000000E+00  0.00000000E+00  0.00000000E+00  0.00000000E+00  0.00000000E+00
  0.00000000E+00  0.00000000E+00  0.00000000E+00  0.00000000E+00  0.00000000E+00
  0.00000000E+00  0.00000000E+00  0.00000000E+00  0.00000000E+00  0.00000000E+00
  0.00000000E+00  0.00000000E+00  0.00000000E+00  0.00000000E+00  0.00000000E+00
  0.00000000E+00  0.00000000E+00  0.00000000E+00  0.00000000E+00  0.00000000E+00
  0.00000000E+00  0.00000000E+00  0.00000000E+00  0.00000000E+00  0.00000000E+00
  0.00000000E+00  0.00000000E+00  0.00000000E+00  0.00000000E+00  0.00000000E+00
  0.00000000E+00  0.00000000E+00  0.00000000E+00  0.00000000E+00  0.00000000E+00
  0.00000000E+00  0.00000000E+00  0.00000000E+00  0.00000000E+00  0.00000000E+00
  0.00000000E+00  0.00000000E+00  0.00000000E+00  0.00000000E+00  0.00000000E+00
  0.00000000E+00  0.00000000E+00  0.00000000E+00  0.00000000E+00  0.00000000E+00
  0.00000000E+00  0.00000000E+00  0.00000000E+00  0.00000000E+00  0.00000000E+00
  0.00000000E+00  0.00000000E+00  0.00000000E+00  0.00000000E+00  0.00000000E+00
  0.00000000E+00  0.00000000E+00  0.00000000E+00  0.00000000E+00  0.00000000E+00
  0.00000000E+00  0.00000000E+00  0.00000000E+00  0.00000000E+00  0.00000000E+00
  0.00000000E+00  0.00000000E+00  0.00000000E+00  0.00000000E+00  0.00000000E+00
  0.00000000E+00  0.00000000E+00  0.00000000E+00  0.00000000E+00  0.00000000E+00
  0.00000000E+00  0.00000000E+00  0.00000000E+00  0.00000000E+00  0.00000000E+00
  0.00000000E+00  0.00000000E+00  0.00000000E+00  0.00000000E+00  0.00000000E+00
  0.00000000E+00  0.00000000E+00  0.00000000E+00  0.00000000E+00  0.00000000E+00
  0.00000000E+00  0.00000000E+00  0.00000000E+00  0.00000000E+00  0.00000000E+00
  0.00000000E+00  0.00000000E+00  0.00000000E+00  0.00000000E+00  0.00000000E+00
  0.00000000E+00  0.00000000E+00  0.00000000E+00  0.00000000E+00  0.00000000E+00
  0.00000000E+00  0.00000000E+00  0.00000000E+00  0.00000000E+00  0.00000000E+00
  0.00000000E+00  0.00000000E+00  0.00000000E+00  0.00000000E+00  0.00000000E+00
  0.00000000E+00  0.00000000E+00  0.00000000E+00  0.00000000E+00  0.00000000E+00
  0.00000000E+00  0.00000000E+00  0.00000000E+00  0.00000000E+00  0.00000000E+00
  0.00000000E+00  0.00000000E+00  0.00000000E+00  0.00000000E+00  0.00000000E+00
  0.00000000E+00  0.00000000E+00  0.00000000E+00  0.00000000E+00  0.00000000E+00
  0.00000000E+00  0.00000000E+00  0.00000000E+00  0.00000000E+00  0.00000000E+00
  0.00000000E+00  0.00000000E+00  0.00000000E+00  0.00000000E+00  0.00000000E+00
  0.00000000E+00  0.00000000E+00  0.00000000E+00  0.00000000E+00  0.00000000E+00
  0.00000000E+00  0.00000000E+00  0.00000000E+00  0.00000000E+00  0.00000000E+00
  0.00000000E+00  0.00000000E+00  0.00000000E+00  0.00000000E+00  0.00000000E+00
  0.00000000E+00  0.00000000E+00  0.00000000E+00  0.00000000E+00  0.00000000E+00
  0.00000000E+00  0.00000000E+00  0.00000000E+00  0.00000000E+00  0.00000000E+00
  0.00000000E+00  0.00000000E+00  0.00000000E+00  0.00000000E+00  0.00000000E+00
  0.00000000E+00  0.00000000E+00  0.00000000E+00  0.00000000E+00  0.00000000E+00
  0.00000000E+00  0.00000000E+00  0.00000000E+00  0.00000000E+00  0.00000000E+00
  0.00000000E+00  0.00000000E+00  0.00000000E+00  0.00000000E+00  0.00000000E+00
  0.00000000E+00  0.00000000E+00  0.00000000E+00  0.00000000E+00  0.00000000E+00
  0.00000000E+00  0.00000000E+00  0.00000000E+00  0.00000000E+00  0.00000000E+00
  0.00000000E+00  0.00000000E+00  0.00000000E+00  0.00000000E+00  0.00000000E+00
  0.00000000E+00  0.00000000E+00  0.00000000E+00  0.00000000E+00  0.00000000E+00
  0.00000000E+00  0.00000000E+00  0.00000000E+00  0.00000000E+00  0.00000000E+00
  0.00000000E+00  0.00000000E+00  0.00000000E+00  0.00000000E+00  0.00000000E+00
  0.00000000E+00  0.00000000E+00  0.00000000E+00  0.00000000E+00  0.00000000E+00
  0.00000000E+00  0.00000000E+00  0.00000000E+00  0.00000000E+00  0.00000000E+00
  0.00000000E+00  0.00000000E+00  0.00000000E+00  0.00000000E+00  0.00000000E+00
  0.00000000E+00  0.00000000E+00  0.00000000E+00  0.00000000E+00  0.00000000E+00
  0.00000000E+00  0.00000000E+00  0.00000000E+00  0.00000000E+00  0.00000000E+00
  0.00000000E+00  0.00000000E+00  0.00000000E+00  0.00000000E+00  0.00000000E+00
  0.00000000E+00  0.00000000E+00  0.00000000E+00  0.00000000E+00  0.00000000E+00
  0.00000000E+00  0.00000000E+00  0.00000000E+00  0.00000000E+00  0.00000000E+00
  0.00000000E+00  0.00000000E+00  0.00000000E+00  0.00000000E+00  0.00000000E+00
  0.00000000E+00  0.00000000E+00  0.00000000E+00  0.00000000E+00  0.00000000E+00
  0.00000000E+00  0.00000000E+00  0.00000000E+00  0.00000000E+00  0.00000000E+00
  0.00000000E+00  0.00000000E+00  0.00000000E+00  0.00000000E+00  0.00000000E+00
  0.00000000E+00  0.00000000E+00  0.00000000E+00  0.00000000E+00  0.00000000E+00
  0.00000000E+00  0.00000000E+00  0.00000000E+00  0.00000000E+00  0.00000000E+00
  0.00000000E+00  0.00000000E+00  0.00000000E+00  0.00000000E+00  0.00000000E+00
  0.00000000E+00  0.00000000E+00  0.00000000E+00  0.00000000E+00  0.00000000E+00
  0.00000000E+00  0.00000000E+00  0.00000000E+00  0.00000000E+00  0.00000000E+00
  0.00000000E+00  0.00000000E+00  0.00000000E+00  0.00000000E+00  0.00000000E+00
  0.00000000E+00  0.00000000E+00  0.00000000E+00  0.00000000E+00  0.00000000E+00
  0.00000000E+00  0.00000000E+00  0.00000000E+00  0.00000000E+00  0.00000000E+00
  0.00000000E+00  0.00000000E+00  0.00000000E+00  0.00000000E+00  0.00000000E+00
  0.00000000E+00  0.00000000E+00  0.00000000E+00  0.00000000E+00  0.00000000E+00
  0.00000000E+00  0.00000000E+00  0.00000000E+00  0.00000000E+00  0.00000000E+00
  0.00000000E+00  0.00000000E+00  0.00000000E+00  0.00000000E+00  0.00000000E+00
  0.00000000E+00  0.00000000E+00  0.00000000E+00  0.00000000E+00  0.00000000E+00
  0.00000000E+00  0.00000000E+00  0.00000000E+00  0.00000000E+00  0.00000000E+00
  0.00000000E+00  0.00000000E+00  0.00000000E+00  0.00000000E+00  0.00000000E+00
  0.00000000E+00  0.00000000E+00  0.00000000E+00  0.00000000E+00  0.00000000E+00
  0.00000000E+00  0.00000000E+00  0.00000000E+00  0.00000000E+00  0.00000000E+00
  0.00000000E+00  0.00000000E+00  0.00000000E+00  0.00000000E+00  0.00000000E+00
  0.00000000E+00  0.00000000E+00  0.00000000E+00  0.00000000E+00  0.00000000E+00
  0.00000000E+00  0.00000000E+00  0.00000000E+00  0.00000000E+00  0.00000000E+00
  0.00000000E+00  0.00000000E+00  0.00000000E+00  0.00000000E+00  0.00000000E+00
  0.00000000E+00  0.00000000E+00  0.00000000E+00  0.00000000E+00  0.00000000E+00
  0.00000000E+00  0.00000000E+00  0.00000000E+00  0.00000000E+00  0.00000000E+00
  0.00000000E+00  0.00000000E+00  0.00000000E+00  0.00000000E+00  0.00000000E+00
  0.00000000E+00  0.00000000E+00  0.00000000E+00  0.00000000E+00  0.00000000E+00
  0.00000000E+00  0.00000000E+00  0.00000000E+00  0.00000000E+00  0.00000000E+00
  0.00000000E+00  0.00000000E+00  0.00000000E+00  0.00000000E+00  0.00000000E+00
  0.00000000E+00  0.00000000E+00  0.00000000E+00  0.00000000E+00  0.00000000E+00
  0.00000000E+00  0.00000000E+00  0.00000000E+00  0.00000000E+00  0.00000000E+00
  0.00000000E+00  0.00000000E+00  0.00000000E+00  0.00000000E+00  0.00000000E+00
  0.00000000E+00  0.00000000E+00  0.00000000E+00  0.00000000E+00  0.00000000E+00
  0.00000000E+00  0.00000000E+00  0.00000000E+00  0.00000000E+00  0.00000000E+00
  0.00000000E+00  0.00000000E+00  0.00000000E+00  0.00000000E+00  0.00000000E+00
  0.00000000E+00  0.00000000E+00  0.00000000E+00  0.00000000E+00  0.00000000E+00
  0.00000000E+00  0.00000000E+00  0.00000000E+00  0.00000000E+00  0.00000000E+00
  0.00000000E+00  0.00000000E+00  0.00000000E+00  0.00000000E+00  0.00000000E+00
  0.00000000E+00  0.00000000E+00  0.00000000E+00  0.00000000E+00  0.00000000E+00
  0.00000000E+00  0.00000000E+00  0.00000000E+00  0.00000000E+00  0.00000000E+00
  0.00000000E+00  0.00000000E+00  0.00000000E+00  0.00000000E+00  0.00000000E+00
  0.00000000E+00  0.00000000E+00  0.00000000E+00  0.00000000E+00  0.00000000E+00
  0.00000000E+00  0.00000000E+00  0.00000000E+00  0.00000000E+00  0.00000000E+00
  0.00000000E+00  0.00000000E+00  0.00000000E+00  0.00000000E+00  0.00000000E+00
  0.00000000E+00  0.00000000E+00  0.00000000E+00  0.00000000E+00  0.00000000E+00
  0.00000000E+00  0.00000000E+00  0.00000000E+00  0.00000000E+00  0.00000000E+00
  0.00000000E+00  0.00000000E+00  0.00000000E+00  0.00000000E+00  0.00000000E+00
  0.00000000E+00  0.00000000E+00  0.00000000E+00  0.00000000E+00  0.00000000E+00
  0.00000000E+00  0.00000000E+00  0.00000000E+00  0.00000000E+00  0.00000000E+00
  0.00000000E+00  0.00000000E+00  0.00000000E+00  0.00000000E+00  0.00000000E+00
  0.00000000E+00  0.00000000E+00  0.00000000E+00  0.00000000E+00  0.00000000E+00
  0.00000000E+00  0.00000000E+00  0.00000000E+00  0.00000000E+00  0.00000000E+00
  0.00000000E+00  0.00000000E+00  0.00000000E+00  0.00000000E+00  0.00000000E+00
  0.00000000E+00  0.00000000E+00  0.00000000E+00  0.00000000E+00  0.00000000E+00
  0.00000000E+00  0.00000000E+00  0.00000000E+00  0.00000000E+00  0.00000000E+00
  0.00000000E+00  0.00000000E+00  0.00000000E+00  0.00000000E+00  0.00000000E+00
  0.00000000E+00  0.00000000E+00  0.00000000E+00  0.00000000E+00  0.00000000E+00
  0.00000000E+00  0.00000000E+00  0.00000000E+00  0.00000000E+00  0.00000000E+00
  0.00000000E+00  0.00000000E+00  0.00000000E+00  0.00000000E+00  0.00000000E+00
  0.00000000E+00  0.00000000E+00  0.00000000E+00  0.00000000E+00  0.00000000E+00
  0.00000000E+00  0.00000000E+00  0.00000000E+00  0.00000000E+00  0.00000000E+00
  0.00000000E+00  0.00000000E+00  0.00000000E+00  0.00000000E+00  0.00000000E+00
  0.00000000E+00  0.00000000E+00  0.00000000E+00  0.00000000E+00  0.00000000E+00
  0.00000000E+00  0.00000000E+00  0.00000000E+00  0.00000000E+00  0.00000000E+00
  0.00000000E+00  0.00000000E+00  0.00000000E+00  0.00000000E+00  0.00000000E+00
  0.00000000E+00  0.00000000E+00  0.00000000E+00  0.00000000E+00  0.00000000E+00
  0.00000000E+00  0.00000000E+00  0.00000000E+00  0.00000000E+00  0.00000000E+00
  0.00000000E+00  0.00000000E+00  0.00000000E+00  0.00000000E+00  0.00000000E+00
  0.00000000E+00  0.00000000E+00  0.00000000E+00  0.00000000E+00  0.00000000E+00
  0.00000000E+00  0.00000000E+00  0.00000000E+00  0.00000000E+00  0.00000000E+00
  0.00000000E+00  0.00000000E+00  0.00000000E+00  0.00000000E+00  0.00000000E+00
  0.00000000E+00  0.00000000E+00  0.00000000E+00  0.00000000E+00  0.00000000E+00
  0.00000000E+00  0.00000000E+00  0.00000000E+00  0.00000000E+00  0.00000000E+00
  0.00000000E+00  0.00000000E+00  0.00000000E+00  0.00000000E+00  0.00000000E+00
  0.00000000E+00  0.00000000E+00  0.00000000E+00  0.00000000E+00  0.00000000E+00
  0.00000000E+00  0.00000000E+00  0.00000000E+00  0.00000000E+00  0.00000000E+00
  0.00000000E+00  0.00000000E+00  0.00000000E+00  0.00000000E+00  0.00000000E+00
  0.00000000E+00  0.00000000E+00  0.00000000E+00  0.00000000E+00  0.00000000E+00
  0.00000000E+00  0.00000000E+00  0.00000000E+00  0.00000000E+00  0.00000000E+00
  0.00000000E+00  0.00000000E+00  0.00000000E+00  0.00000000E+00  0.00000000E+00
  0.00000000E+00  0.00000000E+00  0.00000000E+00  0.00000000E+00  0.00000000E+00
  0.00000000E+00  0.00000000E+00  0.00000000E+00  0.00000000E+00  0.00000000E+00
  0.00000000E+00  0.00000000E+00  0.00000000E+00  0.00000000E+00  0.00000000E+00
  0.00000000E+00  0.00000000E+00  0.00000000E+00  0.00000000E+00  0.00000000E+00
  0.00000000E+00  0.00000000E+00  0.00000000E+00  0.00000000E+00  0.00000000E+00
  0.00000000E+00  0.00000000E+00  0.00000000E+00  0.00000000E+00  0.00000000E+00
  0.00000000E+00  0.00000000E+00  0.00000000E+00  0.00000000E+00  0.00000000E+00
  0.00000000E+00  0.00000000E+00  0.00000000E+00  0.00000000E+00  0.00000000E+00
Gaussian Version                           C   N=           2
ES64L-G16RevC.01        
