 Entering Gaussian System, Link 0=/gaussian/g16.c01/intel64-sandybridge/g16/g16
 Input=ammoniaca.gjf
 Output=ammoniaca.log
 AtFile(1): /home/barone/lcrisci_vb/SUSPENDED_PROJECTS/Project_Emilio/Imid-H2O-complexes/FINAL_HL_Imid-H2O/3F12red.gbs
            -H     0
            S    3   1.00
                 82.6400000              0.0020060
                 12.4100000              0.0153430
                  2.8240000              0.0755790
            S    1   1.00
                  0.7977000              1.0000000
            S    1   1.00
                  0.2581000              1.0000000
            S    1   1.00
                  0.0898900              1.0000000
            P    1   1.00
                  1.5513000              1.0000000
            P    1   1.00
                  0.5580000              1.0000000
            P    1   1.00
                  0.2007000              1.0000000
            ****
            -C     0
            S    9   1.00
              33980.0000000              0.0000910
               5089.0000000              0.0007040
               1157.0000000              0.0036930
                326.6000000              0.0153600
                106.1000000              0.0529290
                 38.1100000              0.1470430
                 14.7500000              0.3056310
                  6.0350000              0.3993450
                  2.5300000              0.2170510
            S    9   1.00
              33980.0000000             -0.0000190
               5089.0000000             -0.0001510
               1157.0000000             -0.0007850
                326.6000000             -0.0033240
                106.1000000             -0.0115120
                 38.1100000             -0.0341600
                 14.7500000             -0.0771730
                  6.0350000             -0.1414930
                  2.5300000             -0.1180190
            S    1   1.00
                  0.7355000              1.0000000
            S    1   1.00
                  0.2905000              1.0000000
            S    1   1.00
                  0.1111000              1.0000000
            S    1   1.00
                  0.0414500              1.0000000
            P    2   1.00
                 34.5100000              0.0053780
                  7.9150000              0.0361320
            P    1   1.00
                  2.3680000              1.0000000
            P    1   1.00
                  0.8132000              1.0000000
            P    1   1.00
                  0.2890000              1.0000000
            P    1   1.00
                  0.1007000              1.0000000
            P    1   1.00
                  0.0321800              1.0000000
            D    1   1.00
                  2.2805000              1.0000000
            D    1   1.00
                  0.7834000              1.0000000
            D    1   1.00
                  0.2691000              1.0000000
            F    1   1.00
                  0.7610000              1.0000000
            ****
            -N     0
            S    9   1.00
              45840.0000000              0.0000920
               6868.0000000              0.0007170
               1563.0000000              0.0037490
                442.4000000              0.0155320
                144.3000000              0.0531460
                 52.1800000              0.1467870
                 20.3400000              0.3046630
                  8.3810000              0.3976840
                  3.5290000              0.2176410
            S    9   1.00
              45840.0000000             -0.0000200
               6868.0000000             -0.0001590
               1563.0000000             -0.0008240
                442.4000000             -0.0034780
                144.3000000             -0.0119660
                 52.1800000             -0.0353880
                 20.3400000             -0.0800770
                  8.3810000             -0.1467220
                  3.5290000             -0.1163600
            S    1   1.00
                  1.0540000              1.0000000
            S    1   1.00
                  0.4118000              1.0000000
            S    1   1.00
                  0.1552000              1.0000000
            S    1   1.00
                  0.0546400              1.0000000
            P    2   1.00
                 49.3300000              0.0055330
                 11.3700000              0.0379620
            P    1   1.00
                  3.4350000              1.0000000
            P    1   1.00
                  1.1820000              1.0000000
            P    1   1.00
                  0.4173000              1.0000000
            P    1   1.00
                  0.1428000              1.0000000
            P    1   1.00
                  0.0440200              1.0000000
            D    1   1.00
                  3.0521000              1.0000000
            D    1   1.00
                  1.0393000              1.0000000
            D    1   1.00
                  0.3539000              1.0000000
            F    1   1.00
                  1.0930000              1.0000000
            ****
            -O     0
            S    9   1.00
              61420.0000000              0.0000900
               9199.0000000              0.0006980
               2091.0000000              0.0036640
                590.9000000              0.0152180
                192.3000000              0.0524230
                 69.3200000              0.1459210
                 26.9700000              0.3052580
                 11.1000000              0.3985080
                  4.6820000              0.2169800
            S    9   1.00
              61420.0000000             -0.0000200
               9199.0000000             -0.0001590
               2091.0000000             -0.0008290
                590.9000000             -0.0035080
                192.3000000             -0.0121560
                 69.3200000             -0.0362610
                 26.9700000             -0.0829920
                 11.1000000             -0.1520900
                  4.6820000             -0.1153310
            S    1   1.00
                  1.4280000              1.0000000
            S    1   1.00
                  0.5547000              1.0000000
            S    1   1.00
                  0.2067000              1.0000000
            S    1   1.00
                  0.0695900              1.0000000
            P    2   1.00
                 63.4200000              0.0060440
                 14.6600000              0.0417990
            P    1   1.00
                  4.4590000              1.0000000
            P    1   1.00
                  1.5310000              1.0000000
            P    1   1.00
                  0.5302000              1.0000000
            P    1   1.00
                  0.1750000              1.0000000
            P    1   1.00
                  0.0534800              1.0000000
            D    1   1.00
                  3.3422000              1.0000000
            D    1   1.00
                  1.1491000              1.0000000
            D    1   1.00
                  0.3951000              1.0000000
            F    1   1.00
                  1.4280000              1.0000000
            ****
            -F     0
            S    9   1.00
              74530.0000000              0.0000950
              11170.0000000              0.0007380
               2543.0000000              0.0038580
                721.0000000              0.0159260
                235.9000000              0.0542890
                 85.6000000              0.1495130
                 33.5500000              0.3082520
                 13.9300000              0.3948530
                  5.9150000              0.2110310
            S    9   1.00
              74530.0000000             -0.0000220
              11170.0000000             -0.0001720
               2543.0000000             -0.0008910
                721.0000000             -0.0037480
                235.9000000             -0.0128620
                 85.6000000             -0.0380610
                 33.5500000             -0.0862390
                 13.9300000             -0.1558650
                  5.9150000             -0.1109140
            S    1   1.00
                  1.8430000              1.0000000
            S    1   1.00
                  0.7124000              1.0000000
            S    1   1.00
                  0.2637000              1.0000000
            S    1   1.00
                  0.0859400              1.0000000
            P    2   1.00
                 80.3900000              0.0063470
                 18.6300000              0.0442040
            P    1   1.00
                  5.6940000              1.0000000
            P    1   1.00
                  1.9530000              1.0000000
            P    1   1.00
                  0.6702000              1.0000000
            P    1   1.00
                  0.2166000              1.0000000
            P    1   1.00
                  0.0656800              1.0000000
            D    1   1.00
                  4.2272000              1.0000000
            D    1   1.00
                  1.3897000              1.0000000
            D    1   1.00
                  0.4569000              1.0000000
            F    1   1.00
                  1.9170000              1.0000000
            ****
            -P     0
            S    13   1.00
             615200.0000000              0.0000247
              92120.0000000              0.0001925
              20950.0000000              0.0010120
               5920.0000000              0.0042726
               1922.0000000              0.0154161
                688.0000000              0.0485976
                265.0000000              0.1300600
                108.2000000              0.2745140
                 46.2200000              0.3854020
                 20.2300000              0.2559340
                  7.8590000              0.0391237
                  3.5470000             -0.0036801
                  1.5640000              0.0020821
            S    13   1.00
             615200.0000000             -0.0000067
              92120.0000000             -0.0000522
              20950.0000000             -0.0002754
               5920.0000000             -0.0011631
               1922.0000000             -0.0042428
                688.0000000             -0.0136114
                265.0000000             -0.0385114
                108.2000000             -0.0906643
                 46.2200000             -0.1665840
                 20.2300000             -0.1614470
                  7.8590000              0.1467810
                  3.5470000              0.5666820
                  1.5640000              0.4164330
            S    13   1.00
             615200.0000000              0.0000018
              92120.0000000              0.0000143
              20950.0000000              0.0000757
               5920.0000000              0.0003192
               1922.0000000              0.0011685
                688.0000000              0.0037427
                265.0000000              0.0106817
                108.2000000              0.0252657
                 46.2200000              0.0479283
                 20.2300000              0.0477096
                  7.8590000             -0.0466525
                  3.5470000             -0.2349680
                  1.5640000             -0.3113370
            S    1   1.00
                  0.4888000              1.0000000
            S    1   1.00
                  0.2266000              1.0000000
            S    1   1.00
                  0.0933100              1.0000000
            S    1   1.00
                  0.0354000              1.0000000
            P    8   1.00
               1367.0000000             -0.0001008
                324.0000000             -0.0008545
                104.6000000             -0.0045712
                 39.3700000             -0.0170327
                 16.2600000             -0.0475204
                  7.0560000             -0.0852786
                  3.1300000             -0.1096760
                  1.3940000             -0.0161181
            P    8   1.00
               1367.0000000              0.0004210
                324.0000000              0.0036098
                104.6000000              0.0189217
                 39.3700000              0.0705560
                 16.2600000              0.1881570
                  7.0560000              0.3387090
                  3.1300000              0.3819430
                  1.3940000              0.1952610
            P    1   1.00
                  4.1823000              1.0000000
            P    1   1.00
                  0.5179000              1.0000000
            P    1   1.00
                  0.2032000              1.0000000
            P    1   1.00
                  0.0769800              1.0000000
            P    1   1.00
                  0.0272000              1.0000000
            D    1   1.00
                  6.0350000              1.0000000
            D    1   1.00
                  1.3919000              1.0000000
            D    1   1.00
                  0.4824000              1.0000000
            D    1   1.00
                  0.1820000              1.0000000
            F    1   1.00
                  0.7331000              1.0000000
            F    1   1.00
                  0.2522000              1.0000000
            ****
            -S     0
            S    13   1.00
             727800.0000000              0.0000236
             109000.0000000              0.0001835
              24800.0000000              0.0009643
               7014.0000000              0.0040654
               2278.0000000              0.0146973
                814.7000000              0.0465081
                313.4000000              0.1255080
                127.7000000              0.2684330
                 54.4800000              0.3848090
                 23.8500000              0.2653720
                  9.4280000              0.0437326
                  4.2900000             -0.0037881
                  1.9090000              0.0021808
            S    13   1.00
             727800.0000000             -0.0000065
             109000.0000000             -0.0000507
              24800.0000000             -0.0002668
               7014.0000000             -0.0011260
               2278.0000000             -0.0041119
                814.7000000             -0.0132454
                313.4000000             -0.0377004
                127.7000000             -0.0898554
                 54.4800000             -0.1670980
                 23.8500000             -0.1693540
                  9.4280000              0.1278240
                  4.2900000              0.5648620
                  1.9090000              0.4317670
            S    13   1.00
             727800.0000000              0.0000019
             109000.0000000              0.0000147
              24800.0000000              0.0000775
               7014.0000000              0.0003265
               2278.0000000              0.0011969
                814.7000000              0.0038480
                313.4000000              0.0110539
                127.7000000              0.0264645
                 54.4800000              0.0508771
                 23.8500000              0.0530030
                  9.4280000             -0.0425518
                  4.2900000             -0.2508530
                  1.9090000             -0.3331520
            S    1   1.00
                  0.6270000              1.0000000
            S    1   1.00
                  0.2873000              1.0000000
            S    1   1.00
                  0.1172000              1.0000000
            S    1   1.00
                  0.0428000              1.0000000
            P    8   1.00
               1546.0000000             -0.0001131
                366.4000000             -0.0009586
                118.4000000             -0.0051347
                 44.5300000             -0.0192641
                 18.3800000             -0.0535980
                  7.9650000             -0.0960333
                  3.5410000             -0.1181830
                  1.5910000              0.0092319
            P    8   1.00
               1546.0000000              0.0004412
                366.4000000              0.0037757
                118.4000000              0.0198360
                 44.5300000              0.0742063
                 18.3800000              0.1973270
                  7.9650000              0.3518510
                  3.5410000              0.3786870
                  1.5910000              0.1709310
            P    1   1.00
                  5.0019000              1.0000000
            P    1   1.00
                  0.6205000              1.0000000
            P    1   1.00
                  0.2420000              1.0000000
            P    1   1.00
                  0.0901400              1.0000000
            P    1   1.00
                  0.0317000              1.0000000
            D    1   1.00
                  8.7486000              1.0000000
            D    1   1.00
                  2.0766000              1.0000000
            D    1   1.00
                  0.6044000              1.0000000
            D    1   1.00
                  0.2199000              1.0000000
            F    1   1.00
                  0.7628000              1.0000000
            F    1   1.00
                  0.2776000              1.0000000
            ****
            -Cl     0
            S    13   1.00
             834900.0000000              0.0000232
             125000.0000000              0.0001802
              28430.0000000              0.0009478
               8033.0000000              0.0040014
               2608.0000000              0.0144629
                933.9000000              0.0456586
                360.0000000              0.1232480
                147.0000000              0.2643690
                 62.8800000              0.3829890
                 27.6000000              0.2709340
                 11.0800000              0.0471404
                  5.0750000             -0.0037177
                  2.2780000              0.0021916
            S    13   1.00
             834900.0000000             -0.0000065
             125000.0000000             -0.0000505
              28430.0000000             -0.0002661
               8033.0000000             -0.0011250
               2608.0000000             -0.0041050
                933.9000000             -0.0131987
                360.0000000             -0.0375342
                147.0000000             -0.0897233
                 62.8800000             -0.1676710
                 27.6000000             -0.1747630
                 11.0800000              0.1149090
                  5.0750000              0.5636180
                  2.2780000              0.4416060
            S    13   1.00
             834900.0000000              0.0000020
             125000.0000000              0.0000153
              28430.0000000              0.0000806
               8033.0000000              0.0003400
               2608.0000000              0.0012455
                933.9000000              0.0039961
                360.0000000              0.0114751
                147.0000000              0.0275504
                 62.8800000              0.0532917
                 27.6000000              0.0571246
                 11.0800000             -0.0395201
                  5.0750000             -0.2643430
                  2.2780000             -0.3492910
            S    1   1.00
                  0.7775000              1.0000000
            S    1   1.00
                  0.3527000              1.0000000
            S    1   1.00
                  0.1431000              1.0000000
            S    1   1.00
                  0.0519000              1.0000000
            P    8   1.00
               1703.0000000             -0.0001283
                403.6000000             -0.0010936
                130.3000000             -0.0058343
                 49.0500000             -0.0219258
                 20.2600000             -0.0601385
                  8.7870000             -0.1069290
                  3.9190000             -0.1224540
                  1.7650000              0.0383619
            P    8   1.00
               1703.0000000              0.0004740
                403.6000000              0.0040641
                130.3000000              0.0213355
                 49.0500000              0.0794611
                 20.2600000              0.2089270
                  8.7870000              0.3649450
                  3.9190000              0.3717250
                  1.7650000              0.1462920
            P    1   1.00
                  5.6488000              1.0000000
            P    1   1.00
                  0.7207000              1.0000000
            P    1   1.00
                  0.2839000              1.0000000
            P    1   1.00
                  0.1060000              1.0000000
            P    1   1.00
                  0.0376000              1.0000000
            D    1   1.00
                 10.3990000              1.0000000
            D    1   1.00
                  2.4101000              1.0000000
            D    1   1.00
                  0.6664000              1.0000000
            D    1   1.00
                  0.2442000              1.0000000
            F    1   1.00
                  0.8662000              1.0000000
            F    1   1.00
                  0.3289000              1.0000000
            ****
            
 Initial command:
 /gaussian/g16.c01/intel64-sandybridge/g16/l1.exe "/local/scratch/lcrisci_vb/amm_Gaussian_73951.pbs.village.sns.it/Gau-998094.inp" -scrdir="/local/scratch/lcrisci_vb/amm_Gaussian_73951.pbs.village.sns.it/"
 Entering Link 1 = /gaussian/g16.c01/intel64-sandybridge/g16/l1.exe PID=    998095.
  
 Copyright (c) 1988-2024, Gaussian, Inc.  All Rights Reserved.
  
 This is part of the Gaussian(R) 16 program.  It is based on
 the Gaussian(R) 09 system (copyright 2009, Gaussian, Inc.),
 the Gaussian(R) 03 system (copyright 2003, Gaussian, Inc.),
 the Gaussian(R) 98 system (copyright 1998, Gaussian, Inc.),
 the Gaussian(R) 94 system (copyright 1995, Gaussian, Inc.),
 the Gaussian 92(TM) system (copyright 1992, Gaussian, Inc.),
 the Gaussian 90(TM) system (copyright 1990, Gaussian, Inc.),
 the Gaussian 88(TM) system (copyright 1988, Gaussian, Inc.),
 the Gaussian 86(TM) system (copyright 1986, Carnegie Mellon
 University), and the Gaussian 82(TM) system (copyright 1983,
 Carnegie Mellon University). Gaussian is a federally registered
 trademark of Gaussian, Inc.
  
 This software contains proprietary and confidential information,
 including trade secrets, belonging to Gaussian, Inc.
  
 This software is provided under written license and may be
 used, copied, transmitted, or stored only in accord with that
 written license.
  
 The following legend is applicable only to US Government
 contracts under FAR:
  
                    RESTRICTED RIGHTS LEGEND
  
 Use, reproduction and disclosure by the US Government is
 subject to restrictions as set forth in subparagraphs (a)
 and (c) of the Commercial Computer Software - Restricted
 Rights clause in FAR 52.227-19.
  
 Gaussian, Inc.
 340 Quinnipiac St., Bldg. 40, Wallingford CT 06492
  
  
 ---------------------------------------------------------------
 Warning -- This program may not be used in any manner that
 competes with the business of Gaussian, Inc. or will provide
 assistance to any competitor of Gaussian, Inc.  The licensee
 of this program is prohibited from giving any competitor of
 Gaussian, Inc. access to this program.  By using this program,
 the user acknowledges that Gaussian, Inc. is engaged in the
 business of creating and licensing software in the field of
 computational chemistry and represents and warrants to the
 licensee that it is not a competitor of Gaussian, Inc. and that
 it will not use this program in any manner prohibited above.
 ---------------------------------------------------------------
  

 Cite this work as:
 Gaussian Development Version, Revision J.28,
 M. J. Frisch, G. W. Trucks, G. Scalmani, J. R. Cheeseman, X. Li, 
 J. Bloino, B. G. Janesko, A. V. Marenich, J. Zheng, F. Lipparini, 
 A. Jenkins, A. Liu, H. Liu, H. B. Schlegel, G. E. Scuseria, 
 M. A. Robb, V. Barone, G. A. Petersson, H. Nakatsuji, B. Mennucci, 
 C. Adamo, N. Rega, M. Caricato, H. P. Hratchian, J. V. Ortiz, 
 F. Pawlowski, A. F. Izmaylov, H. Hu, C. Liao, J. L. Sonnenberg, 
 D. Williams-Young, F. Ding, R. Gomperts, F. Egidi, J. Goings, 
 B. Peng, A. Petrone, T. Henderson, D. Ranasinghe, V. G. Zakrzewski, 
 J. Gao, G. Zheng, W. Liang, M. Hada, M. Ehara, K. Toyota, R. Fukuda, 
 J. Hasegawa, M. Ishida, T. Nakajima, Y. Honda, O. Kitao, H. Nakai, 
 T. Vreven, K. Throssell, J. A. Montgomery, Jr., J. E. Peralta, 
 F. Ogliaro, M. J. Bearpark, J. J. Heyd, E. N. Brothers, K. N. Kudin, 
 V. N. Staroverov, T. A. Keith, R. Kobayashi, J. Normand, 
 K. Raghavachari, A. P. Rendell, J. C. Burant, S. S. Iyengar, 
 M. Cossi, J. M. Millam, M. Klene, R. Cammi, R. L. Martin, O. Farkas, 
 J. B. Foresman, and D. J. Fox, Gaussian, Inc., Wallingford CT, 2023.
 
 ******************************************
 Gaussian 16:  ES64L-G16RevC.01  3-Jul-2019
                11-Oct-2025 
 ******************************************
 %nprocs=16
 Will use up to   16 processors via shared memory.
 %mem=64GB
 %chk=b3.chk
 --------------------
 # opt b3lyp/gen freq
 --------------------
 1/18=20,19=15,26=4,37=210000000,38=1/1,3;
 2/9=110,12=2/2;
 3/5=7,11=2,25=1,30=1,71=1,74=-5/1,2,3;
 4//1;
 5/5=2,38=5/2;
 6/7=2,8=2,9=2,10=2,28=1/1;
 7//1,2,3,16;
 1/18=20,19=15,26=4/3(2);
 2/9=110/2;
 99//99;
 2/9=110/2;
 3/5=7,6=1,11=2,25=1,30=1,71=1,74=-5,82=7,187=7/1,2,3;
 4/5=5,16=3,69=1/1;
 5/5=2,38=5/2;
 7//1,2,3,16;
 1/18=20,19=15,26=4/3(-5);
 2/9=110/2;
 6/7=2,8=2,9=2,10=2,19=2,28=1/1;
 99/9=1/99;
 -------------------
 Title Card Required
 -------------------
 Symbolic Z-matrix:
 Charge =     0 Multiplicity =     1
 7                     0.        0.        0.1 
 1                     0.        0.94281  -0.23333 
 1                    -0.8165   -0.4714   -0.23333 
 1                     0.8165   -0.47141  -0.23333 
 
 Initializing the GIC definitions file.
 DXMax1 from symmetrization= 1.05D-06

 GradGradGradGradGradGradGradGradGradGradGradGradGradGradGradGradGradGrad
 Berny optimization.
 Initialization pass.
                           ----------------------------
                           !    Initial Parameters    !
                           ! (Angstroms and Degrees)  !
 --------------------------                            --------------------------
 ! Name  Definition              Value          Derivative Info.                !
 --------------------------------------------------------------------------------
 ! R1    R(1,2)                  1.0            estimate D2E/DX2                !
 ! R2    R(1,3)                  1.0            estimate D2E/DX2                !
 ! R3    R(1,4)                  1.0            estimate D2E/DX2                !
 ! A1    A(2,1,3)              109.4712         estimate D2E/DX2                !
 ! A2    A(2,1,4)              109.4712         estimate D2E/DX2                !
 ! A3    A(3,1,4)              109.4712         estimate D2E/DX2                !
 ! D1    D(3,1,2,4)           -120.0            estimate D2E/DX2                !
 ! D2    D(2,1,3,4)            120.0            estimate D2E/DX2                !
 --------------------------------------------------------------------------------
 Trust Radius=3.00D-01 FncErr=1.00D-07 GrdErr=1.00D-06 EigMax=2.50D+02 EigMin=1.00D-04
 Number of steps in this run=     20 maximum allowed number of steps=    100.
 GradGradGradGradGradGradGradGradGradGradGradGradGradGradGradGradGradGrad

                          Input orientation:                          
 ---------------------------------------------------------------------
 Center     Atomic      Atomic             Coordinates (Angstroms)
 Number     Number       Type             X           Y           Z
 ---------------------------------------------------------------------
      1          7           0       -0.000000   -0.000000    0.100000
      2          1           0        0.000000    0.942809   -0.233333
      3          1           0       -0.816497   -0.471404   -0.233333
      4          1           0        0.816496   -0.471405   -0.233333
 ---------------------------------------------------------------------
                    Distance matrix (angstroms):
                    1          2          3          4
     1  N    0.000000
     2  H    1.000000   0.000000
     3  H    1.000000   1.632993   0.000000
     4  H    1.000000   1.632993   1.632993   0.000000
 Stoichiometry    H3N
 Framework group  C3V[C3(N),3SGV(H)]
 Deg. of freedom     2
 Full point group                 C3V     NOp   6
 Largest Abelian subgroup         CS      NOp   2
 Largest concise Abelian subgroup CS      NOp   2
                         Standard orientation:                         
 ---------------------------------------------------------------------
 Center     Atomic      Atomic             Coordinates (Angstroms)
 Number     Number       Type             X           Y           Z
 ---------------------------------------------------------------------
      1          7           0        0.000000    0.000000    0.100000
      2          1           0        0.000000    0.942809   -0.233333
      3          1           0       -0.816497   -0.471404   -0.233333
      4          1           0        0.816497   -0.471404   -0.233333
 ---------------------------------------------------------------------
 Rotational constants (GHZ):         311.9521141         311.9521141         188.0456808
 General  basis read from cards:  (5D, 7F)
 There are    59 symmetry adapted cartesian basis functions of A'  symmetry.
 There are    32 symmetry adapted cartesian basis functions of A"  symmetry.
 There are    54 symmetry adapted basis functions of A'  symmetry.
 There are    31 symmetry adapted basis functions of A"  symmetry.
    85 basis functions,   113 primitive gaussians,    91 cartesian basis functions
     5 alpha electrons        5 beta electrons
       nuclear repulsion energy        12.0848837553 Hartrees.
 NAtoms=    4 NActive=    4 NUniq=    2 SFac= 4.00D+00 NAtFMM=   60 NAOKFM=F Big=F
 Integral buffers will be    131072 words long.
 Raffenetti 2 integral format.
 Two-electron integral symmetry is turned on.
 One-electron integrals computed using PRISM.
 NBasis=    85 RedAO= T EigKep=  3.80D-04  NBF=    54    31
 NBsUse=    85 1.00D-06 EigRej= -1.00D+00 NBFU=    54    31
 ExpMin= 4.40D-02 ExpMax= 4.58D+04 ExpMxC= 4.42D+02 IAcc=3 Grid=UltraFine AccDes= 0.00D+00
 Harris functional with IExCor= 4002 and Grid=UltraFine diagonalized for initial guess.
 HarFok:  IExCor=    4002 AccDes= 0.00D+00 Grid=UltraFine IDoV= 1 UseB2=F ITyADJ=14 ICtDFT=  3500011
 FoFCou: FMM=F IPFlag=           0 FMFlag=      100000 FMFlg1=           0
         NFxFlg=           0 DoJE=T BraDBF=F KetDBF=T FulRan=T
         wScrn=  0.000000 ICntrl=       500 IOpCl=  0 I1Cent=   200000004 NGrid=           0
         NMat0=    1 NMatS0=      1 NMatT0=    0 NMatD0=    1 NMtDS0=    0 NMtDT0=    0
 Petite list used in FoFCou.
 Initial guess orbital symmetries:
       Occupied  (A1) (A1) (E) (E) (A1)
       Virtual   (A1) (E) (E) (A1) (E) (E) (A1) (E) (E) (E) (E)
                 (A1) (E) (E) (A1) (A1) (A2) (E) (E) (A1) (E) (E)
                 (A1) (E) (E) (A1) (E) (E) (A1) (E) (E) (A2) (E)
                 (E) (E) (E) (A1) (A1) (E) (E) (A1) (E) (E) (A1)
                 (E) (E) (A1) (E) (E) (A1) (A2) (E) (E) (E) (E)
                 (A1) (E) (E) (A1) (E) (E) (A2) (E) (E) (A1) (A1)
                 (E) (E) (E) (E) (A1) (E) (E) (A1) (E) (E) (A1)
                 (E) (E) (A1)
 The electronic state of the initial guess is 1-A1.
 Keep R1 ints in memory in symmetry-blocked form, NReq=21339960.
 Requested convergence on RMS density matrix=1.00D-08 within 128 cycles.
 Requested convergence on MAX density matrix=1.00D-06.
 Requested convergence on             energy=1.00D-06.
 No special actions if energy rises.
 SCF Done:  E(RB3LYP) =  -56.5916983350     A.U. after    8 cycles
            NFock=  8  Conv=0.36D-08     -V/T= 2.0042

 **********************************************************************

            Population analysis using the SCF Density.

 **********************************************************************

 Orbital symmetries:
       Occupied  (A1) (A1) (E) (E) (A1)
       Virtual   (A1) (E) (E) (A1) (E) (E) (A1) (E) (E) (E) (E)
                 (A1) (E) (E) (A1) (A1) (A2) (E) (E) (A1) (E) (E)
                 (A1) (E) (E) (A1) (E) (E) (A1) (E) (E) (A2) (E)
                 (E) (E) (E) (A1) (E) (E) (A1) (A1) (E) (E) (A1)
                 (E) (E) (A1) (E) (E) (A1) (A2) (E) (E) (E) (E)
                 (A1) (E) (E) (A1) (E) (E) (A2) (E) (E) (A1) (A1)
                 (E) (E) (A1) (E) (E) (E) (E) (A1) (E) (E) (A1)
                 (E) (E) (A1)
 The electronic state is 1-A1.
 Alpha  occ. eigenvalues --      -14.29062      -0.85882      -0.47464      -0.47464      -0.26912
 Alpha virt. eigenvalues --       -0.00017       0.05090       0.05090       0.07013       0.13554
 Alpha virt. eigenvalues --        0.13554       0.15647       0.30345       0.30345       0.36098
 Alpha virt. eigenvalues --        0.36098       0.37229       0.41355       0.41355       0.44995
 Alpha virt. eigenvalues --        0.50496       0.53380       0.59833       0.59833       0.65899
 Alpha virt. eigenvalues --        0.79691       0.79691       0.86160       1.05690       1.05690
 Alpha virt. eigenvalues --        1.14899       1.16350       1.16350       1.45708       1.51854
 Alpha virt. eigenvalues --        1.51854       1.58285       1.71313       1.71313       1.75894
 Alpha virt. eigenvalues --        1.75894       1.84539       2.06584       2.06584       2.11451
 Alpha virt. eigenvalues --        2.15375       2.60864       2.60864       3.09689       3.18879
 Alpha virt. eigenvalues --        3.18879       3.34462       3.51560       3.51560       4.04384
 Alpha virt. eigenvalues --        4.17658       4.22008       4.22008       4.64370       4.64370
 Alpha virt. eigenvalues --        4.84228       4.99060       4.99060       5.00127       5.24289
 Alpha virt. eigenvalues --        5.24289       5.46802       6.15072       6.15072       6.45339
 Alpha virt. eigenvalues --        7.31282       7.65667       7.65667       8.04149       8.04840
 Alpha virt. eigenvalues --        8.04840       9.91833       9.91833      10.11272      10.62414
 Alpha virt. eigenvalues --       10.62414      28.39181      28.89855      28.89855      29.49160
          Condensed to atoms (all electrons):
               1          2          3          4
     1  N    6.563443   0.389146   0.389146   0.389146
     2  H    0.389146   0.426338  -0.029556  -0.029556
     3  H    0.389146  -0.029556   0.426338  -0.029556
     4  H    0.389146  -0.029556  -0.029556   0.426338
 Mulliken charges:
               1
     1  N   -0.730882
     2  H    0.243627
     3  H    0.243627
     4  H    0.243627
 Sum of Mulliken charges =  -0.00000
 Mulliken charges with hydrogens summed into heavy atoms:
               1
     1  N   -0.000000
 Electronic spatial extent (au):  <R**2>=             26.8741
 Charge=             -0.0000 electrons
 Dipole moment (field-independent basis, Debye):
    X=             -0.0000    Y=             -0.0000    Z=             -1.4047  Tot=              1.4047
 Quadrupole moment (field-independent basis, Debye-Ang):
   XX=             -6.2975   YY=             -6.2975   ZZ=             -9.6224
   XY=             -0.0000   XZ=              0.0000   YZ=              0.0000
 Traceless Quadrupole moment (field-independent basis, Debye-Ang):
   XX=              1.1083   YY=              1.1083   ZZ=             -2.2166
   XY=             -0.0000   XZ=              0.0000   YZ=              0.0000
 Octapole moment (field-independent basis, Debye-Ang**2):
  XXX=             -0.0000  YYY=              0.9363  ZZZ=             -1.2732  XYY=              0.0000
  XXY=             -0.9363  XXZ=             -0.7806  XZZ=              0.0000  YZZ=              0.0000
  YYZ=             -0.7806  XYZ=              0.0000
 Hexadecapole moment (field-independent basis, Debye-Ang**3):
 XXXX=            -10.6247 YYYY=            -10.6247 ZZZZ=            -14.0417 XXXY=              0.0000
 XXXZ=              0.0000 YYYX=             -0.0000 YYYZ=             -0.2888 ZZZX=             -0.0000
 ZZZY=             -0.0000 XXYY=             -3.5416 XXZZ=             -4.3099 YYZZ=             -4.3099
 XXYZ=              0.2888 YYXZ=             -0.0000 ZZXY=              0.0000
 N-N=          12.084884 E-N=        -156.290200  KE=          56.353486
 Symmetry A'   KE=          53.630988
 Symmetry A"   KE=           2.722498
 Calling FoFJK, ICntrl=      2127 FMM=F ISym2X=1 I1Cent= 0 IOpClX= 0 NMat=1 NMatS=1 NMatT=0.
 ***** Axes restored to original set *****
 -------------------------------------------------------------------
 Center     Atomic                   Forces (Hartrees/Bohr)
 Number     Number              X              Y              Z
 -------------------------------------------------------------------
      1        7          -0.000000000   -0.000000000    0.013226752
      2        1           0.000000002    0.007955667   -0.004408917
      3        1          -0.006889810   -0.003977832   -0.004408917
      4        1           0.006889809   -0.003977835   -0.004408917
 -------------------------------------------------------------------
 Cartesian Forces:  Max     0.013226752 RMS     0.005938157

 GradGradGradGradGradGradGradGradGradGradGradGradGradGradGradGradGradGrad
 Berny optimization.
 FormGI is forming the generalized inverse of G from B-inverse, IUseBI=4.
 Internal  Forces:  Max     0.008970313 RMS     0.005553437
 Search for a local minimum.
 Step number   1 out of a maximum of   20
 All quantities printed in internal units (Hartrees-Bohrs-Radians)
 Mixed Optimization -- RFO/linear search
 Second derivative matrix not updated -- first step.
 The second derivative matrix:
                          R1        R2        R3        A1        A2
           R1           0.47688
           R2           0.00000   0.47688
           R3           0.00000   0.00000   0.47688
           A1           0.00000   0.00000   0.00000   0.16000
           A2           0.00000   0.00000   0.00000   0.00000   0.16000
           A3           0.00000   0.00000   0.00000   0.00000   0.00000
           D1           0.00000   0.00000   0.00000   0.00000   0.00000
           D2           0.00000   0.00000   0.00000   0.00000   0.00000
                          A3        D1        D2
           A3           0.16000
           D1           0.00000   0.01028
           D2           0.00000   0.00000   0.01028
 ITU=  0
     Eigenvalues ---    0.03950   0.11917   0.16000   0.47688   0.47688
     Eigenvalues ---    0.47688
 RFO step:  Lambda=-6.24524650D-04 EMin= 3.94966982D-02
 Linear search not attempted -- first point.
 GrdOpt: GIC=T ITstSp=  0 NP=   1 DidLin=F DidDIS=F IDoGRo=0 IDoRot=0
         ISwap=1 XLin= 0.000 DXMaxT= 0.300
 Iteration  1 RMS(Cart)=  0.00897336 RMS(Int)=  0.00039534
 Iteration  2 RMS(Cart)=  0.00018359 RMS(Int)=  0.00020785
 Iteration  3 RMS(Cart)=  0.00000006 RMS(Int)=  0.00020785
 ClnCor:  largest displacement from symmetrization is 6.48D-04 for atom     4.
 Variable       Old X    -DE/DX   Delta X   Delta X   Delta X     New X
                                 (Linear)    (Quad)   (Total)
    R1        1.88973   0.00897   0.00000   0.01879   0.01860   1.90833
    R2        1.88973   0.00897   0.00000   0.01879   0.01860   1.90833
    R3        1.88973   0.00897   0.00000   0.01879   0.01860   1.90833
    A1        1.91063  -0.00118   0.00000  -0.01489  -0.01431   1.89633
    A2        1.91063  -0.00035   0.00000  -0.01348  -0.01431   1.89633
    A3        1.91063  -0.00035   0.00000  -0.01348  -0.01431   1.89633
    D1       -2.09440   0.00136   0.00000   0.03388   0.03410  -2.06029
    D2        2.09440  -0.00136   0.00000  -0.03388  -0.03410   2.06029
         Item               Value     Threshold  Converged?
 Maximum Force            0.008970     0.000450     NO 
 RMS     Force            0.005553     0.000300     NO 
 Maximum Displacement     0.023592     0.001800     NO 
 RMS     Displacement     0.010929     0.001200     NO 
 Predicted change in Energy=-3.114873D-04
 GradGradGradGradGradGradGradGradGradGradGradGradGradGradGradGradGradGrad

                          Input orientation:                          
 ---------------------------------------------------------------------
 Center     Atomic      Atomic             Coordinates (Angstroms)
 Number     Number       Type             X           Y           Z
 ---------------------------------------------------------------------
      1          7           0       -0.000000   -0.000000    0.112484
      2          1           0        0.000000    0.947250   -0.237519
      3          1           0       -0.820343   -0.473625   -0.237519
      4          1           0        0.820343   -0.473625   -0.237519
 ---------------------------------------------------------------------
                    Distance matrix (angstroms):
                    1          2          3          4
     1  N    0.000000
     2  H    1.009844   0.000000
     3  H    1.009844   1.640686   0.000000
     4  H    1.009844   1.640686   1.640686   0.000000
 Stoichiometry    H3N
 Framework group  C3V[C3(N),3SGV(H)]
 Deg. of freedom     2
 Full point group                 C3V     NOp   6
 Largest Abelian subgroup         CS      NOp   2
 Largest concise Abelian subgroup CS      NOp   2
                         Standard orientation:                         
 ---------------------------------------------------------------------
 Center     Atomic      Atomic             Coordinates (Angstroms)
 Number     Number       Type             X           Y           Z
 ---------------------------------------------------------------------
      1          7           0        0.000000    0.000000    0.105001
      2          1           0        0.000000    0.947250   -0.245002
      3          1           0       -0.820343   -0.473625   -0.245002
      4          1           0        0.820343   -0.473625   -0.245002
 ---------------------------------------------------------------------
 Rotational constants (GHZ):         304.2493135         304.2493135         186.2864067
 Basis read from rwf:  (5D, 7F)
 There are    59 symmetry adapted cartesian basis functions of A'  symmetry.
 There are    32 symmetry adapted cartesian basis functions of A"  symmetry.
 There are    54 symmetry adapted basis functions of A'  symmetry.
 There are    31 symmetry adapted basis functions of A"  symmetry.
    85 basis functions,   113 primitive gaussians,    91 cartesian basis functions
     5 alpha electrons        5 beta electrons
       nuclear repulsion energy        11.9719935580 Hartrees.
 NAtoms=    4 NActive=    4 NUniq=    2 SFac= 4.00D+00 NAtFMM=   60 NAOKFM=F Big=F
 Integral buffers will be    131072 words long.
 Raffenetti 2 integral format.
 Two-electron integral symmetry is turned on.
 One-electron integrals computed using PRISM.
 NBasis=    85 RedAO= T EigKep=  3.77D-04  NBF=    54    31
 NBsUse=    85 1.00D-06 EigRej= -1.00D+00 NBFU=    54    31
 Initial guess from the checkpoint file:  "b3.chk"
 B after Tr=     0.000000   -0.000000    0.000000
         Rot=    1.000000    0.000000    0.000000    0.000000 Ang=   0.00 deg.
 Initial guess orbital symmetries:
       Occupied  (A1) (A1) (E) (E) (A1)
       Virtual   (A1) (E) (E) (A1) (E) (E) (A1) (E) (E) (E) (E)
                 (A1) (E) (E) (A1) (A1) (A2) (E) (E) (A1) (E) (E)
                 (A1) (E) (E) (A1) (E) (E) (A1) (E) (E) (A2) (E)
                 (E) (E) (E) (A1) (E) (E) (A1) (A1) (E) (E) (A1)
                 (E) (E) (A1) (E) (E) (A1) (A2) (E) (E) (E) (E)
                 (A1) (E) (E) (A1) (E) (E) (A2) (E) (E) (A1) (A1)
                 (E) (E) (A1) (E) (E) (E) (E) (A1) (E) (E) (A1)
                 (E) (E) (A1)
 ExpMin= 4.40D-02 ExpMax= 4.58D+04 ExpMxC= 4.42D+02 IAcc=3 Grid=UltraFine AccDes= 0.00D+00
 Harris functional with IExCor= 4002 and Grid=UltraFine diagonalized for initial guess.
 HarFok:  IExCor=    4002 AccDes= 0.00D+00 Grid=UltraFine IDoV= 1 UseB2=F ITyADJ=14 ICtDFT=  3500011
 FoFCou: FMM=F IPFlag=           0 FMFlag=      100000 FMFlg1=           0
         NFxFlg=           0 DoJE=T BraDBF=F KetDBF=T FulRan=T
         wScrn=  0.000000 ICntrl=       500 IOpCl=  0 I1Cent=   200000004 NGrid=           0
         NMat0=    1 NMatS0=      1 NMatT0=    0 NMatD0=    1 NMtDS0=    0 NMtDT0=    0
 Petite list used in FoFCou.
 Keep R1 ints in memory in symmetry-blocked form, NReq=21339960.
 Requested convergence on RMS density matrix=1.00D-08 within 128 cycles.
 Requested convergence on MAX density matrix=1.00D-06.
 Requested convergence on             energy=1.00D-06.
 No special actions if energy rises.
 SCF Done:  E(RB3LYP) =  -56.5920887566     A.U. after    7 cycles
            NFock=  7  Conv=0.60D-08     -V/T= 2.0050
 Calling FoFJK, ICntrl=      2127 FMM=F ISym2X=1 I1Cent= 0 IOpClX= 0 NMat=1 NMatS=1 NMatT=0.
 ***** Axes restored to original set *****
 -------------------------------------------------------------------
 Center     Atomic                   Forces (Hartrees/Bohr)
 Number     Number              X              Y              Z
 -------------------------------------------------------------------
      1        7           0.000000000    0.000000000    0.004754932
      2        1           0.000000000    0.000566009   -0.001584977
      3        1          -0.000490178   -0.000283004   -0.001584977
      4        1           0.000490178   -0.000283005   -0.001584977
 -------------------------------------------------------------------
 Cartesian Forces:  Max     0.004754932 RMS     0.001610045

 GradGradGradGradGradGradGradGradGradGradGradGradGradGradGradGradGradGrad
 Berny optimization.
 Using GEDIIS/GDIIS optimizer.
 FormGI is forming the generalized inverse of G from B-inverse, IUseBI=4.
 Internal  Forces:  Max     0.001175354 RMS     0.000976155
 Search for a local minimum.
 Step number   2 out of a maximum of   20
 All quantities printed in internal units (Hartrees-Bohrs-Radians)
 Mixed Optimization -- En-DIIS/RFO-DIIS
 Update second derivatives using D2CorX and points    1    2
 DE= -3.90D-04 DEPred=-3.11D-04 R= 1.25D+00
 TightC=F SS=  1.41D+00  RLast= 6.31D-02 DXNew= 5.0454D-01 1.8922D-01
 Trust test= 1.25D+00 RLast= 6.31D-02 DXMaxT set to 3.00D-01
 The second derivative matrix:
                          R1        R2        R3        A1        A2
           R1           0.48619
           R2           0.00931   0.48619
           R3           0.00931   0.00931   0.48619
           A1           0.03102   0.03102   0.03102   0.15154
           A2           0.03254   0.03254   0.03254  -0.00848   0.15151
           A3           0.03254   0.03254   0.03254  -0.00848  -0.00849
           D1          -0.00185  -0.00185  -0.00185   0.00126   0.00129
           D2           0.00185   0.00185   0.00185  -0.00126  -0.00129
                          A3        D1        D2
           A3           0.15151
           D1           0.00129   0.01016
           D2          -0.00129   0.00012   0.01016
 ITU=  1  0
 Use linear search instead of GDIIS.
     Eigenvalues ---    0.02916   0.11711   0.15853   0.47688   0.47688
     Eigenvalues ---    0.51029
 RFO step:  Lambda=-1.07553733D-04 EMin= 2.91558506D-02
 Quartic linear search produced a step of  0.37778.
 GrdOpt: GIC=T ITstSp=  0 NP=   2 DidLin=T DidDIS=F IDoGRo=0 IDoRot=0
         ISwap=1 XLin= 0.378 DXMaxT= 0.300
 Iteration  1 RMS(Cart)=  0.00988767 RMS(Int)=  0.00062362
 Iteration  2 RMS(Cart)=  0.00026381 RMS(Int)=  0.00047778
 Iteration  3 RMS(Cart)=  0.00000014 RMS(Int)=  0.00047778
 ClnCor:  largest displacement from symmetrization is 3.44D-04 for atom     4.
 Variable       Old X    -DE/DX   Delta X   Delta X   Delta X     New X
                                 (Linear)    (Quad)   (Total)
    R1        1.90833   0.00108   0.00703  -0.00069   0.00624   1.91457
    R2        1.90833   0.00108   0.00703  -0.00069   0.00624   1.91457
    R3        1.90833   0.00108   0.00703  -0.00069   0.00624   1.91457
    A1        1.89633  -0.00107  -0.00540  -0.01517  -0.02062   1.87570
    A2        1.89633  -0.00033  -0.00540  -0.01419  -0.02062   1.87570
    A3        1.89633  -0.00033  -0.00540  -0.01419  -0.02062   1.87570
    D1       -2.06029   0.00118   0.01288   0.03348   0.04612  -2.01417
    D2        2.06029  -0.00118  -0.01288  -0.03348  -0.04612   2.01417
         Item               Value     Threshold  Converged?
 Maximum Force            0.001175     0.000450     NO 
 RMS     Force            0.000976     0.000300     NO 
 Maximum Displacement     0.027981     0.001800     NO 
 RMS     Displacement     0.012328     0.001200     NO 
 Predicted change in Energy=-7.510816D-05
 GradGradGradGradGradGradGradGradGradGradGradGradGradGradGradGradGradGrad

                          Input orientation:                          
 ---------------------------------------------------------------------
 Center     Atomic      Atomic             Coordinates (Angstroms)
 Number     Number       Type             X           Y           Z
 ---------------------------------------------------------------------
      1          7           0       -0.000000   -0.000000    0.127291
      2          1           0        0.000000    0.943261   -0.242467
      3          1           0       -0.816888   -0.471631   -0.242467
      4          1           0        0.816888   -0.471631   -0.242467
 ---------------------------------------------------------------------
                    Distance matrix (angstroms):
                    1          2          3          4
     1  N    0.000000
     2  H    1.013145   0.000000
     3  H    1.013145   1.633777   0.000000
     4  H    1.013145   1.633777   1.633777   0.000000
 Stoichiometry    H3N
 Framework group  C3V[C3(N),3SGV(H)]
 Deg. of freedom     2
 Full point group                 C3V     NOp   6
 Largest Abelian subgroup         CS      NOp   2
 Largest concise Abelian subgroup CS      NOp   2
                         Standard orientation:                         
 ---------------------------------------------------------------------
 Center     Atomic      Atomic             Coordinates (Angstroms)
 Number     Number       Type             X           Y           Z
 ---------------------------------------------------------------------
      1          7           0        0.000000    0.000000    0.110927
      2          1           0       -0.000000    0.943261   -0.258831
      3          1           0       -0.816888   -0.471631   -0.258831
      4          1           0        0.816888   -0.471631   -0.258831
 ---------------------------------------------------------------------
 Rotational constants (GHZ):         299.9236865         299.9236865         187.8653393
 Basis read from rwf:  (5D, 7F)
 There are    59 symmetry adapted cartesian basis functions of A'  symmetry.
 There are    32 symmetry adapted cartesian basis functions of A"  symmetry.
 There are    54 symmetry adapted basis functions of A'  symmetry.
 There are    31 symmetry adapted basis functions of A"  symmetry.
    85 basis functions,   113 primitive gaussians,    91 cartesian basis functions
     5 alpha electrons        5 beta electrons
       nuclear repulsion energy        11.9402315730 Hartrees.
 NAtoms=    4 NActive=    4 NUniq=    2 SFac= 4.00D+00 NAtFMM=   60 NAOKFM=F Big=F
 Integral buffers will be    131072 words long.
 Raffenetti 2 integral format.
 Two-electron integral symmetry is turned on.
 One-electron integrals computed using PRISM.
 NBasis=    85 RedAO= T EigKep=  3.60D-04  NBF=    54    31
 NBsUse=    85 1.00D-06 EigRej= -1.00D+00 NBFU=    54    31
 Initial guess from the checkpoint file:  "b3.chk"
 B after Tr=    -0.000000   -0.000000   -0.000000
         Rot=    1.000000   -0.000000   -0.000000   -0.000000 Ang=   0.00 deg.
 Initial guess orbital symmetries:
       Occupied  (A1) (A1) (E) (E) (A1)
       Virtual   (A1) (E) (E) (A1) (E) (E) (A1) (E) (E) (E) (E)
                 (A1) (E) (E) (A1) (A1) (A2) (E) (E) (A1) (E) (E)
                 (A1) (E) (E) (A1) (E) (E) (A1) (E) (E) (A2) (E)
                 (E) (E) (E) (A1) (E) (E) (A1) (A1) (E) (E) (A1)
                 (E) (E) (A1) (E) (E) (A1) (A2) (E) (E) (E) (E)
                 (A1) (E) (E) (A1) (E) (E) (A2) (E) (E) (A1) (A1)
                 (E) (E) (E) (E) (A1) (E) (E) (A1) (E) (E) (A1)
                 (E) (E) (A1)
 ExpMin= 4.40D-02 ExpMax= 4.58D+04 ExpMxC= 4.42D+02 IAcc=3 Grid=UltraFine AccDes= 0.00D+00
 Harris functional with IExCor= 4002 and Grid=UltraFine diagonalized for initial guess.
 HarFok:  IExCor=    4002 AccDes= 0.00D+00 Grid=UltraFine IDoV= 1 UseB2=F ITyADJ=14 ICtDFT=  3500011
 FoFCou: FMM=F IPFlag=           0 FMFlag=      100000 FMFlg1=           0
         NFxFlg=           0 DoJE=T BraDBF=F KetDBF=T FulRan=T
         wScrn=  0.000000 ICntrl=       500 IOpCl=  0 I1Cent=   200000004 NGrid=           0
         NMat0=    1 NMatS0=      1 NMatT0=    0 NMatD0=    1 NMtDS0=    0 NMtDT0=    0
 Petite list used in FoFCou.
 Keep R1 ints in memory in symmetry-blocked form, NReq=21339960.
 Requested convergence on RMS density matrix=1.00D-08 within 128 cycles.
 Requested convergence on MAX density matrix=1.00D-06.
 Requested convergence on             energy=1.00D-06.
 No special actions if energy rises.
 SCF Done:  E(RB3LYP) =  -56.5921821105     A.U. after    7 cycles
            NFock=  7  Conv=0.41D-08     -V/T= 2.0052
 Calling FoFJK, ICntrl=      2127 FMM=F ISym2X=1 I1Cent= 0 IOpClX= 0 NMat=1 NMatS=1 NMatT=0.
 ***** Axes restored to original set *****
 -------------------------------------------------------------------
 Center     Atomic                   Forces (Hartrees/Bohr)
 Number     Number              X              Y              Z
 -------------------------------------------------------------------
      1        7          -0.000000000    0.000000000    0.000151989
      2        1          -0.000000000   -0.000544535   -0.000050663
      3        1           0.000471581    0.000272267   -0.000050663
      4        1          -0.000471581    0.000272267   -0.000050663
 -------------------------------------------------------------------
 Cartesian Forces:  Max     0.000544535 RMS     0.000276941

 GradGradGradGradGradGradGradGradGradGradGradGradGradGradGradGradGradGrad
 Berny optimization.
 Using GEDIIS/GDIIS optimizer.
 FormGI is forming the generalized inverse of G from B-inverse, IUseBI=4.
 Internal  Forces:  Max     0.000488484 RMS     0.000330350
 Search for a local minimum.
 Step number   3 out of a maximum of   20
 All quantities printed in internal units (Hartrees-Bohrs-Radians)
 Mixed Optimization -- En-DIIS/RFO-DIIS
 Swapping is turned off.
 Update second derivatives using D2CorX and points    1    2    3
 DE= -9.34D-05 DEPred=-7.51D-05 R= 1.24D+00
 TightC=F SS=  1.41D+00  RLast= 7.51D-02 DXNew= 5.0454D-01 2.2544D-01
 Trust test= 1.24D+00 RLast= 7.51D-02 DXMaxT set to 3.00D-01
 The second derivative matrix:
                          R1        R2        R3        A1        A2
           R1           0.51081
           R2           0.03393   0.51081
           R3           0.03393   0.03393   0.51081
           A1           0.04211   0.04211   0.04211   0.13611
           A2           0.05453   0.05453   0.05453  -0.02563   0.13528
           A3           0.05453   0.05453   0.05453  -0.02563  -0.02472
           D1           0.01167   0.01167   0.01167   0.00118   0.00515
           D2          -0.01167  -0.01167  -0.01167  -0.00118  -0.00515
                          A3        D1        D2
           A3           0.13528
           D1           0.00515   0.01566
           D2          -0.00515  -0.00537   0.01566
 ITU=  1  1  0
     Eigenvalues ---    0.02371   0.11431   0.15815   0.47688   0.47688
     Eigenvalues ---    0.58340
 En-DIIS/RFO-DIIS/Sim-DIIS IScMMF=       -3 using points:     3    2
 RFO step:  Lambda=-5.04631364D-06.
 DidBck=FF Rises=F RFO-DIIS coefs:    1.16455   -0.16455
 GrdOpt: GIC=T ITstSp=  0 NP=   3 DidLin=F DidDIS=T IDoGRo=0 IDoRot=0
         ISwap=0 XLin= 0.000 DXMaxT= 0.300
 Iteration  1 RMS(Cart)=  0.00195882 RMS(Int)=  0.00007815
 Iteration  2 RMS(Cart)=  0.00000682 RMS(Int)=  0.00007758
 Iteration  3 RMS(Cart)=  0.00000000 RMS(Int)=  0.00007758
 ClnCor:  largest displacement from symmetrization is 5.09D-05 for atom     4.
 Variable       Old X    -DE/DX   Delta X   Delta X   Delta X     New X
                                 (Linear)    (Quad)   (Total)
    R1        1.91457  -0.00049   0.00103  -0.00127  -0.00026   1.91431
    R2        1.91457  -0.00049   0.00103  -0.00127  -0.00026   1.91431
    R3        1.91457  -0.00049   0.00103  -0.00127  -0.00026   1.91431
    A1        1.87570  -0.00022  -0.00339  -0.00021  -0.00361   1.87209
    A2        1.87570  -0.00007  -0.00339  -0.00006  -0.00361   1.87209
    A3        1.87570  -0.00007  -0.00339  -0.00006  -0.00361   1.87209
    D1       -2.01417   0.00022   0.00759   0.00019   0.00774  -2.00643
    D2        2.01417  -0.00022  -0.00759  -0.00019  -0.00774   2.00643
         Item               Value     Threshold  Converged?
 Maximum Force            0.000488     0.000450     NO 
 RMS     Force            0.000330     0.000300     NO 
 Maximum Displacement     0.004428     0.001800     NO 
 RMS     Displacement     0.002412     0.001200     NO 
 Predicted change in Energy=-2.509660D-06
 GradGradGradGradGradGradGradGradGradGradGradGradGradGradGradGradGradGrad

                          Input orientation:                          
 ---------------------------------------------------------------------
 Center     Atomic      Atomic             Coordinates (Angstroms)
 Number     Number       Type             X           Y           Z
 ---------------------------------------------------------------------
      1          7           0       -0.000000   -0.000000    0.129634
      2          1           0        0.000000    0.941882   -0.243250
      3          1           0       -0.815694   -0.470941   -0.243250
      4          1           0        0.815694   -0.470941   -0.243250
 ---------------------------------------------------------------------
                    Distance matrix (angstroms):
                    1          2          3          4
     1  N    0.000000
     2  H    1.013008   0.000000
     3  H    1.013008   1.631387   0.000000
     4  H    1.013008   1.631387   1.631387   0.000000
 Stoichiometry    H3N
 Framework group  C3V[C3(N),3SGV(H)]
 Deg. of freedom     2
 Full point group                 C3V     NOp   6
 Largest Abelian subgroup         CS      NOp   2
 Largest concise Abelian subgroup CS      NOp   2
                         Standard orientation:                         
 ---------------------------------------------------------------------
 Center     Atomic      Atomic             Coordinates (Angstroms)
 Number     Number       Type             X           Y           Z
 ---------------------------------------------------------------------
      1          7           0        0.000000    0.000000    0.111865
      2          1           0        0.000000    0.941882   -0.261019
      3          1           0       -0.815694   -0.470941   -0.261019
      4          1           0        0.815694   -0.470941   -0.261019
 ---------------------------------------------------------------------
 Rotational constants (GHZ):         299.5962557         299.5962557         188.4160162
 Basis read from rwf:  (5D, 7F)
 There are    59 symmetry adapted cartesian basis functions of A'  symmetry.
 There are    32 symmetry adapted cartesian basis functions of A"  symmetry.
 There are    54 symmetry adapted basis functions of A'  symmetry.
 There are    31 symmetry adapted basis functions of A"  symmetry.
    85 basis functions,   113 primitive gaussians,    91 cartesian basis functions
     5 alpha electrons        5 beta electrons
       nuclear repulsion energy        11.9431449320 Hartrees.
 NAtoms=    4 NActive=    4 NUniq=    2 SFac= 4.00D+00 NAtFMM=   60 NAOKFM=F Big=F
 Integral buffers will be    131072 words long.
 Raffenetti 2 integral format.
 Two-electron integral symmetry is turned on.
 One-electron integrals computed using PRISM.
 NBasis=    85 RedAO= T EigKep=  3.57D-04  NBF=    54    31
 NBsUse=    85 1.00D-06 EigRej= -1.00D+00 NBFU=    54    31
 Initial guess from the checkpoint file:  "b3.chk"
 B after Tr=    -0.000000    0.000000    0.000000
         Rot=    1.000000   -0.000000    0.000000    0.000000 Ang=   0.00 deg.
 Initial guess orbital symmetries:
       Occupied  (A1) (A1) (E) (E) (A1)
       Virtual   (A1) (E) (E) (A1) (E) (E) (A1) (E) (E) (E) (E)
                 (A1) (E) (E) (A1) (A1) (A2) (E) (E) (A1) (E) (E)
                 (A1) (E) (E) (A1) (E) (E) (A1) (E) (E) (A2) (E)
                 (E) (E) (E) (A1) (E) (E) (A1) (A1) (E) (E) (A1)
                 (E) (E) (A1) (E) (E) (A1) (A2) (E) (E) (E) (E)
                 (A1) (A1) (E) (E) (E) (E) (A2) (E) (E) (A1) (A1)
                 (E) (E) (E) (E) (A1) (E) (E) (A1) (E) (E) (A1)
                 (E) (E) (A1)
 Keep R1 ints in memory in symmetry-blocked form, NReq=21339960.
 Requested convergence on RMS density matrix=1.00D-08 within 128 cycles.
 Requested convergence on MAX density matrix=1.00D-06.
 Requested convergence on             energy=1.00D-06.
 No special actions if energy rises.
 SCF Done:  E(RB3LYP) =  -56.5921848155     A.U. after    6 cycles
            NFock=  6  Conv=0.47D-08     -V/T= 2.0051
 Calling FoFJK, ICntrl=      2127 FMM=F ISym2X=1 I1Cent= 0 IOpClX= 0 NMat=1 NMatS=1 NMatT=0.
 ***** Axes restored to original set *****
 -------------------------------------------------------------------
 Center     Atomic                   Forces (Hartrees/Bohr)
 Number     Number              X              Y              Z
 -------------------------------------------------------------------
      1        7          -0.000000000    0.000000000   -0.000151463
      2        1          -0.000000000   -0.000146069    0.000050488
      3        1           0.000126499    0.000073034    0.000050488
      4        1          -0.000126499    0.000073034    0.000050488
 -------------------------------------------------------------------
 Cartesian Forces:  Max     0.000151463 RMS     0.000088786

 GradGradGradGradGradGradGradGradGradGradGradGradGradGradGradGradGradGrad
 Berny optimization.
 Using GEDIIS/GDIIS optimizer.
 FormGI is forming the generalized inverse of G from B-inverse, IUseBI=4.
 Internal  Forces:  Max     0.000154397 RMS     0.000094629
 Search for a local minimum.
 Step number   4 out of a maximum of   20
 All quantities printed in internal units (Hartrees-Bohrs-Radians)
 Mixed Optimization -- En-DIIS/RFO-DIIS
 Swapping is turned off.
 Update second derivatives using D2CorX and points    1    2    3    4
 DE= -2.70D-06 DEPred=-2.51D-06 R= 1.08D+00
 TightC=F SS=  1.41D+00  RLast= 1.26D-02 DXNew= 5.0454D-01 3.7854D-02
 Trust test= 1.08D+00 RLast= 1.26D-02 DXMaxT set to 3.00D-01
 The second derivative matrix:
                          R1        R2        R3        A1        A2
           R1           0.47992
           R2           0.00304   0.47992
           R3           0.00304   0.00304   0.47992
           A1           0.02175   0.02175   0.02175   0.12522
           A2           0.02632   0.02632   0.02632  -0.04017   0.12020
           A3           0.02632   0.02632   0.02632  -0.04017  -0.03980
           D1           0.00394   0.00394   0.00394  -0.00210   0.00635
           D2          -0.00394  -0.00394  -0.00394   0.00210  -0.00635
                          A3        D1        D2
           A3           0.12020
           D1           0.00635   0.02186
           D2          -0.00635  -0.01158   0.02186
 ITU=  1  1  1  0
     Eigenvalues ---    0.02566   0.11384   0.15901   0.47688   0.47688
     Eigenvalues ---    0.48795
 En-DIIS/RFO-DIIS/Sim-DIIS IScMMF=       -3 using points:     4    3    2
 RFO step:  Lambda=-1.40545347D-07.
 DidBck=FF Rises=F RFO-DIIS coefs:    1.23479   -0.28318    0.04839
 GrdOpt: GIC=T ITstSp=  0 NP=   4 DidLin=F DidDIS=T IDoGRo=0 IDoRot=0
         ISwap=0 XLin= 0.000 DXMaxT= 0.300
 Iteration  1 RMS(Cart)=  0.00015413 RMS(Int)=  0.00002326
 Iteration  2 RMS(Cart)=  0.00000004 RMS(Int)=  0.00002326
 ClnCor:  largest displacement from symmetrization is 2.65D-06 for atom     4.
 Variable       Old X    -DE/DX   Delta X   Delta X   Delta X     New X
                                 (Linear)    (Quad)   (Total)
    R1        1.91431  -0.00015  -0.00036  -0.00000  -0.00036   1.91394
    R2        1.91431  -0.00015  -0.00036  -0.00000  -0.00036   1.91394
    R3        1.91431  -0.00015  -0.00036  -0.00000  -0.00036   1.91394
    A1        1.87209  -0.00001   0.00015   0.00001   0.00018   1.87227
    A2        1.87209  -0.00000   0.00015  -0.00000   0.00018   1.87227
    A3        1.87209  -0.00000   0.00015  -0.00000   0.00018   1.87227
    D1       -2.00643   0.00001  -0.00041   0.00000  -0.00039  -2.00682
    D2        2.00643  -0.00001   0.00041  -0.00000   0.00039   2.00682
         Item               Value     Threshold  Converged?
 Maximum Force            0.000154     0.000450     YES
 RMS     Force            0.000095     0.000300     YES
 Maximum Displacement     0.000327     0.001800     YES
 RMS     Displacement     0.000189     0.001200     YES
 Predicted change in Energy=-7.119734D-08
 Optimization completed.
    -- Stationary point found.
                           ----------------------------
                           !   Optimized Parameters   !
                           ! (Angstroms and Degrees)  !
 --------------------------                            --------------------------
 ! Name  Definition              Value          Derivative Info.                !
 --------------------------------------------------------------------------------
 ! R1    R(1,2)                  1.013          -DE/DX =   -0.0002              !
 ! R2    R(1,3)                  1.013          -DE/DX =   -0.0002              !
 ! R3    R(1,4)                  1.013          -DE/DX =   -0.0002              !
 ! A1    A(2,1,3)              107.263          -DE/DX =    0.0                 !
 ! A2    A(2,1,4)              107.263          -DE/DX =    0.0                 !
 ! A3    A(3,1,4)              107.263          -DE/DX =    0.0                 !
 ! D1    D(3,1,2,4)           -114.96           -DE/DX =    0.0                 !
 ! D2    D(2,1,3,4)            114.96           -DE/DX =    0.0                 !
 --------------------------------------------------------------------------------
 GradGradGradGradGradGradGradGradGradGradGradGradGradGradGradGradGradGrad

                          Input orientation:                          
 ---------------------------------------------------------------------
 Center     Atomic      Atomic             Coordinates (Angstroms)
 Number     Number       Type             X           Y           Z
 ---------------------------------------------------------------------
      1          7           0       -0.000000   -0.000000    0.129634
      2          1           0        0.000000    0.941882   -0.243250
      3          1           0       -0.815694   -0.470941   -0.243250
      4          1           0        0.815694   -0.470941   -0.243250
 ---------------------------------------------------------------------
                    Distance matrix (angstroms):
                    1          2          3          4
     1  N    0.000000
     2  H    1.013008   0.000000
     3  H    1.013008   1.631387   0.000000
     4  H    1.013008   1.631387   1.631387   0.000000
 Stoichiometry    H3N
 Framework group  C3V[C3(N),3SGV(H)]
 Deg. of freedom     2
 Full point group                 C3V     NOp   6
 Largest Abelian subgroup         CS      NOp   2
 Largest concise Abelian subgroup CS      NOp   2
                         Standard orientation:                         
 ---------------------------------------------------------------------
 Center     Atomic      Atomic             Coordinates (Angstroms)
 Number     Number       Type             X           Y           Z
 ---------------------------------------------------------------------
      1          7           0        0.000000    0.000000    0.111865
      2          1           0       -0.000000    0.941882   -0.261019
      3          1           0       -0.815694   -0.470941   -0.261019
      4          1           0        0.815694   -0.470941   -0.261019
 ---------------------------------------------------------------------
 Rotational constants (GHZ):         299.5962557         299.5962557         188.4160162

 **********************************************************************

            Population analysis using the SCF Density.

 **********************************************************************

 Orbital symmetries:
       Occupied  (A1) (A1) (E) (E) (A1)
       Virtual   (A1) (E) (E) (A1) (E) (E) (A1) (E) (E) (A1) (E)
                 (E) (E) (E) (A1) (A1) (A2) (E) (E) (A1) (E) (E)
                 (A1) (E) (E) (A1) (E) (E) (A1) (E) (E) (A2) (E)
                 (E) (E) (E) (A1) (E) (E) (A1) (A1) (E) (E) (A1)
                 (E) (E) (A1) (E) (E) (A1) (A2) (E) (E) (E) (E)
                 (A1) (A1) (E) (E) (E) (E) (A2) (E) (E) (A1) (A1)
                 (E) (E) (E) (E) (A1) (E) (E) (A1) (E) (E) (A1)
                 (E) (E) (A1)
 The electronic state is 1-A1.
 Alpha  occ. eigenvalues --      -14.29569      -0.85707      -0.46792      -0.46792      -0.27415
 Alpha virt. eigenvalues --       -0.00252       0.05140       0.05140       0.07013       0.13201
 Alpha virt. eigenvalues --        0.13201       0.15780       0.30105       0.30105       0.36048
 Alpha virt. eigenvalues --        0.36058       0.36058       0.40950       0.40950       0.45401
 Alpha virt. eigenvalues --        0.50365       0.53352       0.59142       0.59142       0.66164
 Alpha virt. eigenvalues --        0.78736       0.78736       0.88999       1.05254       1.05254
 Alpha virt. eigenvalues --        1.12867       1.17347       1.17347       1.47175       1.50481
 Alpha virt. eigenvalues --        1.50481       1.58549       1.69181       1.69181       1.74176
 Alpha virt. eigenvalues --        1.74176       1.83823       2.04983       2.04983       2.12865
 Alpha virt. eigenvalues --        2.15864       2.63158       2.63158       3.09169       3.18539
 Alpha virt. eigenvalues --        3.18539       3.32364       3.51155       3.51155       4.01449
 Alpha virt. eigenvalues --        4.16754       4.20761       4.20761       4.61303       4.61303
 Alpha virt. eigenvalues --        4.78678       4.97930       4.99017       4.99017       5.21440
 Alpha virt. eigenvalues --        5.21440       5.39181       6.16986       6.16986       6.41092
 Alpha virt. eigenvalues --        7.29240       7.63399       7.63399       7.99002       7.99002
 Alpha virt. eigenvalues --        8.13552       9.90853       9.90853      10.05234      10.61764
 Alpha virt. eigenvalues --       10.61764      28.41193      28.86411      28.86411      29.45076
          Condensed to atoms (all electrons):
               1          2          3          4
     1  N    6.574145   0.383363   0.383363   0.383363
     2  H    0.383363   0.433929  -0.029352  -0.029352
     3  H    0.383363  -0.029352   0.433929  -0.029352
     4  H    0.383363  -0.029352  -0.029352   0.433929
 Mulliken charges:
               1
     1  N   -0.724234
     2  H    0.241411
     3  H    0.241411
     4  H    0.241411
 Sum of Mulliken charges =  -0.00000
 Mulliken charges with hydrogens summed into heavy atoms:
               1
     1  N   -0.000000
 Electronic spatial extent (au):  <R**2>=             27.1333
 Charge=             -0.0000 electrons
 Dipole moment (field-independent basis, Debye):
    X=             -0.0000    Y=             -0.0000    Z=             -1.5173  Tot=              1.5173
 Quadrupole moment (field-independent basis, Debye-Ang):
   XX=             -6.3823   YY=             -6.3823   ZZ=             -9.5448
   XY=             -0.0000   XZ=              0.0000   YZ=              0.0000
 Traceless Quadrupole moment (field-independent basis, Debye-Ang):
   XX=              1.0542   YY=              1.0542   ZZ=             -2.1083
   XY=             -0.0000   XZ=              0.0000   YZ=              0.0000
 Octapole moment (field-independent basis, Debye-Ang**2):
  XXX=             -0.0000  YYY=              0.9174  ZZZ=             -1.3441  XYY=              0.0000
  XXY=             -0.9174  XXZ=             -0.8370  XZZ=              0.0000  YZZ=             -0.0000
  YYZ=             -0.8370  XYZ=              0.0000
 Hexadecapole moment (field-independent basis, Debye-Ang**3):
 XXXX=            -10.8338 YYYY=            -10.8338 ZZZZ=            -14.1000 XXXY=              0.0000
 XXXZ=             -0.0000 YYYX=             -0.0000 YYYZ=             -0.3192 ZZZX=             -0.0000
 ZZZY=             -0.0000 XXYY=             -3.6113 XXZZ=             -4.3087 YYZZ=             -4.3087
 XXYZ=              0.3192 YYXZ=             -0.0000 ZZXY=              0.0000
 N-N=          11.943145 E-N=        -155.975895  KE=          56.302926
 Symmetry A'   KE=          53.603916
 Symmetry A"   KE=           2.699011
 Unable to Open any file for archive entry.
 1\1\GINC-THIOTIMOLINE01\FOpt\RB3LYP\Gen\H3N1\LCRISCI_VB\11-Oct-2025\0\
 \# opt b3lyp/gen freq\\Title Card Required\\0,1\N,0.,0.,0.1296341052\H
 ,0.0000002053,0.9418819892,-0.2432502729\H,-0.8156938327,-0.4709408168
 ,-0.2432502729\H,0.8156936274,-0.4709411724,-0.2432502729\\Version=ES6
 Dipole=0.,0.,-0.5969571\Quadrupole=0.7837408,0.7837408,-1.5674816,0.,0
 .,0.\PG=C03V [C3(N1),3SGV(H1)]\\@
 The archive entry for this job was punched.


 YOU CANNOT THROW TO THE GROUND THE LETTERS OF
 THE GREEK ALPHABET AND PICK UP THE ILIAD.
        - RUFUS CHOATE, 1799-1859
 Job cpu time:       0 days  0 hours  0 minutes 41.2 seconds.
 Elapsed time:       0 days  0 hours  0 minutes  6.9 seconds.
 File lengths (MBytes):  RWF=     24 Int=      0 D2E=      0 Chk=     17 Scr=      1
 Normal termination of Gaussian DV at Sat Oct 11 14:01:52 2025.
 Link1:  Proceeding to internal job step number  2.
 ------------------------------------------------------------------
 #N Geom=AllCheck Guess=TCheck SCRF=Check GenChk RB3LYP/ChkBas Freq
 ------------------------------------------------------------------
 1/10=4,29=7,30=1,38=1,40=1/1,3;
 2/12=2/2;
 3/5=7,6=2,11=2,14=-4,25=1,30=1,67=1,70=2,71=2,74=-5,82=7,116=1,140=1,187=7/1,2,3;
 4/5=101/1;
 5/5=2,38=6,98=1/2;
 8/6=4,10=90,11=11/1;
 11/6=1,8=1,9=11,15=111,16=1/1,2,10;
 10/6=1/2;
 6/7=2,8=2,9=2,10=2,28=1/1;
 7/8=1,10=1,25=1/1,2,3,16;
 1/10=4,30=1/3;
 99//99;
 Structure from the checkpoint file:  "b3.chk"
 -------------------
 Title Card Required
 -------------------
 Charge =     0 Multiplicity =     1
 Redundant internal coordinates found in file.  (GICs).
 N,0,0.,0.,0.1296341052
 H,0,0.0000002053,0.9418819892,-0.2432502729
 H,0,-0.8156938327,-0.4709408168,-0.2432502729
 H,0,0.8156936274,-0.4709411724,-0.2432502729
 
 Recover connectivity data from disk.
 Reading GIC definitions from chk.

 GradGradGradGradGradGradGradGradGradGradGradGradGradGradGradGradGradGrad
 Berny optimization.
 Initialization pass.
                           ----------------------------
                           !    Initial Parameters    !
                           ! (Angstroms and Degrees)  !
 --------------------------                            --------------------------
 ! Name  Definition              Value          Derivative Info.                !
 --------------------------------------------------------------------------------
 ! R1    R(1,2)                  1.013          calculate D2E/DX2 analytically  !
 ! R2    R(1,3)                  1.013          calculate D2E/DX2 analytically  !
 ! R3    R(1,4)                  1.013          calculate D2E/DX2 analytically  !
 ! A1    A(2,1,3)              107.263          calculate D2E/DX2 analytically  !
 ! A2    A(2,1,4)              107.263          calculate D2E/DX2 analytically  !
 ! A3    A(3,1,4)              107.263          calculate D2E/DX2 analytically  !
 ! D1    D(3,1,2,4)           -114.96           calculate D2E/DX2 analytically  !
 ! D2    D(2,1,3,4)            114.96           calculate D2E/DX2 analytically  !
 --------------------------------------------------------------------------------
 Trust Radius=3.00D-01 FncErr=1.00D-07 GrdErr=1.00D-07 EigMax=2.50D+02 EigMin=1.00D-04
 Number of steps in this run=      2 maximum allowed number of steps=      2.
 GradGradGradGradGradGradGradGradGradGradGradGradGradGradGradGradGradGrad

                          Input orientation:                          
 ---------------------------------------------------------------------
 Center     Atomic      Atomic             Coordinates (Angstroms)
 Number     Number       Type             X           Y           Z
 ---------------------------------------------------------------------
      1          7           0       -0.000000   -0.000000    0.129634
      2          1           0        0.000000    0.941882   -0.243250
      3          1           0       -0.815694   -0.470941   -0.243250
      4          1           0        0.815694   -0.470941   -0.243250
 ---------------------------------------------------------------------
                    Distance matrix (angstroms):
                    1          2          3          4
     1  N    0.000000
     2  H    1.013008   0.000000
     3  H    1.013008   1.631387   0.000000
     4  H    1.013008   1.631387   1.631387   0.000000
 Stoichiometry    H3N
 Framework group  C3V[C3(N),3SGV(H)]
 Deg. of freedom     2
 Full point group                 C3V     NOp   6
 Largest Abelian subgroup         CS      NOp   2
 Largest concise Abelian subgroup CS      NOp   2
                         Standard orientation:                         
 ---------------------------------------------------------------------
 Center     Atomic      Atomic             Coordinates (Angstroms)
 Number     Number       Type             X           Y           Z
 ---------------------------------------------------------------------
      1          7           0        0.000000    0.000000    0.111865
      2          1           0        0.000000    0.941882   -0.261019
      3          1           0       -0.815694   -0.470941   -0.261019
      4          1           0        0.815694   -0.470941   -0.261019
 ---------------------------------------------------------------------
 Rotational constants (GHZ):         299.5962557         299.5962557         188.4160162
 Basis read from chk: "b3.chk" (5D, 7F)
 There are    59 symmetry adapted cartesian basis functions of A'  symmetry.
 There are    32 symmetry adapted cartesian basis functions of A"  symmetry.
 There are    54 symmetry adapted basis functions of A'  symmetry.
 There are    31 symmetry adapted basis functions of A"  symmetry.
    85 basis functions,   113 primitive gaussians,    91 cartesian basis functions
     5 alpha electrons        5 beta electrons
       nuclear repulsion energy        11.9431449320 Hartrees.
 NAtoms=    4 NActive=    4 NUniq=    2 SFac= 4.00D+00 NAtFMM=   60 NAOKFM=F Big=F
 Integral buffers will be    131072 words long.
 Raffenetti 2 integral format.
 Two-electron integral symmetry is turned on.
 One-electron integrals computed using PRISM.
 NBasis=    85 RedAO= T EigKep=  3.57D-04  NBF=    54    31
 NBsUse=    85 1.00D-06 EigRej= -1.00D+00 NBFU=    54    31
 Initial guess from the checkpoint file:  "b3.chk"
 B after Tr=     0.000000    0.000000    0.000000
         Rot=    1.000000   -0.000000   -0.000000   -0.000000 Ang=   0.00 deg.
 Initial guess orbital symmetries:
       Occupied  (A1) (A1) (E) (E) (A1)
       Virtual   (A1) (E) (E) (A1) (E) (E) (A1) (E) (E) (A1) (E)
                 (E) (E) (E) (A1) (A1) (A2) (E) (E) (A1) (E) (E)
                 (A1) (E) (E) (A1) (E) (E) (A1) (E) (E) (A2) (E)
                 (E) (E) (E) (A1) (E) (E) (A1) (A1) (E) (E) (A1)
                 (E) (E) (A1) (E) (E) (A1) (A2) (E) (E) (E) (E)
                 (A1) (A1) (E) (E) (E) (E) (A2) (E) (E) (A1) (A1)
                 (E) (E) (E) (E) (A1) (E) (E) (A1) (E) (E) (A1)
                 (E) (E) (A1)
 Keep R1 ints in memory in symmetry-blocked form, NReq=21339960.
 Requested convergence on RMS density matrix=1.00D-08 within 128 cycles.
 Requested convergence on MAX density matrix=1.00D-06.
 Requested convergence on             energy=1.00D-06.
 No special actions if energy rises.
 SCF Done:  E(RB3LYP) =  -56.5921848155     A.U. after    1 cycles
            NFock=  1  Conv=0.54D-09     -V/T= 2.0051
 DoSCS=F DFT=T ScalE2(SS,OS)=  1.000000  1.000000
 Range of M.O.s used for correlation:     1    85
 NBasis=    85 NAE=     5 NBE=     5 NFC=     0 NFV=     0
 NROrb=     85 NOA=     5 NOB=     5 NVA=    80 NVB=    80

 **** Warning!!: The largest alpha MO coefficient is  0.23473372D+02

 Symmetrizing basis deriv contribution to polar:
 IMax=3 JMax=2 DiffMx= 0.00D+00
 G2DrvN: will do     5 centers at a time, making    1 passes.
 Calling FoFCou, ICntrl=  3107 FMM=F I1Cent=   0 AccDes= 0.00D+00.
 End of G2Drv FD prop file    721 does not exist.
 End of G2Drv FD prop file    722 does not exist.
 End of G2Drv FD prop file    788 does not exist.
 End of G2Drv FD prop file    804 does not exist.
          IDoAtm=1111
          Differentiating once with respect to electric field.
                with respect to dipole field.
          Differentiating once with respect to nuclear coordinates.
 Keep R1 ints in memory in symmetry-blocked form, NReq=21290603.
          There are     9 degrees of freedom in the 1st order CPHF.  IDoFFX=4 NUNeed=     9.
      9 vectors produced by pass  0 Test12= 4.44D-15 1.11D-08 XBig12= 9.44D+00 2.28D+00.
 AX will form     9 AO Fock derivatives at one time.
      9 vectors produced by pass  1 Test12= 4.44D-15 1.11D-08 XBig12= 9.91D-01 4.63D-01.
      9 vectors produced by pass  2 Test12= 4.44D-15 1.11D-08 XBig12= 1.04D-02 3.26D-02.
      9 vectors produced by pass  3 Test12= 4.44D-15 1.11D-08 XBig12= 3.57D-05 2.19D-03.
      9 vectors produced by pass  4 Test12= 4.44D-15 1.11D-08 XBig12= 6.61D-08 7.57D-05.
      6 vectors produced by pass  5 Test12= 4.44D-15 1.11D-08 XBig12= 1.00D-10 3.00D-06.
      3 vectors produced by pass  6 Test12= 4.44D-15 1.11D-08 XBig12= 9.80D-14 8.75D-08.
 InvSVY:  IOpt=1 It=  1 EMax= 4.44D-16
 Solved reduced A of dimension    54 with     9 vectors.
 Isotropic polarizability for W=    0.000000       13.87 Bohr**3.
 End of Minotr FD prop file    721 does not exist.
 End of Minotr FD prop file    722 does not exist.
 End of Minotr FD prop file    788 does not exist.
 End of Minotr FD prop file    804 does not exist.

 **********************************************************************

            Population analysis using the SCF Density.

 **********************************************************************

 Orbital symmetries:
       Occupied  (A1) (A1) (E) (E) (A1)
       Virtual   (A1) (E) (E) (A1) (E) (E) (A1) (E) (E) (A1) (E)
                 (E) (E) (E) (A1) (A1) (A2) (E) (E) (A1) (E) (E)
                 (A1) (E) (E) (A1) (E) (E) (A1) (E) (E) (A2) (E)
                 (E) (E) (E) (A1) (E) (E) (A1) (A1) (E) (E) (A1)
                 (E) (E) (A1) (E) (E) (A1) (A2) (E) (E) (E) (E)
                 (A1) (A1) (E) (E) (E) (E) (A2) (E) (E) (A1) (A1)
                 (E) (E) (E) (E) (A1) (E) (E) (A1) (E) (E) (A1)
                 (E) (E) (A1)
 The electronic state is 1-A1.
 Alpha  occ. eigenvalues --      -14.29569      -0.85707      -0.46792      -0.46792      -0.27415
 Alpha virt. eigenvalues --       -0.00252       0.05140       0.05140       0.07013       0.13201
 Alpha virt. eigenvalues --        0.13201       0.15780       0.30105       0.30105       0.36048
 Alpha virt. eigenvalues --        0.36058       0.36058       0.40950       0.40950       0.45401
 Alpha virt. eigenvalues --        0.50365       0.53352       0.59142       0.59142       0.66164
 Alpha virt. eigenvalues --        0.78736       0.78736       0.88999       1.05254       1.05254
 Alpha virt. eigenvalues --        1.12867       1.17347       1.17347       1.47175       1.50481
 Alpha virt. eigenvalues --        1.50481       1.58549       1.69181       1.69181       1.74176
 Alpha virt. eigenvalues --        1.74176       1.83823       2.04983       2.04983       2.12865
 Alpha virt. eigenvalues --        2.15864       2.63158       2.63158       3.09169       3.18539
 Alpha virt. eigenvalues --        3.18539       3.32364       3.51155       3.51155       4.01449
 Alpha virt. eigenvalues --        4.16754       4.20761       4.20761       4.61303       4.61303
 Alpha virt. eigenvalues --        4.78678       4.97930       4.99017       4.99017       5.21440
 Alpha virt. eigenvalues --        5.21440       5.39181       6.16986       6.16986       6.41092
 Alpha virt. eigenvalues --        7.29240       7.63399       7.63399       7.99002       7.99002
 Alpha virt. eigenvalues --        8.13552       9.90853       9.90853      10.05234      10.61764
 Alpha virt. eigenvalues --       10.61764      28.41193      28.86411      28.86411      29.45076
          Condensed to atoms (all electrons):
               1          2          3          4
     1  N    6.574146   0.383363   0.383363   0.383363
     2  H    0.383363   0.433929  -0.029352  -0.029352
     3  H    0.383363  -0.029352   0.433929  -0.029352
     4  H    0.383363  -0.029352  -0.029352   0.433929
 Mulliken charges:
               1
     1  N   -0.724234
     2  H    0.241411
     3  H    0.241411
     4  H    0.241411
 Sum of Mulliken charges =  -0.00000
 Mulliken charges with hydrogens summed into heavy atoms:
               1
     1  N   -0.000000
 APT charges:
               1
     1  N   -0.426074
     2  H    0.142025
     3  H    0.142025
     4  H    0.142025
 Sum of APT charges =   0.00000
 APT charges with hydrogens summed into heavy atoms:
               1
     1  N    0.000000
 Electronic spatial extent (au):  <R**2>=             27.1333
 Charge=             -0.0000 electrons
 Dipole moment (field-independent basis, Debye):
    X=             -0.0000    Y=             -0.0000    Z=             -1.5173  Tot=              1.5173
 Quadrupole moment (field-independent basis, Debye-Ang):
   XX=             -6.3823   YY=             -6.3823   ZZ=             -9.5448
   XY=             -0.0000   XZ=              0.0000   YZ=              0.0000
 Traceless Quadrupole moment (field-independent basis, Debye-Ang):
   XX=              1.0542   YY=              1.0542   ZZ=             -2.1083
   XY=             -0.0000   XZ=              0.0000   YZ=              0.0000
 Octapole moment (field-independent basis, Debye-Ang**2):
  XXX=             -0.0000  YYY=              0.9174  ZZZ=             -1.3441  XYY=              0.0000
  XXY=             -0.9174  XXZ=             -0.8370  XZZ=              0.0000  YZZ=              0.0000
  YYZ=             -0.8370  XYZ=              0.0000
 Hexadecapole moment (field-independent basis, Debye-Ang**3):
 XXXX=            -10.8338 YYYY=            -10.8338 ZZZZ=            -14.1000 XXXY=              0.0000
 XXXZ=              0.0000 YYYX=             -0.0000 YYYZ=             -0.3192 ZZZX=             -0.0000
 ZZZY=             -0.0000 XXYY=             -3.6113 XXZZ=             -4.3087 YYZZ=             -4.3087
 XXYZ=              0.3192 YYXZ=             -0.0000 ZZXY=              0.0000
 N-N=          11.943145 E-N=        -155.975896  KE=          56.302927
 Symmetry A'   KE=          53.603916
 Symmetry A"   KE=           2.699011
 Calling FoFJK, ICntrl=    100127 FMM=F ISym2X=1 I1Cent= 0 IOpClX= 0 NMat=1 NMatS=1 NMatT=0.
 Full mass-weighted force constant matrix:
 Low frequencies ---   -0.0080   -0.0052   -0.0004   46.2542   46.9933   46.9937
 Low frequencies --- 1022.5350 1664.6569 1664.6569
 Diagonal vibrational polarizability:
        0.1724143       0.1724176       3.8127157
 Harmonic frequencies (cm**-1), IR intensities (KM/Mole), Raman scattering
 activities (A**4/AMU), depolarization ratios for plane and unpolarized
 incident light, reduced masses (AMU), force constants (mDyne/A),
 and normal coordinates:
                      1                      2                      3
                     A1                      E                      E
 Frequencies --   1022.5350              1664.6569              1664.6569
 Red. masses --      1.1823                 1.0672                 1.0672
 Frc consts  --      0.7284                 1.7424                 1.7424
 IR Inten    --    147.8187                16.8486                16.8489
  Atom  AN      X      Y      Z        X      Y      Z        X      Y      Z
     1   7     0.00  -0.00  -0.12    -0.07  -0.00   0.00     0.00  -0.07   0.00
     2   1    -0.00   0.20   0.54     0.76  -0.00  -0.00    -0.00  -0.14  -0.25
     3   1    -0.17  -0.10   0.54     0.09  -0.39   0.21    -0.39   0.54   0.12
     4   1     0.17  -0.10   0.54     0.09   0.39  -0.21     0.39   0.54   0.12
                      4                      5                      6
                     A1                      E                      E
 Frequencies --   3467.5117              3587.4817              3587.4817
 Red. masses --      1.0255                 1.0900                 1.0900
 Frc consts  --      7.2645                 8.2653                 8.2653
 IR Inten    --      3.6370                 4.2039                 4.2038
  Atom  AN      X      Y      Z        X      Y      Z        X      Y      Z
     1   7    -0.00   0.00   0.04     0.00  -0.08   0.00    -0.08  -0.00  -0.00
     2   1    -0.00   0.55  -0.17     0.00   0.76  -0.29    -0.02   0.00  -0.00
     3   1    -0.48  -0.28  -0.17     0.34   0.17   0.15     0.56   0.34   0.25
     4   1     0.48  -0.28  -0.17    -0.34   0.17   0.15     0.56  -0.34  -0.25

 -------------------
 - Thermochemistry -
 -------------------
 Temperature 298.150 Kelvin.  Pressure 1.00000 Atm.
 Atom     1 has atomic number  7 and mass  14.00307
 Atom     2 has atomic number  1 and mass   1.00783
 Atom     3 has atomic number  1 and mass   1.00783
 Atom     4 has atomic number  1 and mass   1.00783
 Molecular mass:    17.02655 amu.
 Principal axes and moments of inertia in atomic units:
                                 1                 2                 3
     Eigenvalues --            6.023911          6.023911          9.578491
           X                   0.985742          0.168265         -0.000000
           Y                  -0.168265          0.985742         -0.000000
           Z                   0.000000          0.000000          1.000000
 This molecule is an oblate symmetric top.
 Rotational symmetry number  3.
 Rotational temperatures (Kelvin)     14.37835    14.37835     9.04254
 Rotational constants (GHZ):         299.59626   299.59626   188.41602
 Zero-point vibrational energy      89686.0 (Joules/Mol)
                                   21.43546 (Kcal/Mol)
 Vibrational temperatures:   1471.20  2395.07  2395.07  4988.98  5161.59
          (Kelvin)           5161.59
 
 Zero-point correction=                           0.034160 (Hartree/Particle)
 Thermal correction to Energy=                    0.037031
 Thermal correction to Enthalpy=                  0.037975
 Thermal correction to Gibbs Free Energy=         0.016133
 Sum of electronic and zero-point Energies=            -56.558025
 Sum of electronic and thermal Energies=               -56.555154
 Sum of electronic and thermal Enthalpies=             -56.554210
 Sum of electronic and thermal Free Energies=          -56.576052
 
                     E (Thermal)             CV                S
                      KCal/Mol        Cal/Mol-Kelvin    Cal/Mol-Kelvin
 Total                   23.237              6.398             45.971
 Electronic               0.000              0.000              0.000
 Translational            0.889              2.981             34.441
 Rotational               0.889              2.981             11.433
 Vibrational             21.460              0.437              0.097
                       Q            Log10(Q)             Ln(Q)
 Total Bot       0.379760D-07         -7.420491        -17.086311
 Total V=0       0.195800D+09          8.291813         19.092605
 Vib (Bot)       0.195485D-15        -15.708886        -36.171046
 Vib (V=0)       0.100790D+01          0.003418          0.007870
 Electronic      0.100000D+01          0.000000          0.000000
 Translational   0.276149D+07          6.441144         14.831282
 Rotational      0.703480D+02          1.847251          4.253454
 ***** Axes restored to original set *****
 -------------------------------------------------------------------
 Center     Atomic                   Forces (Hartrees/Bohr)
 Number     Number              X              Y              Z
 -------------------------------------------------------------------
      1        7          -0.000000000    0.000000000   -0.000151458
      2        1          -0.000000000   -0.000146066    0.000050486
      3        1           0.000126497    0.000073033    0.000050486
      4        1          -0.000126497    0.000073033    0.000050486
 -------------------------------------------------------------------
 Cartesian Forces:  Max     0.000151458 RMS     0.000088784
 FormGI is forming the generalized inverse of G from B-inverse, IUseBI=4.

 GradGradGradGradGradGradGradGradGradGradGradGradGradGradGradGradGradGrad
 Berny optimization.
 Internal  Forces:  Max     0.000154394 RMS     0.000094627
 Search for a local minimum.
 Step number   1 out of a maximum of    2
 All quantities printed in internal units (Hartrees-Bohrs-Radians)
 Second derivative matrix not updated -- analytic derivatives used.
 The second derivative matrix:
                          R1        R2        R3        A1        A2
           R1           0.44967
           R2          -0.00111   0.44967
           R3          -0.00111  -0.00111   0.44967
           A1           0.01805   0.01805  -0.00584   0.12623
           A2           0.00819  -0.00714   0.00869  -0.03678   0.05064
           A3          -0.00714   0.00819   0.00869  -0.03678  -0.02137
           D1          -0.00454  -0.01478  -0.01143  -0.00112   0.01793
           D2           0.01478   0.00454   0.01143   0.00112   0.03014
                          A3        D1        D2
           A3           0.05064
           D1          -0.03014   0.02663
           D2          -0.01793   0.00547   0.02663
 ITU=  0
     Eigenvalues ---    0.02567   0.10313   0.14691   0.44973   0.45176
     Eigenvalues ---    0.45255
 Angle between quadratic step and forces=  26.86 degrees.
 Linear search not attempted -- first point.
 GrdOpt: GIC=T ITstSp=  0 NP=   1 DidLin=F DidDIS=F IDoGRo=0 IDoRot=0
         ISwap=1 XLin= 0.000 DXMaxT= 0.300
 Iteration  1 RMS(Cart)=  0.00015392 RMS(Int)=  0.00000002
 Iteration  2 RMS(Cart)=  0.00000001 RMS(Int)=  0.00000001
 ClnCor:  largest displacement from symmetrization is 4.18D-09 for atom     4.
 Variable       Old X    -DE/DX   Delta X   Delta X   Delta X     New X
                                 (Linear)    (Quad)   (Total)
    R1        1.91431  -0.00015   0.00000  -0.00036  -0.00036   1.91395
    R2        1.91431  -0.00015   0.00000  -0.00036  -0.00036   1.91395
    R3        1.91431  -0.00015   0.00000  -0.00036  -0.00036   1.91395
    A1        1.87209  -0.00001   0.00000   0.00008   0.00008   1.87217
    A2        1.87209  -0.00000   0.00000   0.00008   0.00008   1.87217
    A3        1.87209  -0.00000   0.00000   0.00008   0.00008   1.87217
    D1       -2.00643   0.00001   0.00000  -0.00017  -0.00017  -2.00660
    D2        2.00643  -0.00001   0.00000   0.00017   0.00017   2.00660
         Item               Value     Threshold  Converged?
 Maximum Force            0.000154     0.000450     YES
 RMS     Force            0.000095     0.000300     YES
 Maximum Displacement     0.000278     0.001800     YES
 RMS     Displacement     0.000189     0.001200     YES
 Predicted change in Energy=-8.096586D-08
 Optimization completed.
    -- Stationary point found.
                           ----------------------------
                           !   Optimized Parameters   !
                           ! (Angstroms and Degrees)  !
 --------------------------                            --------------------------
 ! Name  Definition              Value          Derivative Info.                !
 --------------------------------------------------------------------------------
 ! R1    R(1,2)                  1.013          -DE/DX =   -0.0002              !
 ! R2    R(1,3)                  1.013          -DE/DX =   -0.0002              !
 ! R3    R(1,4)                  1.013          -DE/DX =   -0.0002              !
 ! A1    A(2,1,3)              107.263          -DE/DX =    0.0                 !
 ! A2    A(2,1,4)              107.263          -DE/DX =    0.0                 !
 ! A3    A(3,1,4)              107.263          -DE/DX =    0.0                 !
 ! D1    D(3,1,2,4)           -114.96           -DE/DX =    0.0                 !
 ! D2    D(2,1,3,4)            114.96           -DE/DX =    0.0                 !
 --------------------------------------------------------------------------------
 GradGradGradGradGradGradGradGradGradGradGradGradGradGradGradGradGradGrad


 ----------------------------------------------------------------------

 Electric dipole moment (input orientation):
 (Debye = 10**-18 statcoulomb cm , SI units = C m)
                  (au)            (Debye)         (10**-30 SI)
   Tot        0.596957D+00      0.151731D+01      0.506121D+01
   x          0.000000D+00      0.000000D+00      0.000000D+00
   y          0.000000D+00      0.000000D+00      0.000000D+00
   z         -0.596957D+00     -0.151731D+01     -0.506121D+01

 Dipole polarizability, Alpha (input orientation).
 (esu units = cm**3 , SI units = C**2 m**2 J**-1)
 Alpha(0;0):
               (au)            (10**-24 esu)      (10**-40 SI)
   iso        0.138683D+02      0.205507D+01      0.228657D+01
   aniso      0.196881D+01      0.291748D+00      0.324613D+00
   xx         0.132120D+02      0.195782D+01      0.217837D+01
   yx         0.000000D+00      0.000000D+00      0.000000D+00
   yy         0.132120D+02      0.195782D+01      0.217837D+01
   zx         0.000000D+00      0.000000D+00      0.000000D+00
   zy         0.657549D-04      0.974387D-05      0.108415D-04
   zz         0.151808D+02      0.224957D+01      0.250298D+01

 ----------------------------------------------------------------------

 Dipole orientation:
     7         -0.00000000          0.00000000         -0.24497296
     1          0.00000039         -1.77989900          0.45967640
     1         -1.54143795          0.88994916          0.45967640
     1          1.54143756          0.88994984          0.45967640

 Electric dipole moment (dipole orientation):
 (Debye = 10**-18 statcoulomb cm , SI units = C m)
                  (au)            (Debye)         (10**-30 SI)
   Tot        0.596957D+00      0.151731D+01      0.506121D+01
   x          0.000000D+00      0.000000D+00      0.000000D+00
   y          0.000000D+00      0.000000D+00      0.000000D+00
   z          0.596957D+00      0.151731D+01      0.506121D+01

 Dipole polarizability, Alpha (dipole orientation).
 (esu units = cm**3 , SI units = C**2 m**2 J**-1)
 Alpha(0;0):
               (au)            (10**-24 esu)      (10**-40 SI)
   iso        0.138683D+02      0.205507D+01      0.228657D+01
   aniso      0.196881D+01      0.291748D+00      0.324613D+00
   xx         0.132120D+02      0.195782D+01      0.217837D+01
   yx         0.000000D+00      0.000000D+00      0.000000D+00
   yy         0.132120D+02      0.195782D+01      0.217837D+01
   zx         0.000000D+00      0.000000D+00      0.000000D+00
   zy         0.657549D-04      0.974387D-05      0.108415D-04
   zz         0.151808D+02      0.224957D+01      0.250298D+01

 ----------------------------------------------------------------------
 Unable to Open any file for archive entry.
 1\1\GINC-THIOTIMOLINE01\Freq\RB3LYP\Gen\H3N1\LCRISCI_VB\11-Oct-2025\0\
 \#N Geom=AllCheck Guess=TCheck SCRF=Check GenChk RB3LYP/ChkBas Freq\\T
 itle Card Required\\0,1\N,0.,0.,0.1296341052\H,0.0000002053,0.94188198
 92,-0.2432502729\H,-0.8156938327,-0.4709408168,-0.2432502729\H,0.81569
 \HF=-56.5921848\RMSD=5.387e-10\RMSF=8.878e-05\ZeroPoint=0.0341596\Ther
 mal=0.0370308\ETot=-56.555154\HTot=-56.5542098\GTot=-56.5760522\Dipole
 =0.,0.,-0.5969571\DipoleDeriv=-0.3641141,0.,0.,0.,-0.3641169,0.000001,
 0.,0.0000021,-0.5499908,0.1543716,0.,0.,0.,0.0883724,0.1064157,0.,0.12
 74872,0.1833305,0.1048717,-0.0285795,-0.0921594,-0.0285787,0.1378721,-
 0.0532081,-0.1104078,-0.0637441,0.1833303,0.1048717,0.0285795,0.092159
 4,0.0285787,0.137872,-0.0532081,0.1104078,-0.0637441,0.1833303\Polar=1
 3.2120051,0.,13.2120227,0.,0.0000658,15.1808272\Quadrupole=0.7837408,0
 .7837408,-1.5674817,0.,0.,0.\PG=C03V [C3(N1),3SGV(H1)]\NImag=0\\0.6421
 1810,0.,0.64211790,0.,-0.00000009,0.20620502,-0.06009320,-0.00000007,0
 .00000003,0.05848415,-0.00000007,-0.36798549,0.11609029,0.00000007,0.4
 0201148,0.00000004,0.16941500,-0.06873510,-0.00000003,-0.13579859,0.06
 768038,-0.29101249,-0.13332120,-0.10053713,0.00080454,0.00239331,-0.00
 167440,0.31612971,-0.13332127,-0.13706618,-0.05804510,-0.03325423,-0.0
 1701301,-0.01680818,0.14875166,0.14436592,-0.14671771,-0.08470744,-0.0
 6873503,0.01371912,0.00985416,0.00052736,0.11760505,0.06789927,0.06768
 038,-0.29101238,0.13332127,0.10053710,0.00080455,-0.00239332,0.0016744
 0,-0.02592179,0.01782378,0.01539352,0.31612958,0.13332134,-0.13706630,
 -0.05804514,0.03325422,-0.01701302,-0.01680819,-0.01782377,0.00971332,
 0.00695402,-0.14875173,0.14436605,0.14671767,-0.08470751,-0.06873503,-
 0.01371911,0.00985417,0.00052736,-0.01539351,0.00695402,0.00052736,-0.
 11760502,0.06789932,0.06768038\\0.,0.,0.00015146,0.,0.00014607,-0.0000
 5049,-0.00012650,-0.00007303,-0.00005049,0.00012650,-0.00007303,-0.000
 05049\\\@
 The archive entry for this job was punched.


 MYSTERY IS THE WISDOM OF BLOCKHEADS... HORACE WALPOLE 
 Job cpu time:       0 days  0 hours  0 minutes 42.3 seconds.
 Elapsed time:       0 days  0 hours  0 minutes  4.0 seconds.
 File lengths (MBytes):  RWF=     24 Int=      0 D2E=      0 Chk=     18 Scr=      1
 Normal termination of Gaussian DV at Sat Oct 11 14:01:56 2025.
 Initial command:
  
 Copyright (c) 1988-2024, Gaussian, Inc.  All Rights Reserved.
  
 This is the private, development version of
 the Gaussian(R) DV system of programs. It is based on
 the Gaussian(R) 16 system (copyright 2016, Gaussian, Inc.),
 the Gaussian(R) 09 system (copyright 2009, Gaussian, Inc.),
 the Gaussian(R) 03 system (copyright 2003, Gaussian, Inc.),
 the Gaussian(R) 98 system (copyright 1998, Gaussian, Inc.),
 the Gaussian(R) 94 system (copyright 1995, Gaussian, Inc.),
 the Gaussian 92(TM) system (copyright 1992, Gaussian, Inc.),
 the Gaussian 90(TM) system (copyright 1990, Gaussian, Inc.),
 the Gaussian 88(TM) system (copyright 1988, Gaussian, Inc.),
 the Gaussian 86(TM) system (copyright 1986, Carnegie Mellon
 University), and the Gaussian 82(TM) system (copyright 1983,
 Carnegie Mellon University). Gaussian is a federally registered
 trademark of Gaussian, Inc.
  
 This software contains proprietary and confidential information,
 including trade secrets, belonging to Gaussian, Inc.
  
 This software is provided under written license and may be
 used, copied, transmitted, or stored only in accord with that
 written license.
  
 The following legend is applicable only to US Government
 contracts under FAR:
  
                    RESTRICTED RIGHTS LEGEND
  
 Use, reproduction and disclosure by the US Government is
 subject to restrictions as set forth in subparagraphs (a)
 and (c) of the Commercial Computer Software - Restricted
 Rights clause in FAR 52.227-19.
  
 Gaussian, Inc.
 340 Quinnipiac St., Bldg. 40, Wallingford CT 06492
  
  
 ---------------------------------------------------------------
 Warning -- This program may not be used in any manner that
 competes with the business of Gaussian, Inc. or will provide
 assistance to any competitor of Gaussian, Inc.  The licensee
 of this program is prohibited from giving any competitor of
 Gaussian, Inc. access to this program.  By using this program,
 the user acknowledges that Gaussian, Inc. is engaged in the
 business of creating and licensing software in the field of
 computational chemistry and represents and warrants to the
 licensee that it is not a competitor of Gaussian, Inc. and that
 it will not use this program in any manner prohibited above.
 ---------------------------------------------------------------
  

 Cite this work as:
 Gaussian Development Version, Revision J.28,
 M. J. Frisch, G. W. Trucks, G. Scalmani, J. R. Cheeseman, X. Li, 
 J. Bloino, B. G. Janesko, A. V. Marenich, J. Zheng, F. Lipparini, 
 A. Jenkins, A. Liu, H. Liu, H. B. Schlegel, G. E. Scuseria, 
 M. A. Robb, V. Barone, G. A. Petersson, H. Nakatsuji, B. Mennucci, 
 C. Adamo, N. Rega, M. Caricato, H. P. Hratchian, J. V. Ortiz, 
 F. Pawlowski, A. F. Izmaylov, H. Hu, C. Liao, J. L. Sonnenberg, 
 D. Williams-Young, F. Ding, R. Gomperts, F. Egidi, J. Goings, 
 B. Peng, A. Petrone, T. Henderson, D. Ranasinghe, V. G. Zakrzewski, 
 J. Gao, G. Zheng, W. Liang, M. Hada, M. Ehara, K. Toyota, R. Fukuda, 
 J. Hasegawa, M. Ishida, T. Nakajima, Y. Honda, O. Kitao, H. Nakai, 
 T. Vreven, K. Throssell, J. A. Montgomery, Jr., J. E. Peralta, 
 F. Ogliaro, M. J. Bearpark, J. J. Heyd, E. N. Brothers, K. N. Kudin, 
 V. N. Staroverov, T. A. Keith, R. Kobayashi, J. Normand, 
 K. Raghavachari, A. P. Rendell, J. C. Burant, S. S. Iyengar, 
 M. Cossi, J. M. Millam, M. Klene, R. Cammi, R. L. Martin, O. Farkas, 
 J. B. Foresman, and D. J. Fox, Gaussian, Inc., Wallingford CT, 2023.
 
 ******************************************
                11-Oct-2025 
 ******************************************
 %chk=mrcc_struc.chk
 %oldchk=b3.chk
 Copying data from "b3.chk" to current chk file "mrcc_struc.chk"
 IOpt=  2 FromEx=T IUOpen= 4 IOptOp= 5 NList=   0 IFRang= 0 IUIn= 4 IUOut= 2.
 ----------------------------------------------------------------------
 #p output=pickett External="CentralExt mrcc 4 READ 2 1 $PMR/PR_CCSDF12
  $EMR/test_en.dat parall 16" opt(nomicro,readFC) geom=allcheck
 ----------------------------------------------------------------------
 1/10=3,18=20,19=15,26=1,29=7,38=1/1,3;
 2/9=110,12=2/2;
 3/5=30,11=9,14=-4,25=1,30=1,41=9990000,43=2,71=1/1;
 4/20=17,22=1,24=3,113=1,114=1,125=6000/2;
 6/7=2,8=2,9=2,10=2/1;
 7/44=-1/16;
 1/18=20,19=15,26=1/3(2);
 2/9=110/2;
 99/10=1024/99;
 2/9=110/2;
 3/5=30,11=9,14=-2,25=1,30=1,41=9990000,43=2,71=1/1;
 4/16=2,20=17,22=1,24=3,113=1,114=1,125=6000/2;
 7/44=-1/16;
 1/18=20,19=15,26=1/3(-4);
 2/9=110/2;
 6/7=2,8=2,9=2,10=2/1;
 99/9=10,10=1024/99;
 Leave Link    1 at Sat Oct 11 14:01:57 2025, MaxMem=   104857600 cpu:               0.1 elap:               0.3
 Structure from the checkpoint file:  "mrcc_struc.chk"
 -------------------
 Title Card Required
 -------------------
 Charge =     0 Multiplicity =     1
 Redundant internal coordinates found in file.  (GICs).
 N,0,0.,0.,0.1296341052
 H,0,0.0000002053,0.9418819892,-0.2432502729
 H,0,-0.8156938327,-0.4709408168,-0.2432502729
 H,0,0.8156936274,-0.4709411724,-0.2432502729
 
 Recover connectivity data from disk.
 Reading GIC definitions from chk.
 Reading GIC derivative info from chk.
 ITRead=  0  0  0  0
 MicOpt= -1 -1 -1 -1
 NAtoms=      4 NQM=        4 NQMF=       0 NMMI=      0 NMMIF=      0
                NMic=       0 NMicF=      0.
                    Isotopes and Nuclear Properties:
 (Nuclear quadrupole moments (NQMom) in fm**2, nuclear magnetic moments (NMagM)
  in nuclear magnetons)

  Atom         1           2           3           4
 IAtWgt=          14           1           1           1
 AtmWgt=  14.0030740   1.0078250   1.0078250   1.0078250
 NucSpn=           2           1           1           1
 AtZEff=    4.550000    1.000000    1.000000    1.000000
 NQMom=    2.0440000   0.0000000   0.0000000   0.0000000
 NMagM=    0.4037610   2.7928460   2.7928460   2.7928460
 AtZNuc=   7.0000000   1.0000000   1.0000000   1.0000000
 Leave Link  101 at Sat Oct 11 14:01:57 2025, MaxMem=   104857600 cpu:               0.1 elap:               0.2

 GradGradGradGradGradGradGradGradGradGradGradGradGradGradGradGradGradGrad
 Berny optimization.
 Initialization pass.
 Force constant matrix read from checkpoint file:
 "mrcc_struc.chk"
                           ----------------------------
                           !    Initial Parameters    !
                           ! (Angstroms and Degrees)  !
 --------------------------                            --------------------------
 ! Name  Definition              Value          Derivative Info.                !
 --------------------------------------------------------------------------------
 ! R1    R(1,2)                  1.013          D2E/DX2 =    0.4497             !
 ! R2    R(1,3)                  1.013          D2E/DX2 =    0.4497             !
 ! R3    R(1,4)                  1.013          D2E/DX2 =    0.4497             !
 ! A1    A(2,1,3)              107.263          D2E/DX2 =    0.1262             !
 ! A2    A(2,1,4)              107.263          D2E/DX2 =    0.0506             !
 ! A3    A(3,1,4)              107.263          D2E/DX2 =    0.0506             !
 ! D1    D(3,1,2,4)           -114.96           D2E/DX2 =    0.0266             !
 ! D2    D(2,1,3,4)            114.96           D2E/DX2 =    0.0266             !
 --------------------------------------------------------------------------------
 Trust Radius=3.00D-01 FncErr=1.00D-07 GrdErr=1.00D-07 EigMax=2.50D+02 EigMin=1.00D-04
 Number of steps in this run=     20 maximum allowed number of steps=    100.
 GradGradGradGradGradGradGradGradGradGradGradGradGradGradGradGradGradGrad

 Leave Link  103 at Sat Oct 11 14:01:57 2025, MaxMem=   104857600 cpu:               0.0 elap:               0.0
                          Input orientation:                          
 ---------------------------------------------------------------------
 Center     Atomic      Atomic             Coordinates (Angstroms)
 Number     Number       Type             X           Y           Z
 ---------------------------------------------------------------------
      1          7           0       -0.000000   -0.000000    0.129634
      2          1           0        0.000000    0.941882   -0.243250
      3          1           0       -0.815694   -0.470941   -0.243250
      4          1           0        0.815694   -0.470941   -0.243250
 ---------------------------------------------------------------------
                    Distance matrix (angstroms):
                    1          2          3          4
     1  N    0.000000
     2  H    1.013008   0.000000
     3  H    1.013008   1.631387   0.000000
     4  H    1.013008   1.631387   1.631387   0.000000
 Stoichiometry    H3N
 Framework group  C3V[C3(N),3SGV(H)]
 Deg. of freedom     2
 Full point group                 C3V     NOp   6
 RotChk:  IX=0 Diff= 7.38D-16
 Largest Abelian subgroup         CS      NOp   2
 Largest concise Abelian subgroup CS      NOp   2
                         Standard orientation:                         
 ---------------------------------------------------------------------
 Center     Atomic      Atomic             Coordinates (Angstroms)
 Number     Number       Type             X           Y           Z
 ---------------------------------------------------------------------
      1          7           0        0.000000    0.000000    0.111865
      2          1           0       -0.000000    0.941882   -0.261019
      3          1           0       -0.815694   -0.470941   -0.261019
      4          1           0        0.815694   -0.470941   -0.261019
 ---------------------------------------------------------------------
 Rotational constants (GHZ):         299.5962557         299.5962557         188.4160162
 Leave Link  202 at Sat Oct 11 14:01:57 2025, MaxMem=   104857600 cpu:               0.0 elap:               0.0
 Standard basis: Dummy (5D, 7F)
 There are     3 symmetry adapted cartesian basis functions of A'  symmetry.
 There are     1 symmetry adapted cartesian basis functions of A"  symmetry.
 There are     3 symmetry adapted basis functions of A'  symmetry.
 There are     1 symmetry adapted basis functions of A"  symmetry.
     4 basis functions,     4 primitive gaussians,     4 cartesian basis functions
     2 alpha electrons        2 beta electrons
       nuclear repulsion energy         2.5402642477 Hartrees.
 IExCor=         0 DFT=F Ex=HF Corr=None N6=None ScaHFX=  1.000000
 ScaDFX=  1.000000  1.000000  1.000000  1.000000  1.000000  0.000000
 ScaDFX=  0.000000  0.000000  0.000000  0.000000  0.000000  0.000000
 Grid=UltraFine IRanWt=     -1 IRanGd=            0 ICorTp=0 IEDCtl=  2004
 NAtoms=    4 NActive=    4 NUniq=    2 SFac= 4.00D+00 NAtFMM=   60 NAOKFM=F Big=F
 Integral buffers will be    131072 words long.
 Raffenetti 1 integral format.
 Two-electron integral symmetry is turned on.
 Leave Link  301 at Sat Oct 11 14:01:57 2025, MaxMem=   104857600 cpu:               0.0 elap:               0.0
 External calculation of energy and first derivatives.
 Running external command "CentralExt mrcc 4 READ 2 1 $PMR/PR_CCSDF12 $EMR/test_en.dat parall 16 R"
         input file       "/local/scratch/lcrisci_vb/amm_Gaussian_73951.pbs.village.sns.it/Gau-999282.EIn"
         output file      "/local/scratch/lcrisci_vb/amm_Gaussian_73951.pbs.village.sns.it/Gau-999282.EOu"
         message file     "/local/scratch/lcrisci_vb/amm_Gaussian_73951.pbs.village.sns.it/Gau-999282.EMs"
         fchk file        "/local/scratch/lcrisci_vb/amm_Gaussian_73951.pbs.village.sns.it/Gau-999282.EFC"
         mat. el file     "/local/scratch/lcrisci_vb/amm_Gaussian_73951.pbs.village.sns.it/Gau-999282.EUF"
FAKE_FREQ CONVERSION: N Bohr=['0.0', '0.0', '0.211394805237'] -> Angstrom=[0.0, 0.0, 0.11186531343469855]
FAKE_FREQ CONVERSION: H Bohr=['-0.0', '1.779899001281', '-0.493254545553'] -> Angstrom=[-0.0, 0.9418819891869148, -0.2610190646809633]
FAKE_FREQ CONVERSION: H Bohr=['-1.54143775128', '-0.88994950064', '-0.493254545553'] -> Angstrom=[-0.8156937300029425, -0.4709409945931928, -0.2610190646809633]
FAKE_FREQ CONVERSION: H Bohr=['1.54143775128', '-0.88994950064', '-0.493254545553'] -> Angstrom=[0.8156937300029425, -0.4709409945931928, -0.2610190646809633]
Checking original directory for Gaussian input: /home/barone/lcrisci_vb/ACTUAL_PROJECTS/MRCC_new_Interface_project/TestSet/FNO_AND_NON-FNO/ammoniaca
Found Gaussian input file with External keyword: /home/barone/lcrisci_vb/ACTUAL_PROJECTS/MRCC_new_Interface_project/TestSet/FNO_AND_NON-FNO/ammoniaca/ammoniaca.gjf
GEOMETRY CONVERSION: Task 'central' - Converted from Bohr to Angstrom
  First atom coordinates: Bohr = [0.         0.         0.21139481], Angstrom = [0.         0.         0.11186531]
GEOMETRY CONVERSION: Task 'atom_1_ixyz_1_up' - Converted from Bohr to Angstrom
  First atom coordinates: Bohr = [0.00188973 0.         0.21139481], Angstrom = [0.001      0.         0.11186531]
GEOMETRY CONVERSION: Task 'atom_1_ixyz_2_up' - Converted from Bohr to Angstrom
  First atom coordinates: Bohr = [0.         0.00188973 0.21139481], Angstrom = [0.         0.001      0.11186531]
GEOMETRY CONVERSION: Task 'atom_1_ixyz_2_down' - Converted from Bohr to Angstrom
  First atom coordinates: Bohr = [ 0.         -0.00188973  0.21139481], Angstrom = [ 0.         -0.001       0.11186531]
GEOMETRY CONVERSION: Task 'atom_1_ixyz_3_up' - Converted from Bohr to Angstrom
  First atom coordinates: Bohr = [0.         0.         0.21328453], Angstrom = [0.         0.         0.11286531]
GEOMETRY CONVERSION: Task 'atom_1_ixyz_3_down' - Converted from Bohr to Angstrom
  First atom coordinates: Bohr = [0.         0.         0.20950508], Angstrom = [0.         0.         0.11086531]
GEOMETRY CONVERSION: Task 'atom_2_ixyz_1_up' - Converted from Bohr to Angstrom
  First atom coordinates: Bohr = [0.         0.         0.21139481], Angstrom = [0.         0.         0.11186531]
GEOMETRY CONVERSION: Task 'atom_2_ixyz_2_up' - Converted from Bohr to Angstrom
  First atom coordinates: Bohr = [0.         0.         0.21139481], Angstrom = [0.         0.         0.11186531]
GEOMETRY CONVERSION: Task 'atom_2_ixyz_2_down' - Converted from Bohr to Angstrom
  First atom coordinates: Bohr = [0.         0.         0.21139481], Angstrom = [0.         0.         0.11186531]
GEOMETRY CONVERSION: Task 'atom_2_ixyz_3_up' - Converted from Bohr to Angstrom
  First atom coordinates: Bohr = [0.         0.         0.21139481], Angstrom = [0.         0.         0.11186531]
GEOMETRY CONVERSION: Task 'atom_2_ixyz_3_down' - Converted from Bohr to Angstrom
  First atom coordinates: Bohr = [0.         0.         0.21139481], Angstrom = [0.         0.         0.11186531]
✓ Extracted Input orientation (4 atoms)
✓ Extracted Original coordinates (4 atoms)
DEBUG: Preserved fake frequency log as FAKE_FREQ/fake_freq_1.log
DEBUG: Expected atoms: 4
DEBUG: Task central: 4 atoms
DEBUG: Task atom_1_ixyz_2_up: 4 atoms
DEBUG: Task atom_1_ixyz_2_down: 4 atoms
DEBUG: Task atom_1_ixyz_3_up: 4 atoms
DEBUG: Task atom_1_ixyz_3_down: 4 atoms
DEBUG: Task atom_2_ixyz_2_up: 4 atoms
DEBUG: Task atom_2_ixyz_2_down: 4 atoms
DEBUG: Task atom_2_ixyz_3_up: 4 atoms
DEBUG: Task atom_2_ixyz_3_down: 4 atoms
DEBUG: All geometries have correct atom count (4)
Created iteration directory: /home/barone/lcrisci_vb/ACTUAL_PROJECTS/MRCC_new_Interface_project/TestSet/FNO_AND_NON-FNO/ammoniaca/Iterations/Iteration_1
INFO: This is iteration number 1
INFO: Running parallel gradient calculation in iteration 1
Running parallel energy calculations with 16 threads
TASK SUBMISSION: Submitting 9 tasks
  - Task: central
  - Task: atom_1_ixyz_2_up
  - Task: atom_1_ixyz_2_down
  - Task: atom_1_ixyz_3_up
  - Task: atom_1_ixyz_3_down
  - Task: atom_2_ixyz_2_up
  - Task: atom_2_ixyz_2_down
  - Task: atom_2_ixyz_3_up
  - Task: atom_2_ixyz_3_down
PARALLEL EXECUTION: Starting with 16 workers
PARALLEL EXECUTION: Total tasks to execute: 9
PARALLEL EXECUTION: Submitted tasks: ['atom_1_ixyz_2_down', 'atom_1_ixyz_2_up', 'atom_1_ixyz_3_down', 'atom_1_ixyz_3_up', 'atom_2_ixyz_2_down', 'atom_2_ixyz_2_up', 'atom_2_ixyz_3_down', 'atom_2_ixyz_3_up', 'central']
PARALLEL EXECUTION: Submitted 9 futures to executor
MRCC SETUP: No GENBAS file found in /home/barone/lcrisci_vb/ACTUAL_PROJECTS/MRCC_new_Interface_project/TestSet/FNO_AND_NON-FNO/ammoniaca for task central
MRCC SETUP: No GENBAS file found in /home/barone/lcrisci_vb/ACTUAL_PROJECTS/MRCC_new_Interface_project/TestSet/FNO_AND_NON-FNO/ammoniaca for task atom_1_ixyz_2_downMRCC SETUP: No GENBAS file found in /home/barone/lcrisci_vb/ACTUAL_PROJECTS/MRCC_new_Interface_project/TestSet/FNO_AND_NON-FNO/ammoniaca for task atom_1_ixyz_3_up
MRCC SETUP: No GENBAS file found in /home/barone/lcrisci_vb/ACTUAL_PROJECTS/MRCC_new_Interface_project/TestSet/FNO_AND_NON-FNO/ammoniaca for task atom_2_ixyz_2_down
MRCC SETUP: No GENBAS file found in /home/barone/lcrisci_vb/ACTUAL_PROJECTS/MRCC_new_Interface_project/TestSet/FNO_AND_NON-FNO/ammoniaca for task atom_1_ixyz_3_downMRCC SETUP: No GENBAS file found in /home/barone/lcrisci_vb/ACTUAL_PROJECTS/MRCC_new_Interface_project/TestSet/FNO_AND_NON-FNO/ammoniaca for task atom_2_ixyz_2_up

MRCC SETUP: No GENBAS file found in /home/barone/lcrisci_vb/ACTUAL_PROJECTS/MRCC_new_Interface_project/TestSet/FNO_AND_NON-FNO/ammoniaca for task atom_2_ixyz_3_down

UNIT CONVERSION: Task 'central' - Wrote .EIn file in Bohr
  First atom: Angstrom = [0.         0.         0.11186531], Bohr = [0.         0.         0.21139481]
UNIT CONVERSION: Task 'atom_1_ixyz_2_down' - Wrote .EIn file in BohrMRCC SETUP: No GENBAS file found in /home/barone/lcrisci_vb/ACTUAL_PROJECTS/MRCC_new_Interface_project/TestSet/FNO_AND_NON-FNO/ammoniaca for task atom_1_ixyz_2_upTHREAD-23433388209920: Starting execution for task 'central'UNIT CONVERSION: Task 'atom_1_ixyz_3_up' - Wrote .EIn file in Bohr

UNIT CONVERSION: Task 'atom_2_ixyz_2_down' - Wrote .EIn file in Bohr

UNIT CONVERSION: Task 'atom_1_ixyz_3_down' - Wrote .EIn file in Bohr

  First atom: Angstrom = [ 0.         -0.001       0.11186531], Bohr = [ 0.         -0.00188973  0.21139481]UNIT CONVERSION: Task 'atom_2_ixyz_2_up' - Wrote .EIn file in BohrUNIT CONVERSION: Task 'atom_2_ixyz_3_down' - Wrote .EIn file in Bohr  First atom: Angstrom = [0.         0.         0.11186531], Bohr = [0.         0.         0.21139481]
THREAD-23433388209920: Task directory: /home/barone/lcrisci_vb/ACTUAL_PROJECTS/MRCC_new_Interface_project/TestSet/FNO_AND_NON-FNO/ammoniaca/Iterations/Iteration_1/task_central
  First atom: Angstrom = [0.         0.         0.11086531], Bohr = [0.         0.         0.20950508]  First atom: Angstrom = [0.         0.         0.11286531], Bohr = [0.         0.         0.21328453]


THREAD-23433375602432: Starting execution for task 'atom_2_ixyz_2_down'THREAD-23433388209920: Input file: /home/barone/lcrisci_vb/ACTUAL_PROJECTS/MRCC_new_Interface_project/TestSet/FNO_AND_NON-FNO/ammoniaca/Iterations/Iteration_1/task_central/Gau-central.EIn

THREAD-23433384007424: Starting execution for task 'atom_1_ixyz_2_down'
  First atom: Angstrom = [0.         0.         0.11186531], Bohr = [0.         0.         0.21139481]UNIT CONVERSION: Task 'atom_1_ixyz_2_up' - Wrote .EIn file in Bohr
  First atom: Angstrom = [0.         0.         0.11186531], Bohr = [0.         0.         0.21139481]

THREAD-23433379804928: Starting execution for task 'atom_1_ixyz_3_down'
MRCC SETUP: No GENBAS file found in /home/barone/lcrisci_vb/ACTUAL_PROJECTS/MRCC_new_Interface_project/TestSet/FNO_AND_NON-FNO/ammoniaca for task atom_2_ixyz_3_up
THREAD-23433381906176: Starting execution for task 'atom_1_ixyz_3_up'THREAD-23433384007424: Task directory: /home/barone/lcrisci_vb/ACTUAL_PROJECTS/MRCC_new_Interface_project/TestSet/FNO_AND_NON-FNO/ammoniaca/Iterations/Iteration_1/task_atom_1_ixyz_2_down
  First atom: Angstrom = [0.         0.001      0.11186531], Bohr = [0.         0.00188973 0.21139481]

THREAD-23433371399936: Starting execution for task 'atom_2_ixyz_3_down'THREAD-23433375602432: Task directory: /home/barone/lcrisci_vb/ACTUAL_PROJECTS/MRCC_new_Interface_project/TestSet/FNO_AND_NON-FNO/ammoniaca/Iterations/Iteration_1/task_atom_2_ixyz_2_down
THREAD-23433379804928: Task directory: /home/barone/lcrisci_vb/ACTUAL_PROJECTS/MRCC_new_Interface_project/TestSet/FNO_AND_NON-FNO/ammoniaca/Iterations/Iteration_1/task_atom_1_ixyz_3_down


THREAD-23433377703680: Starting execution for task 'atom_2_ixyz_2_up'THREAD-23433386108672: Starting execution for task 'atom_1_ixyz_2_up'THREAD-23433388209920: Original working directory: /home/barone/lcrisci_vb/ACTUAL_PROJECTS/MRCC_new_Interface_project/TestSet/FNO_AND_NON-FNO/ammoniaca
THREAD-23433371399936: Task directory: /home/barone/lcrisci_vb/ACTUAL_PROJECTS/MRCC_new_Interface_project/TestSet/FNO_AND_NON-FNO/ammoniaca/Iterations/Iteration_1/task_atom_2_ixyz_3_downTHREAD-23433375602432: Input file: /home/barone/lcrisci_vb/ACTUAL_PROJECTS/MRCC_new_Interface_project/TestSet/FNO_AND_NON-FNO/ammoniaca/Iterations/Iteration_1/task_atom_2_ixyz_2_down/Gau-atom_2_ixyz_2_down.EIn
THREAD-23433379804928: Input file: /home/barone/lcrisci_vb/ACTUAL_PROJECTS/MRCC_new_Interface_project/TestSet/FNO_AND_NON-FNO/ammoniaca/Iterations/Iteration_1/task_atom_1_ixyz_3_down/Gau-atom_1_ixyz_3_down.EInTHREAD-23433381906176: Task directory: /home/barone/lcrisci_vb/ACTUAL_PROJECTS/MRCC_new_Interface_project/TestSet/FNO_AND_NON-FNO/ammoniaca/Iterations/Iteration_1/task_atom_1_ixyz_3_upTHREAD-23433384007424: Input file: /home/barone/lcrisci_vb/ACTUAL_PROJECTS/MRCC_new_Interface_project/TestSet/FNO_AND_NON-FNO/ammoniaca/Iterations/Iteration_1/task_atom_1_ixyz_2_down/Gau-atom_1_ixyz_2_down.EIn

UNIT CONVERSION: Task 'atom_2_ixyz_3_up' - Wrote .EIn file in Bohr

THREAD-23433388209920: Test mode: False


THREAD-23433377703680: Task directory: /home/barone/lcrisci_vb/ACTUAL_PROJECTS/MRCC_new_Interface_project/TestSet/FNO_AND_NON-FNO/ammoniaca/Iterations/Iteration_1/task_atom_2_ixyz_2_up
THREAD-23433386108672: Task directory: /home/barone/lcrisci_vb/ACTUAL_PROJECTS/MRCC_new_Interface_project/TestSet/FNO_AND_NON-FNO/ammoniaca/Iterations/Iteration_1/task_atom_1_ixyz_2_up
THREAD-23433388209920: Executing command: /shared/apps/python/3.9.16/bin/python3.9 /home/barone/lcrisci_vb/External/Executables/MRCC_ext 4 READ 2 1 PR_CCSDF12 test_en.dat R Gau-central.EIn energy_output.datTHREAD-23433371399936: Input file: /home/barone/lcrisci_vb/ACTUAL_PROJECTS/MRCC_new_Interface_project/TestSet/FNO_AND_NON-FNO/ammoniaca/Iterations/Iteration_1/task_atom_2_ixyz_3_down/Gau-atom_2_ixyz_3_down.EIn
THREAD-23433375602432: Original working directory: /home/barone/lcrisci_vb/ACTUAL_PROJECTS/MRCC_new_Interface_project/TestSet/FNO_AND_NON-FNO/ammoniacaTHREAD-23433381906176: Input file: /home/barone/lcrisci_vb/ACTUAL_PROJECTS/MRCC_new_Interface_project/TestSet/FNO_AND_NON-FNO/ammoniaca/Iterations/Iteration_1/task_atom_1_ixyz_3_up/Gau-atom_1_ixyz_3_up.EIn

  First atom: Angstrom = [0.         0.         0.11186531], Bohr = [0.         0.         0.21139481]
THREAD-23433384007424: Original working directory: /home/barone/lcrisci_vb/ACTUAL_PROJECTS/MRCC_new_Interface_project/TestSet/FNO_AND_NON-FNO/ammoniaca


THREAD-23433379804928: Original working directory: /home/barone/lcrisci_vb/ACTUAL_PROJECTS/MRCC_new_Interface_project/TestSet/FNO_AND_NON-FNO/ammoniacaTHREAD-23433377703680: Input file: /home/barone/lcrisci_vb/ACTUAL_PROJECTS/MRCC_new_Interface_project/TestSet/FNO_AND_NON-FNO/ammoniaca/Iterations/Iteration_1/task_atom_2_ixyz_2_up/Gau-atom_2_ixyz_2_up.EIn

THREAD-23433386108672: Input file: /home/barone/lcrisci_vb/ACTUAL_PROJECTS/MRCC_new_Interface_project/TestSet/FNO_AND_NON-FNO/ammoniaca/Iterations/Iteration_1/task_atom_1_ixyz_2_up/Gau-atom_1_ixyz_2_up.EInTHREAD-23433384007424: Test mode: False
THREAD-23433388209920: Working directory for subprocess: /home/barone/lcrisci_vb/ACTUAL_PROJECTS/MRCC_new_Interface_project/TestSet/FNO_AND_NON-FNO/ammoniaca/Iterations/Iteration_1/task_central
THREAD-23433375602432: Test mode: False
THREAD-23433371399936: Original working directory: /home/barone/lcrisci_vb/ACTUAL_PROJECTS/MRCC_new_Interface_project/TestSet/FNO_AND_NON-FNO/ammoniacaTHREAD-23433373501184: Starting execution for task 'atom_2_ixyz_3_up'
THREAD-23433381906176: Original working directory: /home/barone/lcrisci_vb/ACTUAL_PROJECTS/MRCC_new_Interface_project/TestSet/FNO_AND_NON-FNO/ammoniaca
THREAD-23433384007424: Executing command: /shared/apps/python/3.9.16/bin/python3.9 /home/barone/lcrisci_vb/External/Executables/MRCC_ext 4 READ 2 1 PR_CCSDF12 test_en.dat R Gau-atom_1_ixyz_2_down.EIn energy_output.dat
THREAD-23433379804928: Test mode: FalseTHREAD-23433377703680: Original working directory: /home/barone/lcrisci_vb/ACTUAL_PROJECTS/MRCC_new_Interface_project/TestSet/FNO_AND_NON-FNO/ammoniaca
THREAD-23433373501184: Task directory: /home/barone/lcrisci_vb/ACTUAL_PROJECTS/MRCC_new_Interface_project/TestSet/FNO_AND_NON-FNO/ammoniaca/Iterations/Iteration_1/task_atom_2_ixyz_3_up


THREAD-23433375602432: Executing command: /shared/apps/python/3.9.16/bin/python3.9 /home/barone/lcrisci_vb/External/Executables/MRCC_ext 4 READ 2 1 PR_CCSDF12 test_en.dat R Gau-atom_2_ixyz_2_down.EIn energy_output.dat

THREAD-23433371399936: Test mode: FalseTHREAD-23433373501184: Input file: /home/barone/lcrisci_vb/ACTUAL_PROJECTS/MRCC_new_Interface_project/TestSet/FNO_AND_NON-FNO/ammoniaca/Iterations/Iteration_1/task_atom_2_ixyz_3_up/Gau-atom_2_ixyz_3_up.EIn
THREAD-23433381906176: Test mode: False
THREAD-23433384007424: Working directory for subprocess: /home/barone/lcrisci_vb/ACTUAL_PROJECTS/MRCC_new_Interface_project/TestSet/FNO_AND_NON-FNO/ammoniaca/Iterations/Iteration_1/task_atom_1_ixyz_2_down
THREAD-23433379804928: Executing command: /shared/apps/python/3.9.16/bin/python3.9 /home/barone/lcrisci_vb/External/Executables/MRCC_ext 4 READ 2 1 PR_CCSDF12 test_en.dat R Gau-atom_1_ixyz_3_down.EIn energy_output.datTHREAD-23433377703680: Test mode: FalseTHREAD-23433386108672: Original working directory: /home/barone/lcrisci_vb/ACTUAL_PROJECTS/MRCC_new_Interface_project/TestSet/FNO_AND_NON-FNO/ammoniaca

THREAD-23433381906176: Executing command: /shared/apps/python/3.9.16/bin/python3.9 /home/barone/lcrisci_vb/External/Executables/MRCC_ext 4 READ 2 1 PR_CCSDF12 test_en.dat R Gau-atom_1_ixyz_3_up.EIn energy_output.dat
THREAD-23433375602432: Working directory for subprocess: /home/barone/lcrisci_vb/ACTUAL_PROJECTS/MRCC_new_Interface_project/TestSet/FNO_AND_NON-FNO/ammoniaca/Iterations/Iteration_1/task_atom_2_ixyz_2_down

THREAD-23433386108672: Test mode: FalseTHREAD-23433371399936: Executing command: /shared/apps/python/3.9.16/bin/python3.9 /home/barone/lcrisci_vb/External/Executables/MRCC_ext 4 READ 2 1 PR_CCSDF12 test_en.dat R Gau-atom_2_ixyz_3_down.EIn energy_output.dat
THREAD-23433381906176: Working directory for subprocess: /home/barone/lcrisci_vb/ACTUAL_PROJECTS/MRCC_new_Interface_project/TestSet/FNO_AND_NON-FNO/ammoniaca/Iterations/Iteration_1/task_atom_1_ixyz_3_upTHREAD-23433373501184: Original working directory: /home/barone/lcrisci_vb/ACTUAL_PROJECTS/MRCC_new_Interface_project/TestSet/FNO_AND_NON-FNO/ammoniaca
THREAD-23433379804928: Working directory for subprocess: /home/barone/lcrisci_vb/ACTUAL_PROJECTS/MRCC_new_Interface_project/TestSet/FNO_AND_NON-FNO/ammoniaca/Iterations/Iteration_1/task_atom_1_ixyz_3_down
THREAD-23433377703680: Executing command: /shared/apps/python/3.9.16/bin/python3.9 /home/barone/lcrisci_vb/External/Executables/MRCC_ext 4 READ 2 1 PR_CCSDF12 test_en.dat R Gau-atom_2_ixyz_2_up.EIn energy_output.dat


THREAD-23433371399936: Working directory for subprocess: /home/barone/lcrisci_vb/ACTUAL_PROJECTS/MRCC_new_Interface_project/TestSet/FNO_AND_NON-FNO/ammoniaca/Iterations/Iteration_1/task_atom_2_ixyz_3_down

THREAD-23433386108672: Executing command: /shared/apps/python/3.9.16/bin/python3.9 /home/barone/lcrisci_vb/External/Executables/MRCC_ext 4 READ 2 1 PR_CCSDF12 test_en.dat R Gau-atom_1_ixyz_2_up.EIn energy_output.dat
THREAD-23433373501184: Test mode: FalseTHREAD-23433377703680: Working directory for subprocess: /home/barone/lcrisci_vb/ACTUAL_PROJECTS/MRCC_new_Interface_project/TestSet/FNO_AND_NON-FNO/ammoniaca/Iterations/Iteration_1/task_atom_2_ixyz_2_up


THREAD-23433386108672: Working directory for subprocess: /home/barone/lcrisci_vb/ACTUAL_PROJECTS/MRCC_new_Interface_project/TestSet/FNO_AND_NON-FNO/ammoniaca/Iterations/Iteration_1/task_atom_1_ixyz_2_upTHREAD-23433373501184: Executing command: /shared/apps/python/3.9.16/bin/python3.9 /home/barone/lcrisci_vb/External/Executables/MRCC_ext 4 READ 2 1 PR_CCSDF12 test_en.dat R Gau-atom_2_ixyz_3_up.EIn energy_output.dat

THREAD-23433373501184: Working directory for subprocess: /home/barone/lcrisci_vb/ACTUAL_PROJECTS/MRCC_new_Interface_project/TestSet/FNO_AND_NON-FNO/ammoniaca/Iterations/Iteration_1/task_atom_2_ixyz_3_up
THREAD-23433371399936: Subprocess completed successfully
THREAD-23433371399936: Subprocess stdout (last 200 chars): ****************************************************************
SCRIPT EXECUTION FINISHED
*****************************************************************************
MRCC External Script Finished.

THREAD-23433371399936: Output file path: /home/barone/lcrisci_vb/ACTUAL_PROJECTS/MRCC_new_Interface_project/TestSet/FNO_AND_NON-FNO/ammoniaca/Iterations/Iteration_1/task_atom_2_ixyz_3_down/energy_output.dat
THREAD-23433371399936: Already in original directory /home/barone/lcrisci_vb/ACTUAL_PROJECTS/MRCC_new_Interface_project/TestSet/FNO_AND_NON-FNO/ammoniaca
PARALLEL EXECUTION: Task 'atom_2_ixyz_3_down' completed successfully with energy -56.493303474819
THREAD-23433373501184: Subprocess completed successfully
THREAD-23433373501184: Subprocess stdout (last 200 chars): ****************************************************************
SCRIPT EXECUTION FINISHED
*****************************************************************************
MRCC External Script Finished.

THREAD-23433373501184: Output file path: /home/barone/lcrisci_vb/ACTUAL_PROJECTS/MRCC_new_Interface_project/TestSet/FNO_AND_NON-FNO/ammoniaca/Iterations/Iteration_1/task_atom_2_ixyz_3_up/energy_output.dat
THREAD-23433373501184: Already in original directory /home/barone/lcrisci_vb/ACTUAL_PROJECTS/MRCC_new_Interface_project/TestSet/FNO_AND_NON-FNO/ammoniaca
PARALLEL EXECUTION: Task 'atom_2_ixyz_3_up' completed successfully with energy -56.493302318088
THREAD-23433386108672: Subprocess completed successfully
THREAD-23433386108672: Subprocess stdout (last 200 chars): ****************************************************************
SCRIPT EXECUTION FINISHED
*****************************************************************************
MRCC External Script Finished.

THREAD-23433386108672: Output file path: /home/barone/lcrisci_vb/ACTUAL_PROJECTS/MRCC_new_Interface_project/TestSet/FNO_AND_NON-FNO/ammoniaca/Iterations/Iteration_1/task_atom_1_ixyz_2_up/energy_output.dat
THREAD-23433386108672: Already in original directory /home/barone/lcrisci_vb/ACTUAL_PROJECTS/MRCC_new_Interface_project/TestSet/FNO_AND_NON-FNO/ammoniaca
PARALLEL EXECUTION: Task 'atom_1_ixyz_2_up' completed successfully with energy -56.493301860204
THREAD-23433379804928: Subprocess completed successfully
THREAD-23433379804928: Subprocess stdout (last 200 chars): ****************************************************************
SCRIPT EXECUTION FINISHED
*****************************************************************************
MRCC External Script Finished.

THREAD-23433379804928: Output file path: /home/barone/lcrisci_vb/ACTUAL_PROJECTS/MRCC_new_Interface_project/TestSet/FNO_AND_NON-FNO/ammoniaca/Iterations/Iteration_1/task_atom_1_ixyz_3_down/energy_output.dat
THREAD-23433379804928: Already in original directory /home/barone/lcrisci_vb/ACTUAL_PROJECTS/MRCC_new_Interface_project/TestSet/FNO_AND_NON-FNO/ammoniaca
PARALLEL EXECUTION: Task 'atom_1_ixyz_3_down' completed successfully with energy -56.493300912214
THREAD-23433377703680: Subprocess completed successfully
THREAD-23433377703680: Subprocess stdout (last 200 chars): ****************************************************************
SCRIPT EXECUTION FINISHED
*****************************************************************************
MRCC External Script Finished.

THREAD-23433377703680: Output file path: /home/barone/lcrisci_vb/ACTUAL_PROJECTS/MRCC_new_Interface_project/TestSet/FNO_AND_NON-FNO/ammoniaca/Iterations/Iteration_1/task_atom_2_ixyz_2_up/energy_output.dat
THREAD-23433377703680: Already in original directory /home/barone/lcrisci_vb/ACTUAL_PROJECTS/MRCC_new_Interface_project/TestSet/FNO_AND_NON-FNO/ammoniaca
PARALLEL EXECUTION: Task 'atom_2_ixyz_2_up' completed successfully with energy -56.493299530769
THREAD-23433375602432: Subprocess completed successfully
THREAD-23433375602432: Subprocess stdout (last 200 chars): ****************************************************************
SCRIPT EXECUTION FINISHED
*****************************************************************************
MRCC External Script Finished.

THREAD-23433375602432: Output file path: /home/barone/lcrisci_vb/ACTUAL_PROJECTS/MRCC_new_Interface_project/TestSet/FNO_AND_NON-FNO/ammoniaca/Iterations/Iteration_1/task_atom_2_ixyz_2_down/energy_output.dat
THREAD-23433375602432: Already in original directory /home/barone/lcrisci_vb/ACTUAL_PROJECTS/MRCC_new_Interface_project/TestSet/FNO_AND_NON-FNO/ammoniaca
THREAD-23433381906176: Subprocess completed successfully
THREAD-23433381906176: Subprocess stdout (last 200 chars): ****************************************************************
SCRIPT EXECUTION FINISHED
*****************************************************************************
MRCC External Script Finished.

THREAD-23433381906176: Output file path: /home/barone/lcrisci_vb/ACTUAL_PROJECTS/MRCC_new_Interface_project/TestSet/FNO_AND_NON-FNO/ammoniaca/Iterations/Iteration_1/task_atom_1_ixyz_3_up/energy_output.dat
THREAD-23433381906176: Already in original directory /home/barone/lcrisci_vb/ACTUAL_PROJECTS/MRCC_new_Interface_project/TestSet/FNO_AND_NON-FNO/ammoniaca
PARALLEL EXECUTION: Task 'atom_2_ixyz_2_down' completed successfully with energy -56.493305061383
PARALLEL EXECUTION: Task 'atom_1_ixyz_3_up' completed successfully with energy -56.493304381765THREAD-23433388209920: Subprocess completed successfully

THREAD-23433388209920: Subprocess stdout (last 200 chars): ****************************************************************
SCRIPT EXECUTION FINISHED
*****************************************************************************
MRCC External Script Finished.

THREAD-23433388209920: Output file path: /home/barone/lcrisci_vb/ACTUAL_PROJECTS/MRCC_new_Interface_project/TestSet/FNO_AND_NON-FNO/ammoniaca/Iterations/Iteration_1/task_central/energy_output.dat
THREAD-23433388209920: Already in original directory /home/barone/lcrisci_vb/ACTUAL_PROJECTS/MRCC_new_Interface_project/TestSet/FNO_AND_NON-FNO/ammoniaca
PARALLEL EXECUTION: Task 'central' completed successfully with energy -56.493303019551
THREAD-23433384007424: Subprocess completed successfully
THREAD-23433384007424: Subprocess stdout (last 200 chars): ****************************************************************
SCRIPT EXECUTION FINISHED
*****************************************************************************
MRCC External Script Finished.

THREAD-23433384007424: Output file path: /home/barone/lcrisci_vb/ACTUAL_PROJECTS/MRCC_new_Interface_project/TestSet/FNO_AND_NON-FNO/ammoniaca/Iterations/Iteration_1/task_atom_1_ixyz_2_down/energy_output.dat
THREAD-23433384007424: Already in original directory /home/barone/lcrisci_vb/ACTUAL_PROJECTS/MRCC_new_Interface_project/TestSet/FNO_AND_NON-FNO/ammoniaca
PARALLEL EXECUTION: Task 'atom_1_ixyz_2_down' completed successfully with energy -56.493301863195
PARALLEL EXECUTION: Completed tasks: ['atom_1_ixyz_2_down', 'atom_1_ixyz_2_up', 'atom_1_ixyz_3_down', 'atom_1_ixyz_3_up', 'atom_2_ixyz_2_down', 'atom_2_ixyz_2_up', 'atom_2_ixyz_3_down', 'atom_2_ixyz_3_up', 'central']
PARALLEL EXECUTION: Failed tasks: []
PARALLEL EXECUTION: All 9 tasks completed successfully
TASK COMPLETION: Received 9 results
  - Task atom_2_ixyz_3_down: Energy = -56.493303474819
  - Task atom_2_ixyz_3_up: Energy = -56.493302318088
  - Task atom_1_ixyz_2_up: Energy = -56.493301860204
  - Task atom_1_ixyz_3_down: Energy = -56.493300912214
  - Task atom_2_ixyz_2_up: Energy = -56.493299530769
  - Task atom_2_ixyz_2_down: Energy = -56.493305061383
  - Task atom_1_ixyz_3_up: Energy = -56.493304381765
  - Task central: Energy = -56.493303019551
  - Task atom_1_ixyz_2_down: Energy = -56.493301863195
WARNING: Using deprecated hardcoded rotation matrices
Please provide input_geometry_bohr for auto-detection
Point group: C03V
Using identity rotation (no coordinate transformation)
ADVANCED SYMMETRY: Using C03V point group with 6 operations
ADVANCED SYMMETRY: Applying non-abelian group theory algorithm
AUTO-DETECT: Found R_coords with RMSD = 5.96e-13 Bohr
Gradient transformation matrix R^T (original → central):
  [1. 0. 0.]
  [0. 1. 0.]
  [0. 0. 1.]

=== MOLECULAR SYMMETRY CONSTRAINTS ===
SYMMETRY CONSTRAINT: Atom 1, Axis 1 = 0.000000000 (missing displacement)
SYMMETRY CONSTRAINT: Atom 2, Axis 1 = 0.000000000 (missing displacement)

=== DIRECT CALCULATIONS ===
DIRECT CALCULATION: Atom 1, Axis 2 = 0.00000079
DIRECT CALCULATION: Atom 1, Axis 3 = -0.00091800
DIRECT CALCULATION: Atom 2, Axis 2 = 0.00146334
DIRECT CALCULATION: Atom 2, Axis 3 = 0.00030606
SYMMETRY PROPAGATION: Atom 3 from Atom 2 via operation 3
  Source gradient: [0.         0.00146334 0.00030606]
  Transformation matrix:
    [-0.5   -0.866  0.   ]
    [ 0.866 -0.5    0.   ]
    [0. 0. 1.]
  Result gradient: [-0.00126725 -0.00073167  0.00030606]
SYMMETRY PROPAGATION: Atom 4 from Atom 2 via operation 2
  Source gradient: [0.         0.00146334 0.00030606]
  Transformation matrix:
    [-0.5    0.866  0.   ]
    [-0.866 -0.5    0.   ]
    [0. 0. 1.]
  Result gradient: [ 0.00126725 -0.00073167  0.00030606]

=== VALIDATION ===
CONSTRAINT VERIFIED: Atom 1, Axis 1 = 0.000000000
CONSTRAINT VERIFIED: Atom 2, Axis 1 = 0.000000000
SYMMETRY EFFICIENCY: 58.3% computational reduction
SYMMETRY EFFICIENCY: 5/12 components calculated
DEBUG: Writing output to /local/scratch/lcrisci_vb/amm_Gaussian_73951.pbs.village.sns.it/Gau-999282.EOu
DEBUG: Current directory: /home/barone/lcrisci_vb/ACTUAL_PROJECTS/MRCC_new_Interface_project/TestSet/FNO_AND_NON-FNO/ammoniaca
DEBUG: Central energy: -56.493303019551
DEBUG: Gradient shape: (4, 3)
INFO: Writing results from iteration 1 to output file
DEBUG: Output written successfully
DEBUG: File exists: True
SUCCESS: Parallel gradient calculation completed using iteration 1
Task directories preserved in: /home/barone/lcrisci_vb/ACTUAL_PROJECTS/MRCC_new_Interface_project/TestSet/FNO_AND_NON-FNO/ammoniaca/Iterations/Iteration_1
 Recovered energy= -56.4933030196     dipole=      0.000000000000      0.000000000000      0.000000000000
 Energy=    -56.4933030     NIter=   0.
 Dipole moment=       0.000000       0.000000       0.000000
 Leave Link  402 at Sat Oct 11 14:05:11 2025, MaxMem=   104857600 cpu:               0.0 elap:             194.4
 Leave Link  601 at Sat Oct 11 14:05:11 2025, MaxMem=   104857600 cpu:               0.0 elap:               0.0
 Dipole        = 0.00000000D+00 0.00000000D+00 0.00000000D+00
 ***** Axes restored to original set *****
 -------------------------------------------------------------------
 Center     Atomic                   Forces (Hartrees/Bohr)
 Number     Number              X              Y              Z
 -------------------------------------------------------------------
      1        7          -0.000000000   -0.000000791    0.000918004
      2        1          -0.000000000   -0.001463337   -0.000306058
      3        1           0.001267250    0.000731668   -0.000306058
      4        1          -0.001267250    0.000731669   -0.000306058
 -------------------------------------------------------------------
 Cartesian Forces:  Max     0.001463337 RMS     0.000793076
 Leave Link  716 at Sat Oct 11 14:05:11 2025, MaxMem=   104857600 cpu:               0.0 elap:               0.0

 GradGradGradGradGradGradGradGradGradGradGradGradGradGradGradGradGradGrad
 Berny optimization.
 FormGI is forming the generalized inverse of G from B-inverse, IUseBI=4.
 NTrRot=    -1 NTRed=     8 NAtoms=     4 NSkip=     2 NRank=     6 IsLin=F EigSml=7.5571D-01
 Internal  Forces:  Max     0.001248032 RMS     0.000897625
 Search for a local minimum.
 Step number   1 out of a maximum of   20
 All quantities printed in internal units (Hartrees-Bohrs-Radians)
 RMS Force = .89762D-03 SwitMx=.10000D-02 MixMth= 2
 Mixed Optimization -- En-DIIS/RFO-DIIS
 Second derivative matrix not updated -- first step.
 The second derivative matrix:
                          R1        R2        R3        A1        A2
           R1           0.44967
           R2          -0.00111   0.44967
           R3          -0.00111  -0.00111   0.44967
           A1           0.01805   0.01805  -0.00584   0.12623
           A2           0.00819  -0.00714   0.00869  -0.03678   0.05064
           A3          -0.00714   0.00819   0.00869  -0.03678  -0.02137
           D1          -0.00454  -0.01478  -0.01143  -0.00112   0.01793
           D2           0.01478   0.00454   0.01143   0.00112   0.03014
                          A3        D1        D2
           A3           0.05064
           D1          -0.03014   0.02663
           D2          -0.01793   0.00547   0.02663
 ITU=  0
     Eigenvalues ---    0.02567   0.10313   0.14691   0.44973   0.45176
     Eigenvalues ---    0.45255
 RFO step:  Lambda=-5.78607181D-05 EMin= 2.56744564D-02
 Linear search not attempted -- first point.
 GrdOpt: GIC=T ITstSp=  0 NP=   1 DidLin=F DidDIS=F IDoGRo=0 IDoRot=0
         ISwap=1 XLin= 0.000 DXMaxT= 0.300
 Iteration  1 RMS(Cart)=  0.00669664 RMS(Int)=  0.00016912
 Iteration  2 RMS(Cart)=  0.00007756 RMS(Int)=  0.00013170
 Iteration  3 RMS(Cart)=  0.00000001 RMS(Int)=  0.00013170
 ClnCor:  largest displacement from symmetrization is 4.29D-05 for atom     4.
 Variable       Old X    -DE/DX   Delta X   Delta X   Delta X     New X
                                 (Linear)    (Quad)   (Total)
    R1        1.91431  -0.00125   0.00000  -0.00115  -0.00114   1.91317
    R2        1.91431  -0.00125   0.00000  -0.00115  -0.00114   1.91317
    R3        1.91431  -0.00125   0.00000  -0.00115  -0.00114   1.91317
    A1        1.87209  -0.00074   0.00000  -0.01219  -0.01236   1.85973
    A2        1.87209  -0.00024   0.00000  -0.01218  -0.01236   1.85973
    A3        1.87209  -0.00024   0.00000  -0.01218  -0.01236   1.85973
    D1       -2.00643   0.00075   0.00000   0.02594   0.02578  -1.98065
    D2        2.00643  -0.00075   0.00000  -0.02594  -0.02578   1.98065
         Item               Value     Threshold  Converged?
 Maximum Force            0.001248     0.000450     NO 
 RMS     Force            0.000898     0.000300     NO 
 Maximum Displacement     0.014835     0.001800     NO 
 RMS     Displacement     0.008265     0.001200     NO 
 Predicted change in Energy=-2.898187D-05
 GradGradGradGradGradGradGradGradGradGradGradGradGradGradGradGradGradGrad

 Leave Link  103 at Sat Oct 11 14:05:12 2025, MaxMem=   104857600 cpu:               0.0 elap:               0.2
                          Input orientation:                          
 ---------------------------------------------------------------------
 Center     Atomic      Atomic             Coordinates (Angstroms)
 Number     Number       Type             X           Y           Z
 ---------------------------------------------------------------------
      1          7           0       -0.000000   -0.000000    0.137484
      2          1           0        0.000000    0.937021   -0.245865
      3          1           0       -0.811484   -0.468510   -0.245865
      4          1           0        0.811484   -0.468511   -0.245865
 ---------------------------------------------------------------------
                    Distance matrix (angstroms):
                    1          2          3          4
     1  N    0.000000
     2  H    1.012406   0.000000
     3  H    1.012406   1.622968   0.000000
     4  H    1.012406   1.622968   1.622968   0.000000
 Stoichiometry    H3N
 Framework group  C3V[C3(N),3SGV(H)]
 Deg. of freedom     2
 Full point group                 C3V     NOp   6
 RotChk:  IX=0 Diff= 2.91D-16
 Largest Abelian subgroup         CS      NOp   2
 Largest concise Abelian subgroup CS      NOp   2
                         Standard orientation:                         
 ---------------------------------------------------------------------
 Center     Atomic      Atomic             Coordinates (Angstroms)
 Number     Number       Type             X           Y           Z
 ---------------------------------------------------------------------
      1          7           0        0.000000    0.000000    0.115005
      2          1           0        0.000000    0.937021   -0.268345
      3          1           0       -0.811484   -0.468511   -0.268345
      4          1           0        0.811484   -0.468511   -0.268345
 ---------------------------------------------------------------------
 Rotational constants (GHZ):         298.5568816         298.5568816         190.3758785
 Leave Link  202 at Sat Oct 11 14:05:12 2025, MaxMem=   104857600 cpu:               0.0 elap:               0.0
 Standard basis: Dummy (5D, 7F)
 There are     3 symmetry adapted cartesian basis functions of A'  symmetry.
 There are     1 symmetry adapted cartesian basis functions of A"  symmetry.
 There are     3 symmetry adapted basis functions of A'  symmetry.
 There are     1 symmetry adapted basis functions of A"  symmetry.
     4 basis functions,     4 primitive gaussians,     4 cartesian basis functions
     2 alpha electrons        2 beta electrons
       nuclear repulsion energy         2.5462436975 Hartrees.
 IExCor=         0 DFT=F Ex=HF Corr=None N6=None ScaHFX=  1.000000
 ScaDFX=  1.000000  1.000000  1.000000  1.000000  1.000000  0.000000
 ScaDFX=  0.000000  0.000000  0.000000  0.000000  0.000000  0.000000
 Grid=UltraFine IRanWt=     -1 IRanGd=            0 ICorTp=0 IEDCtl=  2004
 NAtoms=    4 NActive=    4 NUniq=    2 SFac= 4.00D+00 NAtFMM=   60 NAOKFM=F Big=F
 Integral buffers will be    131072 words long.
 Raffenetti 1 integral format.
 Two-electron integral symmetry is turned on.
 Leave Link  301 at Sat Oct 11 14:05:12 2025, MaxMem=   104857600 cpu:               0.0 elap:               0.0
 External calculation of energy and first derivatives.
 Running external command "CentralExt mrcc 4 READ 2 1 $PMR/PR_CCSDF12 $EMR/test_en.dat parall 16 R"
         input file       "/local/scratch/lcrisci_vb/amm_Gaussian_73951.pbs.village.sns.it/Gau-999282.EIn"
         output file      "/local/scratch/lcrisci_vb/amm_Gaussian_73951.pbs.village.sns.it/Gau-999282.EOu"
         message file     "/local/scratch/lcrisci_vb/amm_Gaussian_73951.pbs.village.sns.it/Gau-999282.EMs"
         fchk file        "/local/scratch/lcrisci_vb/amm_Gaussian_73951.pbs.village.sns.it/Gau-999282.EFC"
         mat. el file     "/local/scratch/lcrisci_vb/amm_Gaussian_73951.pbs.village.sns.it/Gau-999282.EUF"
FAKE_FREQ CONVERSION: N Bohr=['0.0', '0.0', '0.217327667117'] -> Angstrom=[0.0, 0.0, 0.11500484873702968]
FAKE_FREQ CONVERSION: H Bohr=['0.0', '1.770713537777', '-0.507097889939'] -> Angstrom=[0.0, 0.9370212512290167, -0.26834464705271643]
FAKE_FREQ CONVERSION: H Bohr=['-1.53348290654', '-0.885356768888', '-0.507097889939'] -> Angstrom=[-0.811484207450263, -0.4685106256142438, -0.26834464705271643]
FAKE_FREQ CONVERSION: H Bohr=['1.53348290654', '-0.885356768888', '-0.507097889939'] -> Angstrom=[0.811484207450263, -0.4685106256142438, -0.26834464705271643]
Checking original directory for Gaussian input: /home/barone/lcrisci_vb/ACTUAL_PROJECTS/MRCC_new_Interface_project/TestSet/FNO_AND_NON-FNO/ammoniaca
Found Gaussian input file with External keyword: /home/barone/lcrisci_vb/ACTUAL_PROJECTS/MRCC_new_Interface_project/TestSet/FNO_AND_NON-FNO/ammoniaca/ammoniaca.gjf
GEOMETRY CONVERSION: Task 'central' - Converted from Bohr to Angstrom
  First atom coordinates: Bohr = [0.         0.         0.21732767], Angstrom = [0.         0.         0.11500485]
GEOMETRY CONVERSION: Task 'atom_1_ixyz_1_up' - Converted from Bohr to Angstrom
  First atom coordinates: Bohr = [0.00188973 0.         0.21732767], Angstrom = [0.001      0.         0.11500485]
GEOMETRY CONVERSION: Task 'atom_1_ixyz_2_up' - Converted from Bohr to Angstrom
  First atom coordinates: Bohr = [0.         0.00188973 0.21732767], Angstrom = [0.         0.001      0.11500485]
GEOMETRY CONVERSION: Task 'atom_1_ixyz_2_down' - Converted from Bohr to Angstrom
  First atom coordinates: Bohr = [ 0.         -0.00188973  0.21732767], Angstrom = [ 0.         -0.001       0.11500485]
GEOMETRY CONVERSION: Task 'atom_1_ixyz_3_up' - Converted from Bohr to Angstrom
  First atom coordinates: Bohr = [0.         0.         0.21921739], Angstrom = [0.         0.         0.11600485]
GEOMETRY CONVERSION: Task 'atom_1_ixyz_3_down' - Converted from Bohr to Angstrom
  First atom coordinates: Bohr = [0.         0.         0.21543794], Angstrom = [0.         0.         0.11400485]
GEOMETRY CONVERSION: Task 'atom_2_ixyz_1_up' - Converted from Bohr to Angstrom
  First atom coordinates: Bohr = [0.         0.         0.21732767], Angstrom = [0.         0.         0.11500485]
GEOMETRY CONVERSION: Task 'atom_2_ixyz_2_up' - Converted from Bohr to Angstrom
  First atom coordinates: Bohr = [0.         0.         0.21732767], Angstrom = [0.         0.         0.11500485]
GEOMETRY CONVERSION: Task 'atom_2_ixyz_2_down' - Converted from Bohr to Angstrom
  First atom coordinates: Bohr = [0.         0.         0.21732767], Angstrom = [0.         0.         0.11500485]
GEOMETRY CONVERSION: Task 'atom_2_ixyz_3_up' - Converted from Bohr to Angstrom
  First atom coordinates: Bohr = [0.         0.         0.21732767], Angstrom = [0.         0.         0.11500485]
GEOMETRY CONVERSION: Task 'atom_2_ixyz_3_down' - Converted from Bohr to Angstrom
  First atom coordinates: Bohr = [0.         0.         0.21732767], Angstrom = [0.         0.         0.11500485]
✓ Extracted Input orientation (4 atoms)
✓ Extracted Original coordinates (4 atoms)
DEBUG: Preserved fake frequency log as FAKE_FREQ/fake_freq_2.log
DEBUG: Expected atoms: 4
DEBUG: Task central: 4 atoms
DEBUG: Task atom_1_ixyz_2_up: 4 atoms
DEBUG: Task atom_1_ixyz_2_down: 4 atoms
DEBUG: Task atom_1_ixyz_3_up: 4 atoms
DEBUG: Task atom_1_ixyz_3_down: 4 atoms
DEBUG: Task atom_2_ixyz_2_up: 4 atoms
DEBUG: Task atom_2_ixyz_2_down: 4 atoms
DEBUG: Task atom_2_ixyz_3_up: 4 atoms
DEBUG: Task atom_2_ixyz_3_down: 4 atoms
DEBUG: All geometries have correct atom count (4)
Created iteration directory: /home/barone/lcrisci_vb/ACTUAL_PROJECTS/MRCC_new_Interface_project/TestSet/FNO_AND_NON-FNO/ammoniaca/Iterations/Iteration_2
INFO: This is iteration number 2
INFO: Running parallel gradient calculation in iteration 2
Running parallel energy calculations with 16 threads
TASK SUBMISSION: Submitting 9 tasks
  - Task: central
  - Task: atom_1_ixyz_2_up
  - Task: atom_1_ixyz_2_down
  - Task: atom_1_ixyz_3_up
  - Task: atom_1_ixyz_3_down
  - Task: atom_2_ixyz_2_up
  - Task: atom_2_ixyz_2_down
  - Task: atom_2_ixyz_3_up
  - Task: atom_2_ixyz_3_down
PARALLEL EXECUTION: Starting with 16 workers
PARALLEL EXECUTION: Total tasks to execute: 9
PARALLEL EXECUTION: Submitted tasks: ['atom_1_ixyz_2_down', 'atom_1_ixyz_2_up', 'atom_1_ixyz_3_down', 'atom_1_ixyz_3_up', 'atom_2_ixyz_2_down', 'atom_2_ixyz_2_up', 'atom_2_ixyz_3_down', 'atom_2_ixyz_3_up', 'central']
PARALLEL EXECUTION: Submitted 9 futures to executor
MRCC SETUP: No GENBAS file found in /home/barone/lcrisci_vb/ACTUAL_PROJECTS/MRCC_new_Interface_project/TestSet/FNO_AND_NON-FNO/ammoniaca for task centralMRCC SETUP: No GENBAS file found in /home/barone/lcrisci_vb/ACTUAL_PROJECTS/MRCC_new_Interface_project/TestSet/FNO_AND_NON-FNO/ammoniaca for task atom_1_ixyz_2_up
MRCC SETUP: No GENBAS file found in /home/barone/lcrisci_vb/ACTUAL_PROJECTS/MRCC_new_Interface_project/TestSet/FNO_AND_NON-FNO/ammoniaca for task atom_1_ixyz_2_down

MRCC SETUP: No GENBAS file found in /home/barone/lcrisci_vb/ACTUAL_PROJECTS/MRCC_new_Interface_project/TestSet/FNO_AND_NON-FNO/ammoniaca for task atom_1_ixyz_3_upMRCC SETUP: No GENBAS file found in /home/barone/lcrisci_vb/ACTUAL_PROJECTS/MRCC_new_Interface_project/TestSet/FNO_AND_NON-FNO/ammoniaca for task atom_2_ixyz_2_upMRCC SETUP: No GENBAS file found in /home/barone/lcrisci_vb/ACTUAL_PROJECTS/MRCC_new_Interface_project/TestSet/FNO_AND_NON-FNO/ammoniaca for task atom_2_ixyz_2_down
MRCC SETUP: No GENBAS file found in /home/barone/lcrisci_vb/ACTUAL_PROJECTS/MRCC_new_Interface_project/TestSet/FNO_AND_NON-FNO/ammoniaca for task atom_1_ixyz_3_down


MRCC SETUP: No GENBAS file found in /home/barone/lcrisci_vb/ACTUAL_PROJECTS/MRCC_new_Interface_project/TestSet/FNO_AND_NON-FNO/ammoniaca for task atom_2_ixyz_3_up
MRCC SETUP: No GENBAS file found in /home/barone/lcrisci_vb/ACTUAL_PROJECTS/MRCC_new_Interface_project/TestSet/FNO_AND_NON-FNO/ammoniaca for task atom_2_ixyz_3_down
UNIT CONVERSION: Task 'central' - Wrote .EIn file in Bohr
  First atom: Angstrom = [0.         0.         0.11500485], Bohr = [0.         0.         0.21732767]UNIT CONVERSION: Task 'atom_1_ixyz_2_up' - Wrote .EIn file in BohrUNIT CONVERSION: Task 'atom_1_ixyz_2_down' - Wrote .EIn file in Bohr

UNIT CONVERSION: Task 'atom_1_ixyz_3_down' - Wrote .EIn file in Bohr
UNIT CONVERSION: Task 'atom_1_ixyz_3_up' - Wrote .EIn file in BohrTHREAD-23234291083008: Starting execution for task 'central'UNIT CONVERSION: Task 'atom_2_ixyz_2_down' - Wrote .EIn file in Bohr  First atom: Angstrom = [0.         0.001      0.11500485], Bohr = [0.         0.00188973 0.21732767]
UNIT CONVERSION: Task 'atom_2_ixyz_2_up' - Wrote .EIn file in Bohr  First atom: Angstrom = [ 0.         -0.001       0.11500485], Bohr = [ 0.         -0.00188973  0.21732767]

UNIT CONVERSION: Task 'atom_2_ixyz_3_up' - Wrote .EIn file in Bohr
UNIT CONVERSION: Task 'atom_2_ixyz_3_down' - Wrote .EIn file in Bohr  First atom: Angstrom = [0.         0.         0.11500485], Bohr = [0.         0.         0.21732767]
  First atom: Angstrom = [0.         0.         0.11400485], Bohr = [0.         0.         0.21543794]

  First atom: Angstrom = [0.         0.         0.11600485], Bohr = [0.         0.         0.21921739]
THREAD-23234291083008: Task directory: /home/barone/lcrisci_vb/ACTUAL_PROJECTS/MRCC_new_Interface_project/TestSet/FNO_AND_NON-FNO/ammoniaca/Iterations/Iteration_2/task_central



THREAD-23234288981760: Starting execution for task 'atom_1_ixyz_2_up'

  First atom: Angstrom = [0.         0.         0.11500485], Bohr = [0.         0.         0.21732767]
THREAD-23234286880512: Starting execution for task 'atom_1_ixyz_2_down'THREAD-23234284779264: Starting execution for task 'atom_1_ixyz_3_up'
THREAD-23234291083008: Input file: /home/barone/lcrisci_vb/ACTUAL_PROJECTS/MRCC_new_Interface_project/TestSet/FNO_AND_NON-FNO/ammoniaca/Iterations/Iteration_2/task_central/Gau-central.EIn
  First atom: Angstrom = [0.         0.         0.11500485], Bohr = [0.         0.         0.21732767]
  First atom: Angstrom = [0.         0.         0.11500485], Bohr = [0.         0.         0.21732767]
THREAD-23234278475520: Starting execution for task 'atom_2_ixyz_2_down'
THREAD-23234288981760: Task directory: /home/barone/lcrisci_vb/ACTUAL_PROJECTS/MRCC_new_Interface_project/TestSet/FNO_AND_NON-FNO/ammoniaca/Iterations/Iteration_2/task_atom_1_ixyz_2_up
THREAD-23234282678016: Starting execution for task 'atom_1_ixyz_3_down'THREAD-23234280576768: Starting execution for task 'atom_2_ixyz_2_up'

THREAD-23234284779264: Task directory: /home/barone/lcrisci_vb/ACTUAL_PROJECTS/MRCC_new_Interface_project/TestSet/FNO_AND_NON-FNO/ammoniaca/Iterations/Iteration_2/task_atom_1_ixyz_3_up
THREAD-23234276374272: Starting execution for task 'atom_2_ixyz_3_up'THREAD-23234274273024: Starting execution for task 'atom_2_ixyz_3_down'
THREAD-23234278475520: Task directory: /home/barone/lcrisci_vb/ACTUAL_PROJECTS/MRCC_new_Interface_project/TestSet/FNO_AND_NON-FNO/ammoniaca/Iterations/Iteration_2/task_atom_2_ixyz_2_down
THREAD-23234288981760: Input file: /home/barone/lcrisci_vb/ACTUAL_PROJECTS/MRCC_new_Interface_project/TestSet/FNO_AND_NON-FNO/ammoniaca/Iterations/Iteration_2/task_atom_1_ixyz_2_up/Gau-atom_1_ixyz_2_up.EIn

THREAD-23234280576768: Task directory: /home/barone/lcrisci_vb/ACTUAL_PROJECTS/MRCC_new_Interface_project/TestSet/FNO_AND_NON-FNO/ammoniaca/Iterations/Iteration_2/task_atom_2_ixyz_2_up
THREAD-23234286880512: Task directory: /home/barone/lcrisci_vb/ACTUAL_PROJECTS/MRCC_new_Interface_project/TestSet/FNO_AND_NON-FNO/ammoniaca/Iterations/Iteration_2/task_atom_1_ixyz_2_down
THREAD-23234284779264: Input file: /home/barone/lcrisci_vb/ACTUAL_PROJECTS/MRCC_new_Interface_project/TestSet/FNO_AND_NON-FNO/ammoniaca/Iterations/Iteration_2/task_atom_1_ixyz_3_up/Gau-atom_1_ixyz_3_up.EInTHREAD-23234291083008: Original working directory: /home/barone/lcrisci_vb/ACTUAL_PROJECTS/MRCC_new_Interface_project/TestSet/FNO_AND_NON-FNO/ammoniaca
THREAD-23234274273024: Task directory: /home/barone/lcrisci_vb/ACTUAL_PROJECTS/MRCC_new_Interface_project/TestSet/FNO_AND_NON-FNO/ammoniaca/Iterations/Iteration_2/task_atom_2_ixyz_3_down
THREAD-23234278475520: Input file: /home/barone/lcrisci_vb/ACTUAL_PROJECTS/MRCC_new_Interface_project/TestSet/FNO_AND_NON-FNO/ammoniaca/Iterations/Iteration_2/task_atom_2_ixyz_2_down/Gau-atom_2_ixyz_2_down.EIn
THREAD-23234282678016: Task directory: /home/barone/lcrisci_vb/ACTUAL_PROJECTS/MRCC_new_Interface_project/TestSet/FNO_AND_NON-FNO/ammoniaca/Iterations/Iteration_2/task_atom_1_ixyz_3_down
THREAD-23234280576768: Input file: /home/barone/lcrisci_vb/ACTUAL_PROJECTS/MRCC_new_Interface_project/TestSet/FNO_AND_NON-FNO/ammoniaca/Iterations/Iteration_2/task_atom_2_ixyz_2_up/Gau-atom_2_ixyz_2_up.EIn
THREAD-23234286880512: Input file: /home/barone/lcrisci_vb/ACTUAL_PROJECTS/MRCC_new_Interface_project/TestSet/FNO_AND_NON-FNO/ammoniaca/Iterations/Iteration_2/task_atom_1_ixyz_2_down/Gau-atom_1_ixyz_2_down.EIn

THREAD-23234276374272: Task directory: /home/barone/lcrisci_vb/ACTUAL_PROJECTS/MRCC_new_Interface_project/TestSet/FNO_AND_NON-FNO/ammoniaca/Iterations/Iteration_2/task_atom_2_ixyz_3_up
THREAD-23234288981760: Original working directory: /home/barone/lcrisci_vb/ACTUAL_PROJECTS/MRCC_new_Interface_project/TestSet/FNO_AND_NON-FNO/ammoniaca
THREAD-23234274273024: Input file: /home/barone/lcrisci_vb/ACTUAL_PROJECTS/MRCC_new_Interface_project/TestSet/FNO_AND_NON-FNO/ammoniaca/Iterations/Iteration_2/task_atom_2_ixyz_3_down/Gau-atom_2_ixyz_3_down.EInTHREAD-23234282678016: Input file: /home/barone/lcrisci_vb/ACTUAL_PROJECTS/MRCC_new_Interface_project/TestSet/FNO_AND_NON-FNO/ammoniaca/Iterations/Iteration_2/task_atom_1_ixyz_3_down/Gau-atom_1_ixyz_3_down.EIn

THREAD-23234291083008: Test mode: FalseTHREAD-23234276374272: Input file: /home/barone/lcrisci_vb/ACTUAL_PROJECTS/MRCC_new_Interface_project/TestSet/FNO_AND_NON-FNO/ammoniaca/Iterations/Iteration_2/task_atom_2_ixyz_3_up/Gau-atom_2_ixyz_3_up.EInTHREAD-23234278475520: Original working directory: /home/barone/lcrisci_vb/ACTUAL_PROJECTS/MRCC_new_Interface_project/TestSet/FNO_AND_NON-FNO/ammoniaca
THREAD-23234288981760: Test mode: False
THREAD-23234280576768: Original working directory: /home/barone/lcrisci_vb/ACTUAL_PROJECTS/MRCC_new_Interface_project/TestSet/FNO_AND_NON-FNO/ammoniaca

THREAD-23234284779264: Original working directory: /home/barone/lcrisci_vb/ACTUAL_PROJECTS/MRCC_new_Interface_project/TestSet/FNO_AND_NON-FNO/ammoniaca

THREAD-23234278475520: Test mode: False

THREAD-23234280576768: Test mode: False
THREAD-23234291083008: Executing command: /shared/apps/python/3.9.16/bin/python3.9 /home/barone/lcrisci_vb/External/Executables/MRCC_ext 4 READ 2 1 PR_CCSDF12 test_en.dat R Gau-central.EIn energy_output.datTHREAD-23234282678016: Original working directory: /home/barone/lcrisci_vb/ACTUAL_PROJECTS/MRCC_new_Interface_project/TestSet/FNO_AND_NON-FNO/ammoniaca
THREAD-23234284779264: Test mode: False
THREAD-23234286880512: Original working directory: /home/barone/lcrisci_vb/ACTUAL_PROJECTS/MRCC_new_Interface_project/TestSet/FNO_AND_NON-FNO/ammoniacaTHREAD-23234278475520: Executing command: /shared/apps/python/3.9.16/bin/python3.9 /home/barone/lcrisci_vb/External/Executables/MRCC_ext 4 READ 2 1 PR_CCSDF12 test_en.dat R Gau-atom_2_ixyz_2_down.EIn energy_output.dat
THREAD-23234288981760: Executing command: /shared/apps/python/3.9.16/bin/python3.9 /home/barone/lcrisci_vb/External/Executables/MRCC_ext 4 READ 2 1 PR_CCSDF12 test_en.dat R Gau-atom_1_ixyz_2_up.EIn energy_output.datTHREAD-23234280576768: Executing command: /shared/apps/python/3.9.16/bin/python3.9 /home/barone/lcrisci_vb/External/Executables/MRCC_ext 4 READ 2 1 PR_CCSDF12 test_en.dat R Gau-atom_2_ixyz_2_up.EIn energy_output.dat

THREAD-23234274273024: Original working directory: /home/barone/lcrisci_vb/ACTUAL_PROJECTS/MRCC_new_Interface_project/TestSet/FNO_AND_NON-FNO/ammoniacaTHREAD-23234282678016: Test mode: False
THREAD-23234284779264: Executing command: /shared/apps/python/3.9.16/bin/python3.9 /home/barone/lcrisci_vb/External/Executables/MRCC_ext 4 READ 2 1 PR_CCSDF12 test_en.dat R Gau-atom_1_ixyz_3_up.EIn energy_output.dat

THREAD-23234276374272: Original working directory: /home/barone/lcrisci_vb/ACTUAL_PROJECTS/MRCC_new_Interface_project/TestSet/FNO_AND_NON-FNO/ammoniaca
THREAD-23234278475520: Working directory for subprocess: /home/barone/lcrisci_vb/ACTUAL_PROJECTS/MRCC_new_Interface_project/TestSet/FNO_AND_NON-FNO/ammoniaca/Iterations/Iteration_2/task_atom_2_ixyz_2_down

THREAD-23234280576768: Working directory for subprocess: /home/barone/lcrisci_vb/ACTUAL_PROJECTS/MRCC_new_Interface_project/TestSet/FNO_AND_NON-FNO/ammoniaca/Iterations/Iteration_2/task_atom_2_ixyz_2_upTHREAD-23234291083008: Working directory for subprocess: /home/barone/lcrisci_vb/ACTUAL_PROJECTS/MRCC_new_Interface_project/TestSet/FNO_AND_NON-FNO/ammoniaca/Iterations/Iteration_2/task_central
THREAD-23234282678016: Executing command: /shared/apps/python/3.9.16/bin/python3.9 /home/barone/lcrisci_vb/External/Executables/MRCC_ext 4 READ 2 1 PR_CCSDF12 test_en.dat R Gau-atom_1_ixyz_3_down.EIn energy_output.datTHREAD-23234284779264: Working directory for subprocess: /home/barone/lcrisci_vb/ACTUAL_PROJECTS/MRCC_new_Interface_project/TestSet/FNO_AND_NON-FNO/ammoniaca/Iterations/Iteration_2/task_atom_1_ixyz_3_upTHREAD-23234286880512: Test mode: FalseTHREAD-23234276374272: Test mode: FalseTHREAD-23234274273024: Test mode: False
THREAD-23234288981760: Working directory for subprocess: /home/barone/lcrisci_vb/ACTUAL_PROJECTS/MRCC_new_Interface_project/TestSet/FNO_AND_NON-FNO/ammoniaca/Iterations/Iteration_2/task_atom_1_ixyz_2_up





THREAD-23234274273024: Executing command: /shared/apps/python/3.9.16/bin/python3.9 /home/barone/lcrisci_vb/External/Executables/MRCC_ext 4 READ 2 1 PR_CCSDF12 test_en.dat R Gau-atom_2_ixyz_3_down.EIn energy_output.dat
THREAD-23234276374272: Executing command: /shared/apps/python/3.9.16/bin/python3.9 /home/barone/lcrisci_vb/External/Executables/MRCC_ext 4 READ 2 1 PR_CCSDF12 test_en.dat R Gau-atom_2_ixyz_3_up.EIn energy_output.dat
THREAD-23234286880512: Executing command: /shared/apps/python/3.9.16/bin/python3.9 /home/barone/lcrisci_vb/External/Executables/MRCC_ext 4 READ 2 1 PR_CCSDF12 test_en.dat R Gau-atom_1_ixyz_2_down.EIn energy_output.datTHREAD-23234282678016: Working directory for subprocess: /home/barone/lcrisci_vb/ACTUAL_PROJECTS/MRCC_new_Interface_project/TestSet/FNO_AND_NON-FNO/ammoniaca/Iterations/Iteration_2/task_atom_1_ixyz_3_down
THREAD-23234274273024: Working directory for subprocess: /home/barone/lcrisci_vb/ACTUAL_PROJECTS/MRCC_new_Interface_project/TestSet/FNO_AND_NON-FNO/ammoniaca/Iterations/Iteration_2/task_atom_2_ixyz_3_down

THREAD-23234286880512: Working directory for subprocess: /home/barone/lcrisci_vb/ACTUAL_PROJECTS/MRCC_new_Interface_project/TestSet/FNO_AND_NON-FNO/ammoniaca/Iterations/Iteration_2/task_atom_1_ixyz_2_down
THREAD-23234276374272: Working directory for subprocess: /home/barone/lcrisci_vb/ACTUAL_PROJECTS/MRCC_new_Interface_project/TestSet/FNO_AND_NON-FNO/ammoniaca/Iterations/Iteration_2/task_atom_2_ixyz_3_up

THREAD-23234288981760: Subprocess completed successfully
THREAD-23234288981760: Subprocess stdout (last 200 chars): ****************************************************************
SCRIPT EXECUTION FINISHED
*****************************************************************************
MRCC External Script Finished.

THREAD-23234288981760: Output file path: /home/barone/lcrisci_vb/ACTUAL_PROJECTS/MRCC_new_Interface_project/TestSet/FNO_AND_NON-FNO/ammoniaca/Iterations/Iteration_2/task_atom_1_ixyz_2_up/energy_output.dat
THREAD-23234288981760: Already in original directory /home/barone/lcrisci_vb/ACTUAL_PROJECTS/MRCC_new_Interface_project/TestSet/FNO_AND_NON-FNO/ammoniaca
THREAD-23234286880512: Subprocess completed successfully
THREAD-23234286880512: Subprocess stdout (last 200 chars): ****************************************************************
SCRIPT EXECUTION FINISHED
*****************************************************************************
MRCC External Script Finished.

THREAD-23234286880512: Output file path: /home/barone/lcrisci_vb/ACTUAL_PROJECTS/MRCC_new_Interface_project/TestSet/FNO_AND_NON-FNO/ammoniaca/Iterations/Iteration_2/task_atom_1_ixyz_2_down/energy_output.dat
THREAD-23234286880512: Already in original directory /home/barone/lcrisci_vb/ACTUAL_PROJECTS/MRCC_new_Interface_project/TestSet/FNO_AND_NON-FNO/ammoniaca
PARALLEL EXECUTION: Task 'atom_1_ixyz_2_up' completed successfully with energy -56.493329990488
PARALLEL EXECUTION: Task 'atom_1_ixyz_2_down' completed successfully with energy -56.49332999345
THREAD-23234274273024: Subprocess completed successfully
THREAD-23234274273024: Subprocess stdout (last 200 chars): ****************************************************************
SCRIPT EXECUTION FINISHED
*****************************************************************************
MRCC External Script Finished.

THREAD-23234274273024: Output file path: /home/barone/lcrisci_vb/ACTUAL_PROJECTS/MRCC_new_Interface_project/TestSet/FNO_AND_NON-FNO/ammoniaca/Iterations/Iteration_2/task_atom_2_ixyz_3_down/energy_output.dat
THREAD-23234274273024: Already in original directory /home/barone/lcrisci_vb/ACTUAL_PROJECTS/MRCC_new_Interface_project/TestSet/FNO_AND_NON-FNO/ammoniaca
PARALLEL EXECUTION: Task 'atom_2_ixyz_3_down' completed successfully with energy -56.493330959824
THREAD-23234291083008: Subprocess completed successfully
THREAD-23234291083008: Subprocess stdout (last 200 chars): ****************************************************************
SCRIPT EXECUTION FINISHED
*****************************************************************************
MRCC External Script Finished.

THREAD-23234291083008: Output file path: /home/barone/lcrisci_vb/ACTUAL_PROJECTS/MRCC_new_Interface_project/TestSet/FNO_AND_NON-FNO/ammoniaca/Iterations/Iteration_2/task_central/energy_output.dat
THREAD-23234291083008: Already in original directory /home/barone/lcrisci_vb/ACTUAL_PROJECTS/MRCC_new_Interface_project/TestSet/FNO_AND_NON-FNO/ammoniaca
THREAD-23234276374272: Subprocess completed successfully
THREAD-23234276374272: Subprocess stdout (last 200 chars): ****************************************************************
SCRIPT EXECUTION FINISHED
*****************************************************************************
MRCC External Script Finished.

THREAD-23234276374272: Output file path: /home/barone/lcrisci_vb/ACTUAL_PROJECTS/MRCC_new_Interface_project/TestSet/FNO_AND_NON-FNO/ammoniaca/Iterations/Iteration_2/task_atom_2_ixyz_3_up/energy_output.dat
THREAD-23234276374272: Already in original directory /home/barone/lcrisci_vb/ACTUAL_PROJECTS/MRCC_new_Interface_project/TestSet/FNO_AND_NON-FNO/ammoniaca
PARALLEL EXECUTION: Task 'central' completed successfully with energy -56.493331141002
PARALLEL EXECUTION: Task 'atom_2_ixyz_3_up' completed successfully with energy -56.493331063838
THREAD-23234278475520: Subprocess completed successfully
THREAD-23234278475520: Subprocess stdout (last 200 chars): ****************************************************************
SCRIPT EXECUTION FINISHED
*****************************************************************************
MRCC External Script Finished.

THREAD-23234278475520: Output file path: /home/barone/lcrisci_vb/ACTUAL_PROJECTS/MRCC_new_Interface_project/TestSet/FNO_AND_NON-FNO/ammoniaca/Iterations/Iteration_2/task_atom_2_ixyz_2_down/energy_output.dat
THREAD-23234278475520: Already in original directory /home/barone/lcrisci_vb/ACTUAL_PROJECTS/MRCC_new_Interface_project/TestSet/FNO_AND_NON-FNO/ammoniaca
THREAD-23234280576768: Subprocess completed successfully
PARALLEL EXECUTION: Task 'atom_2_ixyz_2_down' completed successfully with energy -56.493330361575THREAD-23234282678016: Subprocess completed successfully
THREAD-23234280576768: Subprocess stdout (last 200 chars): ****************************************************************
SCRIPT EXECUTION FINISHED
*****************************************************************************
MRCC External Script Finished.

THREAD-23234282678016: Subprocess stdout (last 200 chars): ****************************************************************
SCRIPT EXECUTION FINISHED
*****************************************************************************
MRCC External Script Finished.


THREAD-23234282678016: Output file path: /home/barone/lcrisci_vb/ACTUAL_PROJECTS/MRCC_new_Interface_project/TestSet/FNO_AND_NON-FNO/ammoniaca/Iterations/Iteration_2/task_atom_1_ixyz_3_down/energy_output.datTHREAD-23234284779264: Subprocess completed successfullyTHREAD-23234280576768: Output file path: /home/barone/lcrisci_vb/ACTUAL_PROJECTS/MRCC_new_Interface_project/TestSet/FNO_AND_NON-FNO/ammoniaca/Iterations/Iteration_2/task_atom_2_ixyz_2_up/energy_output.dat


THREAD-23234282678016: Already in original directory /home/barone/lcrisci_vb/ACTUAL_PROJECTS/MRCC_new_Interface_project/TestSet/FNO_AND_NON-FNO/ammoniacaTHREAD-23234284779264: Subprocess stdout (last 200 chars): ****************************************************************
SCRIPT EXECUTION FINISHED
*****************************************************************************
MRCC External Script Finished.

THREAD-23234280576768: Already in original directory /home/barone/lcrisci_vb/ACTUAL_PROJECTS/MRCC_new_Interface_project/TestSet/FNO_AND_NON-FNO/ammoniaca

THREAD-23234284779264: Output file path: /home/barone/lcrisci_vb/ACTUAL_PROJECTS/MRCC_new_Interface_project/TestSet/FNO_AND_NON-FNO/ammoniaca/Iterations/Iteration_2/task_atom_1_ixyz_3_up/energy_output.dat
THREAD-23234284779264: Already in original directory /home/barone/lcrisci_vb/ACTUAL_PROJECTS/MRCC_new_Interface_project/TestSet/FNO_AND_NON-FNO/ammoniaca
PARALLEL EXECUTION: Task 'atom_2_ixyz_2_up' completed successfully with energy -56.493330476916
PARALLEL EXECUTION: Task 'atom_1_ixyz_3_down' completed successfully with energy -56.49333090355
PARALLEL EXECUTION: Task 'atom_1_ixyz_3_up' completed successfully with energy -56.493330591299
PARALLEL EXECUTION: Completed tasks: ['atom_1_ixyz_2_down', 'atom_1_ixyz_2_up', 'atom_1_ixyz_3_down', 'atom_1_ixyz_3_up', 'atom_2_ixyz_2_down', 'atom_2_ixyz_2_up', 'atom_2_ixyz_3_down', 'atom_2_ixyz_3_up', 'central']
PARALLEL EXECUTION: Failed tasks: []
PARALLEL EXECUTION: All 9 tasks completed successfully
TASK COMPLETION: Received 9 results
  - Task atom_1_ixyz_2_up: Energy = -56.493329990488
  - Task atom_1_ixyz_2_down: Energy = -56.49332999345
  - Task atom_2_ixyz_3_down: Energy = -56.493330959824
  - Task central: Energy = -56.493331141002
  - Task atom_2_ixyz_3_up: Energy = -56.493331063838
  - Task atom_2_ixyz_2_down: Energy = -56.493330361575
  - Task atom_2_ixyz_2_up: Energy = -56.493330476916
  - Task atom_1_ixyz_3_down: Energy = -56.49333090355
  - Task atom_1_ixyz_3_up: Energy = -56.493330591299
WARNING: Using deprecated hardcoded rotation matrices
Please provide input_geometry_bohr for auto-detection
Point group: C03V
Using identity rotation (no coordinate transformation)
ADVANCED SYMMETRY: Using C03V point group with 6 operations
ADVANCED SYMMETRY: Applying non-abelian group theory algorithm
AUTO-DETECT: Found R_coords with RMSD = 3.27e-13 Bohr
Gradient transformation matrix R^T (original → central):
  [1. 0. 0.]
  [0. 1. 0.]
  [0. 0. 1.]

=== MOLECULAR SYMMETRY CONSTRAINTS ===
SYMMETRY CONSTRAINT: Atom 1, Axis 1 = 0.000000000 (missing displacement)
SYMMETRY CONSTRAINT: Atom 2, Axis 1 = 0.000000000 (missing displacement)

=== DIRECT CALCULATIONS ===
DIRECT CALCULATION: Atom 1, Axis 2 = 0.00000078
DIRECT CALCULATION: Atom 1, Axis 3 = 0.00008262
DIRECT CALCULATION: Atom 2, Axis 2 = -0.00003052
DIRECT CALCULATION: Atom 2, Axis 3 = -0.00002752
SYMMETRY PROPAGATION: Atom 3 from Atom 2 via operation 3
  Source gradient: [ 0.0000000e+00 -3.0517915e-05 -2.7520919e-05]
  Transformation matrix:
    [-0.5   -0.866  0.   ]
    [ 0.866 -0.5    0.   ]
    [0. 0. 1.]
  Result gradient: [ 2.64285144e-05  1.52589575e-05 -2.75209190e-05]
SYMMETRY PROPAGATION: Atom 4 from Atom 2 via operation 2
  Source gradient: [ 0.0000000e+00 -3.0517915e-05 -2.7520919e-05]
  Transformation matrix:
    [-0.5    0.866  0.   ]
    [-0.866 -0.5    0.   ]
    [0. 0. 1.]
  Result gradient: [-2.64285144e-05  1.52589575e-05 -2.75209190e-05]

=== VALIDATION ===
CONSTRAINT VERIFIED: Atom 1, Axis 1 = 0.000000000
CONSTRAINT VERIFIED: Atom 2, Axis 1 = 0.000000000
SYMMETRY EFFICIENCY: 58.3% computational reduction
SYMMETRY EFFICIENCY: 5/12 components calculated
DEBUG: Writing output to /local/scratch/lcrisci_vb/amm_Gaussian_73951.pbs.village.sns.it/Gau-999282.EOu
DEBUG: Current directory: /home/barone/lcrisci_vb/ACTUAL_PROJECTS/MRCC_new_Interface_project/TestSet/FNO_AND_NON-FNO/ammoniaca
DEBUG: Central energy: -56.493331141002
DEBUG: Gradient shape: (4, 3)
INFO: Writing results from iteration 2 to output file
DEBUG: Output written successfully
DEBUG: File exists: True
SUCCESS: Parallel gradient calculation completed using iteration 2
Task directories preserved in: /home/barone/lcrisci_vb/ACTUAL_PROJECTS/MRCC_new_Interface_project/TestSet/FNO_AND_NON-FNO/ammoniaca/Iterations/Iteration_2
 Recovered energy= -56.4933311410     dipole=      0.000000000000      0.000000000000      0.000000000000
 Energy=    -56.4933311     NIter=   0.
 Dipole moment=       0.000000       0.000000       0.000000
 Leave Link  402 at Sat Oct 11 14:09:44 2025, MaxMem=   104857600 cpu:               0.0 elap:             272.5
 Dipole        = 0.00000000D+00 0.00000000D+00 0.00000000D+00
 ***** Axes restored to original set *****
 -------------------------------------------------------------------
 Center     Atomic                   Forces (Hartrees/Bohr)
 Number     Number              X              Y              Z
 -------------------------------------------------------------------
      1        7          -0.000000000   -0.000000784   -0.000082618
      2        1           0.000000000    0.000030518    0.000027521
      3        1          -0.000026429   -0.000015259    0.000027521
      4        1           0.000026429   -0.000015259    0.000027521
 -------------------------------------------------------------------
 Cartesian Forces:  Max     0.000082618 RMS     0.000031481
 Leave Link  716 at Sat Oct 11 14:09:44 2025, MaxMem=   104857600 cpu:               0.0 elap:               0.0

 GradGradGradGradGradGradGradGradGradGradGradGradGradGradGradGradGradGrad
 Berny optimization.
 Using GEDIIS/GDIIS optimizer.
 FormGI is forming the generalized inverse of G from B-inverse, IUseBI=4.
 NTrRot=    -1 NTRed=     8 NAtoms=     4 NSkip=     2 NRank=     6 IsLin=F EigSml=7.5012D-01
 Internal  Forces:  Max     0.000034106 RMS     0.000024032
 Search for a local minimum.
 Step number   2 out of a maximum of   20
 All quantities printed in internal units (Hartrees-Bohrs-Radians)
 RMS Force = .24032D-04 SwitMx=.10000D-02 MixMth= 2
 Mixed Optimization -- En-DIIS/RFO-DIIS
 Swapping is turned off.
 Update second derivatives using D2CorX and points    1    2
 DE= -2.81D-05 DEPred=-2.90D-05 R= 9.70D-01
 TightC=F SS=  1.41D+00  RLast= 4.23D-02 DXNew= 5.0454D-01 1.2698D-01
 Trust test= 9.70D-01 RLast= 4.23D-02 DXMaxT set to 3.00D-01
 The second derivative matrix:
                          R1        R2        R3        A1        A2
           R1           0.44943
           R2          -0.00135   0.44943
           R3          -0.00131  -0.00131   0.44951
           A1           0.01820   0.01820  -0.00567   0.12649
           A2           0.00837  -0.00696   0.00888  -0.03661   0.05072
           A3          -0.00696   0.00837   0.00888  -0.03661  -0.02130
           D1          -0.00488  -0.01511  -0.01179  -0.00150   0.01773
           D2           0.01511   0.00488   0.01179   0.00150   0.03035
                          A3        D1        D2
           A3           0.05072
           D1          -0.03035   0.02712
           D2          -0.01773   0.00498   0.02712
 ITU=  1  0
     Eigenvalues ---    0.02688   0.10312   0.14694   0.44931   0.45176
     Eigenvalues ---    0.45249
 En-DIIS/RFO-DIIS/Sim-DIIS IScMMF=       -3 using points:     2    1
 RFO step:  Lambda=-1.12717035D-07.
 NNeg= 0 NGDIIS= 2 SimSw=  2.50D-03 Rises=F DC= -2.81D-05 SmlDif=  1.00D-05
 NRisDI= 0 DoIntr=F SqrtH=F CThrHd= 10.0 CDAdj=  3.0
 RMS Error=  0.7067235376D-03 NUsed= 2 OKEnD=T EnDIS=F
 InvSVX:  RCond= 2.02D-03 Info=           0 Equed=N FErr=  9.33D-16 BErr=  3.66D-17
 DidBck=FF Rises=F RFO-DIIS coefs:    0.95294    0.04706
 GrdOpt: GIC=T ITstSp=  0 NP=   2 DidLin=F DidDIS=T IDoGRo=0 IDoRot=0
         ISwap=0 XLin= 0.000 DXMaxT= 0.300
 Iteration  1 RMS(Cart)=  0.00030055 RMS(Int)=  0.00000592
 Iteration  2 RMS(Cart)=  0.00000014 RMS(Int)=  0.00000592
 ClnCor:  largest displacement from symmetrization is 1.77D-06 for atom     4.
 Variable       Old X    -DE/DX   Delta X   Delta X   Delta X     New X
                                 (Linear)    (Quad)   (Total)
    R1        1.91317   0.00002   0.00005  -0.00009  -0.00004   1.91313
    R2        1.91317   0.00002   0.00005  -0.00009  -0.00004   1.91313
    R3        1.91317   0.00002   0.00005  -0.00009  -0.00004   1.91313
    A1        1.85973   0.00003   0.00058   0.00000   0.00059   1.86033
    A2        1.85973   0.00001   0.00058   0.00000   0.00059   1.86033
    A3        1.85973   0.00001   0.00058   0.00000   0.00059   1.86033
    D1       -1.98065  -0.00003  -0.00121  -0.00001  -0.00121  -1.98186
    D2        1.98065   0.00003   0.00121   0.00000   0.00121   1.98186
         Item               Value     Threshold  Converged?
 Maximum Force            0.000034     0.000450     YES
 RMS     Force            0.000024     0.000300     YES
 Maximum Displacement     0.000729     0.001800     YES
 RMS     Displacement     0.000368     0.001200     YES
 Predicted change in Energy=-5.635691D-08
 Optimization completed.
    -- Stationary point found.
                           ----------------------------
                           !   Optimized Parameters   !
                           ! (Angstroms and Degrees)  !
 --------------------------                            --------------------------
 ! Name  Definition              Value          Derivative Info.                !
 --------------------------------------------------------------------------------
 ! R1    R(1,2)                  1.0124         -DE/DX =    0.0                 !
 ! R2    R(1,3)                  1.0124         -DE/DX =    0.0                 !
 ! R3    R(1,4)                  1.0124         -DE/DX =    0.0                 !
 ! A1    A(2,1,3)              106.5549         -DE/DX =    0.0                 !
 ! A2    A(2,1,4)              106.5549         -DE/DX =    0.0                 !
 ! A3    A(3,1,4)              106.5549         -DE/DX =    0.0                 !
 ! D1    D(3,1,2,4)           -113.4827         -DE/DX =    0.0                 !
 ! D2    D(2,1,3,4)            113.4827         -DE/DX =    0.0                 !
 --------------------------------------------------------------------------------
 Largest change from initial coordinates is atom    1       0.006 Angstoms.
 GradGradGradGradGradGradGradGradGradGradGradGradGradGradGradGradGradGrad

 Leave Link  103 at Sat Oct 11 14:09:44 2025, MaxMem=   104857600 cpu:               0.0 elap:               0.1
                          Input orientation:                          
 ---------------------------------------------------------------------
 Center     Atomic      Atomic             Coordinates (Angstroms)
 Number     Number       Type             X           Y           Z
 ---------------------------------------------------------------------
      1          7           0       -0.000000   -0.000000    0.137484
      2          1           0        0.000000    0.937021   -0.245865
      3          1           0       -0.811484   -0.468510   -0.245865
      4          1           0        0.811484   -0.468511   -0.245865
 ---------------------------------------------------------------------
                    Distance matrix (angstroms):
                    1          2          3          4
     1  N    0.000000
     2  H    1.012406   0.000000
     3  H    1.012406   1.622968   0.000000
     4  H    1.012406   1.622968   1.622968   0.000000
 Stoichiometry    H3N
 Framework group  C3V[C3(N),3SGV(H)]
 Deg. of freedom     2
 Full point group                 C3V     NOp   6
 RotChk:  IX=0 Diff= 9.97D-16
 Largest Abelian subgroup         CS      NOp   2
 Largest concise Abelian subgroup CS      NOp   2
                         Standard orientation:                         
 ---------------------------------------------------------------------
 Center     Atomic      Atomic             Coordinates (Angstroms)
 Number     Number       Type             X           Y           Z
 ---------------------------------------------------------------------
      1          7           0        0.000000    0.000000    0.115005
      2          1           0        0.000000    0.937021   -0.268345
      3          1           0       -0.811484   -0.468511   -0.268345
      4          1           0        0.811484   -0.468511   -0.268345
 ---------------------------------------------------------------------
 Rotational constants (GHZ):         298.5568816         298.5568816         190.3758785
 Leave Link  202 at Sat Oct 11 14:09:44 2025, MaxMem=   104857600 cpu:               0.0 elap:               0.0
 Leave Link  601 at Sat Oct 11 14:09:44 2025, MaxMem=   104857600 cpu:               0.0 elap:               0.0
 Unable to Open any file for archive entry.
 1\1\GINC-THIOTIMOLINE01\FOpt\External='CentralExt mrcc 4 READ 2 1 $PMR
 /PR_CCSDF12 $EMR/test_en.dat parall 16'\ZDO\H3N1\LCRISCI_VB\11-Oct-202
 5\0\\#p output=pickett External="CentralExt mrcc 4 READ 2 1 $PMR/PR_CC
 SDF12 $EMR/test_en.dat parall 16" opt(nomicro,readFC) geom=allcheck\\T
 itle Card Required\\0,1\N,0.,0.,0.1374842038\H,0.0000002042,0.93702125
 13,-0.245865292\H,-0.8114843096,-0.4685104488,-0.245865292\H,0.8114841
 1\RMSD=0.000e+00\RMSF=3.148e-05\Dipole=0.,0.,0.\PG=C03V [C3(N1),3SGV(H
 1)]\\@
 The archive entry for this job was punched.
 DoSRE=F DoSRN=F DoDH=F DoFC=F DoNQ=F DoQCD=F DoSCD=F
 Inertia tensor (amu-bohr**2): 
                 1             2             3 
      1   0.604488D+01  0.000000D+00  0.000000D+00
      2   0.000000D+00  0.604488D+01  0.000000D+00
      3   0.000000D+00  0.000000D+00  0.947988D+01
 Principal inertia moments (amu-bohr**2):
 Iaa = 0.604488D+01 Ibb= 0.604488D+01 Icc= 0.947988D+01
 Rotation matrix to Principal Axis frame: 
                 1             2             3 
      1   0.000000D+00 -0.100000D+01  0.000000D+00
      2  -0.100000D+01  0.000000D+00  0.000000D+00
      3   0.000000D+00  0.000000D+00 -0.100000D+01
                Principal axis orientation:                
 ---------------------------------------------------------------------
 Center     Atomic                     Coordinates (Angstroms)
 Number     Number                        X           Y           Z
 ---------------------------------------------------------------------
      1          7                   -0.000000   -0.000000   -0.068073
      2          1                   -0.937021   -0.000000    0.315277
      3          1                    0.468510    0.811484    0.315277
      4          1                    0.468511   -0.811484    0.315277
 ---------------------------------------------------------------------
 Rotational constants (MHZ):
 298556.8816447 298556.8816447 190375.8785466
 Dipole moment (Debye):
      0.0000000     -0.0000000     -0.0000000  Tot=      0.0000000

 Atoms with significant hyperfine tensors: 

--------------------------------------------------------------------------------
 Title Card Required                                     
   99  1000  50  0.1760E-11  0.1000E+07  0.1000E+01 1.0000000000
a   1  0  0  0  1  1   1  0  1  0
     10000   0.29855688E+06    0.0000E+00   /  A  /
     20000   0.29855688E+06    0.0000E+00   /  B  /
     30000   0.19037588E+06    0.0000E+00   /  C  /
--------------------------------------------------------------------------------


 Pickett input using symmetry:
 Dipole moment (Debye):
      0.0000000     -0.0000000     -0.0000000  Tot=      0.0000000

 Atoms with significant hyperfine tensors: 

--------------------------------------------------------------------------------
 Title Card Required                                     
   99  1000  50  0.1760E-11  0.1000E+07  0.1000E+01 1.0000000000
s   1  0  0  0  1  1   1  0  1  0
     10000   0.29855688E+06    0.0000E+00   /  A  /
     20000   0.29855688E+06    0.0000E+00   /  B  /
     30000   0.19037588E+06    0.0000E+00   /  C  /
--------------------------------------------------------------------------------



 YOU KNOW YOU'RE A TEACHER WHEN YOU SAY 2, WRITE 3, AND MEAN 4.
 -- RONALD ANSTROM, HIGH SCHOOL TEACHER, UNDERWOOD, N.D. 1974
 Job cpu time:       0 days  0 hours  0 minutes  0.6 seconds.
 Elapsed time:       0 days  0 hours  7 minutes 48.3 seconds.
 File lengths (MBytes):  RWF=     24 Int=      0 D2E=      0 Chk=     19 Scr=      1
 Normal termination of Gaussian DV at Sat Oct 11 14:09:45 2025.
 Initial command:
  
 Copyright (c) 1988-2024, Gaussian, Inc.  All Rights Reserved.
  
 This is the private, development version of
 the Gaussian(R) DV system of programs. It is based on
 the Gaussian(R) 16 system (copyright 2016, Gaussian, Inc.),
 the Gaussian(R) 09 system (copyright 2009, Gaussian, Inc.),
 the Gaussian(R) 03 system (copyright 2003, Gaussian, Inc.),
 the Gaussian(R) 98 system (copyright 1998, Gaussian, Inc.),
 the Gaussian(R) 94 system (copyright 1995, Gaussian, Inc.),
 the Gaussian 92(TM) system (copyright 1992, Gaussian, Inc.),
 the Gaussian 90(TM) system (copyright 1990, Gaussian, Inc.),
 the Gaussian 88(TM) system (copyright 1988, Gaussian, Inc.),
 the Gaussian 86(TM) system (copyright 1986, Carnegie Mellon
 University), and the Gaussian 82(TM) system (copyright 1983,
 Carnegie Mellon University). Gaussian is a federally registered
 trademark of Gaussian, Inc.
  
 This software contains proprietary and confidential information,
 including trade secrets, belonging to Gaussian, Inc.
  
 This software is provided under written license and may be
 used, copied, transmitted, or stored only in accord with that
 written license.
  
 The following legend is applicable only to US Government
 contracts under FAR:
  
                    RESTRICTED RIGHTS LEGEND
  
 Use, reproduction and disclosure by the US Government is
 subject to restrictions as set forth in subparagraphs (a)
 and (c) of the Commercial Computer Software - Restricted
 Rights clause in FAR 52.227-19.
  
 Gaussian, Inc.
 340 Quinnipiac St., Bldg. 40, Wallingford CT 06492
  
  
 ---------------------------------------------------------------
 Warning -- This program may not be used in any manner that
 competes with the business of Gaussian, Inc. or will provide
 assistance to any competitor of Gaussian, Inc.  The licensee
 of this program is prohibited from giving any competitor of
 Gaussian, Inc. access to this program.  By using this program,
 the user acknowledges that Gaussian, Inc. is engaged in the
 business of creating and licensing software in the field of
 computational chemistry and represents and warrants to the
 licensee that it is not a competitor of Gaussian, Inc. and that
 it will not use this program in any manner prohibited above.
 ---------------------------------------------------------------
  

 Cite this work as:
 Gaussian Development Version, Revision J.28,
 M. J. Frisch, G. W. Trucks, G. Scalmani, J. R. Cheeseman, X. Li, 
 J. Bloino, B. G. Janesko, A. V. Marenich, J. Zheng, F. Lipparini, 
 A. Jenkins, A. Liu, H. Liu, H. B. Schlegel, G. E. Scuseria, 
 M. A. Robb, V. Barone, G. A. Petersson, H. Nakatsuji, B. Mennucci, 
 C. Adamo, N. Rega, M. Caricato, H. P. Hratchian, J. V. Ortiz, 
 F. Pawlowski, A. F. Izmaylov, H. Hu, C. Liao, J. L. Sonnenberg, 
 D. Williams-Young, F. Ding, R. Gomperts, F. Egidi, J. Goings, 
 B. Peng, A. Petrone, T. Henderson, D. Ranasinghe, V. G. Zakrzewski, 
 J. Gao, G. Zheng, W. Liang, M. Hada, M. Ehara, K. Toyota, R. Fukuda, 
 J. Hasegawa, M. Ishida, T. Nakajima, Y. Honda, O. Kitao, H. Nakai, 
 T. Vreven, K. Throssell, J. A. Montgomery, Jr., J. E. Peralta, 
 F. Ogliaro, M. J. Bearpark, J. J. Heyd, E. N. Brothers, K. N. Kudin, 
 V. N. Staroverov, T. A. Keith, R. Kobayashi, J. Normand, 
 K. Raghavachari, A. P. Rendell, J. C. Burant, S. S. Iyengar, 
 M. Cossi, J. M. Millam, M. Klene, R. Cammi, R. L. Martin, O. Farkas, 
 J. B. Foresman, and D. J. Fox, Gaussian, Inc., Wallingford CT, 2023.
 
 ******************************************
                11-Oct-2025 
 ******************************************
 %oldchk=b3.chk
 %chk=mrcc_struc_FNO.chk
 %nprocs=1
 Will use up to    1 processors via shared memory.
 Copying data from "b3.chk" to current chk file "mrcc_struc_FNO.chk"
 IOpt=  2 FromEx=T IUOpen= 4 IOptOp= 5 NList=   0 IFRang= 0 IUIn= 4 IUOut= 2.
 ----------------------------------------------------------------------
 #p output=pickett External="CentralExt mrcc 4 READ 2 1 $PMR/PR_FNO_CCS
 DTF12 $EMR/test_en.dat parall 16" opt(nomicro,readFC) geom=allcheck
 ----------------------------------------------------------------------
 1/10=3,18=20,19=15,26=1,29=7,38=1/1,3;
 2/9=110,12=2/2;
 3/5=30,11=9,14=-4,25=1,30=1,41=9990000,43=2,71=1/1;
 4/20=17,22=1,24=3,113=1,114=1,125=6000/2;
 6/7=2,8=2,9=2,10=2/1;
 7/44=-1/16;
 1/18=20,19=15,26=1/3(2);
 2/9=110/2;
 99/10=1024/99;
 2/9=110/2;
 3/5=30,11=9,14=-2,25=1,30=1,41=9990000,43=2,71=1/1;
 4/16=2,20=17,22=1,24=3,113=1,114=1,125=6000/2;
 7/44=-1/16;
 1/18=20,19=15,26=1/3(-4);
 2/9=110/2;
 6/7=2,8=2,9=2,10=2/1;
 99/9=10,10=1024/99;
 Leave Link    1 at Sat Oct 11 14:09:45 2025, MaxMem=   104857600 cpu:               0.0 elap:               0.2
 Structure from the checkpoint file:  "mrcc_struc_FNO.chk"
 -------------------
 Title Card Required
 -------------------
 Charge =     0 Multiplicity =     1
 Redundant internal coordinates found in file.  (GICs).
 N,0,0.,0.,0.1296341052
 H,0,0.0000002053,0.9418819892,-0.2432502729
 H,0,-0.8156938327,-0.4709408168,-0.2432502729
 H,0,0.8156936274,-0.4709411724,-0.2432502729
 
 Recover connectivity data from disk.
 Reading GIC definitions from chk.
 Reading GIC derivative info from chk.
 ITRead=  0  0  0  0
 MicOpt= -1 -1 -1 -1
 NAtoms=      4 NQM=        4 NQMF=       0 NMMI=      0 NMMIF=      0
                NMic=       0 NMicF=      0.
                    Isotopes and Nuclear Properties:
 (Nuclear quadrupole moments (NQMom) in fm**2, nuclear magnetic moments (NMagM)
  in nuclear magnetons)

  Atom         1           2           3           4
 IAtWgt=          14           1           1           1
 AtmWgt=  14.0030740   1.0078250   1.0078250   1.0078250
 NucSpn=           2           1           1           1
 AtZEff=    4.550000    1.000000    1.000000    1.000000
 NQMom=    2.0440000   0.0000000   0.0000000   0.0000000
 NMagM=    0.4037610   2.7928460   2.7928460   2.7928460
 AtZNuc=   7.0000000   1.0000000   1.0000000   1.0000000
 Leave Link  101 at Sat Oct 11 14:09:45 2025, MaxMem=   104857600 cpu:               0.1 elap:               0.2

 GradGradGradGradGradGradGradGradGradGradGradGradGradGradGradGradGradGrad
 Berny optimization.
 Initialization pass.
 Force constant matrix read from checkpoint file:
 "mrcc_struc_FNO.chk"
                           ----------------------------
                           !    Initial Parameters    !
                           ! (Angstroms and Degrees)  !
 --------------------------                            --------------------------
 ! Name  Definition              Value          Derivative Info.                !
 --------------------------------------------------------------------------------
 ! R1    R(1,2)                  1.013          D2E/DX2 =    0.4497             !
 ! R2    R(1,3)                  1.013          D2E/DX2 =    0.4497             !
 ! R3    R(1,4)                  1.013          D2E/DX2 =    0.4497             !
 ! A1    A(2,1,3)              107.263          D2E/DX2 =    0.1262             !
 ! A2    A(2,1,4)              107.263          D2E/DX2 =    0.0506             !
 ! A3    A(3,1,4)              107.263          D2E/DX2 =    0.0506             !
 ! D1    D(3,1,2,4)           -114.96           D2E/DX2 =    0.0266             !
 ! D2    D(2,1,3,4)            114.96           D2E/DX2 =    0.0266             !
 --------------------------------------------------------------------------------
 Trust Radius=3.00D-01 FncErr=1.00D-07 GrdErr=1.00D-07 EigMax=2.50D+02 EigMin=1.00D-04
 Number of steps in this run=     20 maximum allowed number of steps=    100.
 GradGradGradGradGradGradGradGradGradGradGradGradGradGradGradGradGradGrad

 Leave Link  103 at Sat Oct 11 14:09:45 2025, MaxMem=   104857600 cpu:               0.0 elap:               0.0
                          Input orientation:                          
 ---------------------------------------------------------------------
 Center     Atomic      Atomic             Coordinates (Angstroms)
 Number     Number       Type             X           Y           Z
 ---------------------------------------------------------------------
      1          7           0       -0.000000   -0.000000    0.129634
      2          1           0        0.000000    0.941882   -0.243250
      3          1           0       -0.815694   -0.470941   -0.243250
      4          1           0        0.815694   -0.470941   -0.243250
 ---------------------------------------------------------------------
                    Distance matrix (angstroms):
                    1          2          3          4
     1  N    0.000000
     2  H    1.013008   0.000000
     3  H    1.013008   1.631387   0.000000
     4  H    1.013008   1.631387   1.631387   0.000000
 Stoichiometry    H3N
 Framework group  C3V[C3(N),3SGV(H)]
 Deg. of freedom     2
 Full point group                 C3V     NOp   6
 RotChk:  IX=0 Diff= 7.38D-16
 Largest Abelian subgroup         CS      NOp   2
 Largest concise Abelian subgroup CS      NOp   2
                         Standard orientation:                         
 ---------------------------------------------------------------------
 Center     Atomic      Atomic             Coordinates (Angstroms)
 Number     Number       Type             X           Y           Z
 ---------------------------------------------------------------------
      1          7           0        0.000000    0.000000    0.111865
      2          1           0       -0.000000    0.941882   -0.261019
      3          1           0       -0.815694   -0.470941   -0.261019
      4          1           0        0.815694   -0.470941   -0.261019
 ---------------------------------------------------------------------
 Rotational constants (GHZ):         299.5962557         299.5962557         188.4160162
 Leave Link  202 at Sat Oct 11 14:09:45 2025, MaxMem=   104857600 cpu:               0.0 elap:               0.0
 Standard basis: Dummy (5D, 7F)
 There are     3 symmetry adapted cartesian basis functions of A'  symmetry.
 There are     1 symmetry adapted cartesian basis functions of A"  symmetry.
 There are     3 symmetry adapted basis functions of A'  symmetry.
 There are     1 symmetry adapted basis functions of A"  symmetry.
     4 basis functions,     4 primitive gaussians,     4 cartesian basis functions
     2 alpha electrons        2 beta electrons
       nuclear repulsion energy         2.5402642477 Hartrees.
 IExCor=         0 DFT=F Ex=HF Corr=None N6=None ScaHFX=  1.000000
 ScaDFX=  1.000000  1.000000  1.000000  1.000000  1.000000  0.000000
 ScaDFX=  0.000000  0.000000  0.000000  0.000000  0.000000  0.000000
 Grid=UltraFine IRanWt=     -1 IRanGd=            0 ICorTp=0 IEDCtl=  2004
 NAtoms=    4 NActive=    4 NUniq=    2 SFac= 4.00D+00 NAtFMM=   60 NAOKFM=F Big=F
 Integral buffers will be    131072 words long.
 Raffenetti 1 integral format.
 Two-electron integral symmetry is turned on.
 Leave Link  301 at Sat Oct 11 14:09:45 2025, MaxMem=   104857600 cpu:               0.0 elap:               0.0
 External calculation of energy and first derivatives.
 Running external command "CentralExt mrcc 4 READ 2 1 $PMR/PR_FNO_CCSDTF12 $EMR/test_en.dat parall 16 R"
         input file       "/local/scratch/lcrisci_vb/amm_Gaussian_73951.pbs.village.sns.it/Gau-1003896.EIn"
         output file      "/local/scratch/lcrisci_vb/amm_Gaussian_73951.pbs.village.sns.it/Gau-1003896.EOu"
         message file     "/local/scratch/lcrisci_vb/amm_Gaussian_73951.pbs.village.sns.it/Gau-1003896.EMs"
         fchk file        "/local/scratch/lcrisci_vb/amm_Gaussian_73951.pbs.village.sns.it/Gau-1003896.EFC"
         mat. el file     "/local/scratch/lcrisci_vb/amm_Gaussian_73951.pbs.village.sns.it/Gau-1003896.EUF"
FAKE_FREQ CONVERSION: N Bohr=['0.0', '0.0', '0.211394805237'] -> Angstrom=[0.0, 0.0, 0.11186531343469855]
FAKE_FREQ CONVERSION: H Bohr=['-0.0', '1.779899001281', '-0.493254545553'] -> Angstrom=[-0.0, 0.9418819891869148, -0.2610190646809633]
FAKE_FREQ CONVERSION: H Bohr=['-1.54143775128', '-0.88994950064', '-0.493254545553'] -> Angstrom=[-0.8156937300029425, -0.4709409945931928, -0.2610190646809633]
FAKE_FREQ CONVERSION: H Bohr=['1.54143775128', '-0.88994950064', '-0.493254545553'] -> Angstrom=[0.8156937300029425, -0.4709409945931928, -0.2610190646809633]
Checking original directory for Gaussian input: /home/barone/lcrisci_vb/ACTUAL_PROJECTS/MRCC_new_Interface_project/TestSet/FNO_AND_NON-FNO/ammoniaca
Found Gaussian input file with External keyword: /home/barone/lcrisci_vb/ACTUAL_PROJECTS/MRCC_new_Interface_project/TestSet/FNO_AND_NON-FNO/ammoniaca/ammoniaca.gjf
GEOMETRY CONVERSION: Task 'central' - Converted from Bohr to Angstrom
  First atom coordinates: Bohr = [0.         0.         0.21139481], Angstrom = [0.         0.         0.11186531]
GEOMETRY CONVERSION: Task 'atom_1_ixyz_1_up' - Converted from Bohr to Angstrom
  First atom coordinates: Bohr = [0.00188973 0.         0.21139481], Angstrom = [0.001      0.         0.11186531]
GEOMETRY CONVERSION: Task 'atom_1_ixyz_2_up' - Converted from Bohr to Angstrom
  First atom coordinates: Bohr = [0.         0.00188973 0.21139481], Angstrom = [0.         0.001      0.11186531]
GEOMETRY CONVERSION: Task 'atom_1_ixyz_2_down' - Converted from Bohr to Angstrom
  First atom coordinates: Bohr = [ 0.         -0.00188973  0.21139481], Angstrom = [ 0.         -0.001       0.11186531]
GEOMETRY CONVERSION: Task 'atom_1_ixyz_3_up' - Converted from Bohr to Angstrom
  First atom coordinates: Bohr = [0.         0.         0.21328453], Angstrom = [0.         0.         0.11286531]
GEOMETRY CONVERSION: Task 'atom_1_ixyz_3_down' - Converted from Bohr to Angstrom
  First atom coordinates: Bohr = [0.         0.         0.20950508], Angstrom = [0.         0.         0.11086531]
GEOMETRY CONVERSION: Task 'atom_2_ixyz_1_up' - Converted from Bohr to Angstrom
  First atom coordinates: Bohr = [0.         0.         0.21139481], Angstrom = [0.         0.         0.11186531]
GEOMETRY CONVERSION: Task 'atom_2_ixyz_2_up' - Converted from Bohr to Angstrom
  First atom coordinates: Bohr = [0.         0.         0.21139481], Angstrom = [0.         0.         0.11186531]
GEOMETRY CONVERSION: Task 'atom_2_ixyz_2_down' - Converted from Bohr to Angstrom
  First atom coordinates: Bohr = [0.         0.         0.21139481], Angstrom = [0.         0.         0.11186531]
GEOMETRY CONVERSION: Task 'atom_2_ixyz_3_up' - Converted from Bohr to Angstrom
  First atom coordinates: Bohr = [0.         0.         0.21139481], Angstrom = [0.         0.         0.11186531]
GEOMETRY CONVERSION: Task 'atom_2_ixyz_3_down' - Converted from Bohr to Angstrom
  First atom coordinates: Bohr = [0.         0.         0.21139481], Angstrom = [0.         0.         0.11186531]
✓ Extracted Input orientation (4 atoms)
✓ Extracted Original coordinates (4 atoms)
DEBUG: Preserved fake frequency log as FAKE_FREQ/fake_freq_3.log
DEBUG: Expected atoms: 4
DEBUG: Task central: 4 atoms
DEBUG: Task atom_1_ixyz_2_up: 4 atoms
DEBUG: Task atom_1_ixyz_2_down: 4 atoms
DEBUG: Task atom_1_ixyz_3_up: 4 atoms
DEBUG: Task atom_1_ixyz_3_down: 4 atoms
DEBUG: Task atom_2_ixyz_2_up: 4 atoms
DEBUG: Task atom_2_ixyz_2_down: 4 atoms
DEBUG: Task atom_2_ixyz_3_up: 4 atoms
DEBUG: Task atom_2_ixyz_3_down: 4 atoms
DEBUG: All geometries have correct atom count (4)
Created iteration directory: /home/barone/lcrisci_vb/ACTUAL_PROJECTS/MRCC_new_Interface_project/TestSet/FNO_AND_NON-FNO/ammoniaca/Iterations/Iteration_3
INFO: This is iteration number 3
INFO: Running parallel gradient calculation in iteration 3
Running parallel energy calculations with 16 threads
TASK SUBMISSION: Submitting 9 tasks
  - Task: central
  - Task: atom_1_ixyz_2_up
  - Task: atom_1_ixyz_2_down
  - Task: atom_1_ixyz_3_up
  - Task: atom_1_ixyz_3_down
  - Task: atom_2_ixyz_2_up
  - Task: atom_2_ixyz_2_down
  - Task: atom_2_ixyz_3_up
  - Task: atom_2_ixyz_3_down
PARALLEL EXECUTION: Starting with 16 workers
PARALLEL EXECUTION: Total tasks to execute: 9
PARALLEL EXECUTION: Submitted tasks: ['atom_1_ixyz_2_down', 'atom_1_ixyz_2_up', 'atom_1_ixyz_3_down', 'atom_1_ixyz_3_up', 'atom_2_ixyz_2_down', 'atom_2_ixyz_2_up', 'atom_2_ixyz_3_down', 'atom_2_ixyz_3_up', 'central']
PARALLEL EXECUTION: Submitted 9 futures to executor
MRCC SETUP: No GENBAS file found in /home/barone/lcrisci_vb/ACTUAL_PROJECTS/MRCC_new_Interface_project/TestSet/FNO_AND_NON-FNO/ammoniaca for task atom_1_ixyz_3_upMRCC SETUP: No GENBAS file found in /home/barone/lcrisci_vb/ACTUAL_PROJECTS/MRCC_new_Interface_project/TestSet/FNO_AND_NON-FNO/ammoniaca for task atom_1_ixyz_3_down
MRCC SETUP: No GENBAS file found in /home/barone/lcrisci_vb/ACTUAL_PROJECTS/MRCC_new_Interface_project/TestSet/FNO_AND_NON-FNO/ammoniaca for task atom_1_ixyz_2_upMRCC SETUP: No GENBAS file found in /home/barone/lcrisci_vb/ACTUAL_PROJECTS/MRCC_new_Interface_project/TestSet/FNO_AND_NON-FNO/ammoniaca for task central

MRCC SETUP: No GENBAS file found in /home/barone/lcrisci_vb/ACTUAL_PROJECTS/MRCC_new_Interface_project/TestSet/FNO_AND_NON-FNO/ammoniaca for task atom_1_ixyz_2_down

MRCC SETUP: No GENBAS file found in /home/barone/lcrisci_vb/ACTUAL_PROJECTS/MRCC_new_Interface_project/TestSet/FNO_AND_NON-FNO/ammoniaca for task atom_2_ixyz_2_upMRCC SETUP: No GENBAS file found in /home/barone/lcrisci_vb/ACTUAL_PROJECTS/MRCC_new_Interface_project/TestSet/FNO_AND_NON-FNO/ammoniaca for task atom_2_ixyz_2_downMRCC SETUP: No GENBAS file found in /home/barone/lcrisci_vb/ACTUAL_PROJECTS/MRCC_new_Interface_project/TestSet/FNO_AND_NON-FNO/ammoniaca for task atom_2_ixyz_3_up
MRCC SETUP: No GENBAS file found in /home/barone/lcrisci_vb/ACTUAL_PROJECTS/MRCC_new_Interface_project/TestSet/FNO_AND_NON-FNO/ammoniaca for task atom_2_ixyz_3_down


UNIT CONVERSION: Task 'atom_1_ixyz_3_up' - Wrote .EIn file in Bohr
UNIT CONVERSION: Task 'central' - Wrote .EIn file in Bohr  First atom: Angstrom = [0.         0.         0.11286531], Bohr = [0.         0.         0.21328453]
UNIT CONVERSION: Task 'atom_1_ixyz_3_down' - Wrote .EIn file in Bohr
UNIT CONVERSION: Task 'atom_1_ixyz_2_down' - Wrote .EIn file in Bohr
THREAD-22415047350016: Starting execution for task 'atom_1_ixyz_3_up'UNIT CONVERSION: Task 'atom_1_ixyz_2_up' - Wrote .EIn file in Bohr
  First atom: Angstrom = [0.         0.         0.11186531], Bohr = [0.         0.         0.21139481]UNIT CONVERSION: Task 'atom_2_ixyz_2_down' - Wrote .EIn file in BohrUNIT CONVERSION: Task 'atom_2_ixyz_3_up' - Wrote .EIn file in Bohr  First atom: Angstrom = [ 0.         -0.001       0.11186531], Bohr = [ 0.         -0.00188973  0.21139481]

UNIT CONVERSION: Task 'atom_2_ixyz_3_down' - Wrote .EIn file in Bohr
UNIT CONVERSION: Task 'atom_2_ixyz_2_up' - Wrote .EIn file in Bohr
  First atom: Angstrom = [0.         0.         0.11086531], Bohr = [0.         0.         0.20950508]



THREAD-22415049451264: Starting execution for task 'atom_1_ixyz_2_down'  First atom: Angstrom = [0.         0.         0.11186531], Bohr = [0.         0.         0.21139481]THREAD-22415047350016: Task directory: /home/barone/lcrisci_vb/ACTUAL_PROJECTS/MRCC_new_Interface_project/TestSet/FNO_AND_NON-FNO/ammoniaca/Iterations/Iteration_3/task_atom_1_ixyz_3_up  First atom: Angstrom = [0.         0.         0.11186531], Bohr = [0.         0.         0.21139481]

  First atom: Angstrom = [0.         0.001      0.11186531], Bohr = [0.         0.00188973 0.21139481]
THREAD-22415045248768: Starting execution for task 'atom_1_ixyz_3_down'THREAD-22415053653760: Starting execution for task 'central'  First atom: Angstrom = [0.         0.         0.11186531], Bohr = [0.         0.         0.21139481]



THREAD-22415036843776: Starting execution for task 'atom_2_ixyz_3_down'
  First atom: Angstrom = [0.         0.         0.11186531], Bohr = [0.         0.         0.21139481]THREAD-22415051552512: Starting execution for task 'atom_1_ixyz_2_up'


THREAD-22415041046272: Starting execution for task 'atom_2_ixyz_2_down'
THREAD-22415049451264: Task directory: /home/barone/lcrisci_vb/ACTUAL_PROJECTS/MRCC_new_Interface_project/TestSet/FNO_AND_NON-FNO/ammoniaca/Iterations/Iteration_3/task_atom_1_ixyz_2_downTHREAD-22415038945024: Starting execution for task 'atom_2_ixyz_3_up'
THREAD-22415047350016: Input file: /home/barone/lcrisci_vb/ACTUAL_PROJECTS/MRCC_new_Interface_project/TestSet/FNO_AND_NON-FNO/ammoniaca/Iterations/Iteration_3/task_atom_1_ixyz_3_up/Gau-atom_1_ixyz_3_up.EInTHREAD-22415036843776: Task directory: /home/barone/lcrisci_vb/ACTUAL_PROJECTS/MRCC_new_Interface_project/TestSet/FNO_AND_NON-FNO/ammoniaca/Iterations/Iteration_3/task_atom_2_ixyz_3_down
THREAD-22415051552512: Task directory: /home/barone/lcrisci_vb/ACTUAL_PROJECTS/MRCC_new_Interface_project/TestSet/FNO_AND_NON-FNO/ammoniaca/Iterations/Iteration_3/task_atom_1_ixyz_2_up
THREAD-22415045248768: Task directory: /home/barone/lcrisci_vb/ACTUAL_PROJECTS/MRCC_new_Interface_project/TestSet/FNO_AND_NON-FNO/ammoniaca/Iterations/Iteration_3/task_atom_1_ixyz_3_downTHREAD-22415053653760: Task directory: /home/barone/lcrisci_vb/ACTUAL_PROJECTS/MRCC_new_Interface_project/TestSet/FNO_AND_NON-FNO/ammoniaca/Iterations/Iteration_3/task_central
THREAD-22415041046272: Task directory: /home/barone/lcrisci_vb/ACTUAL_PROJECTS/MRCC_new_Interface_project/TestSet/FNO_AND_NON-FNO/ammoniaca/Iterations/Iteration_3/task_atom_2_ixyz_2_down

THREAD-22415038945024: Task directory: /home/barone/lcrisci_vb/ACTUAL_PROJECTS/MRCC_new_Interface_project/TestSet/FNO_AND_NON-FNO/ammoniaca/Iterations/Iteration_3/task_atom_2_ixyz_3_up


THREAD-22415036843776: Input file: /home/barone/lcrisci_vb/ACTUAL_PROJECTS/MRCC_new_Interface_project/TestSet/FNO_AND_NON-FNO/ammoniaca/Iterations/Iteration_3/task_atom_2_ixyz_3_down/Gau-atom_2_ixyz_3_down.EInTHREAD-22415043147520: Starting execution for task 'atom_2_ixyz_2_up'THREAD-22415051552512: Input file: /home/barone/lcrisci_vb/ACTUAL_PROJECTS/MRCC_new_Interface_project/TestSet/FNO_AND_NON-FNO/ammoniaca/Iterations/Iteration_3/task_atom_1_ixyz_2_up/Gau-atom_1_ixyz_2_up.EIn

THREAD-22415053653760: Input file: /home/barone/lcrisci_vb/ACTUAL_PROJECTS/MRCC_new_Interface_project/TestSet/FNO_AND_NON-FNO/ammoniaca/Iterations/Iteration_3/task_central/Gau-central.EInTHREAD-22415041046272: Input file: /home/barone/lcrisci_vb/ACTUAL_PROJECTS/MRCC_new_Interface_project/TestSet/FNO_AND_NON-FNO/ammoniaca/Iterations/Iteration_3/task_atom_2_ixyz_2_down/Gau-atom_2_ixyz_2_down.EIn
THREAD-22415049451264: Input file: /home/barone/lcrisci_vb/ACTUAL_PROJECTS/MRCC_new_Interface_project/TestSet/FNO_AND_NON-FNO/ammoniaca/Iterations/Iteration_3/task_atom_1_ixyz_2_down/Gau-atom_1_ixyz_2_down.EInTHREAD-22415038945024: Input file: /home/barone/lcrisci_vb/ACTUAL_PROJECTS/MRCC_new_Interface_project/TestSet/FNO_AND_NON-FNO/ammoniaca/Iterations/Iteration_3/task_atom_2_ixyz_3_up/Gau-atom_2_ixyz_3_up.EIn

THREAD-22415045248768: Input file: /home/barone/lcrisci_vb/ACTUAL_PROJECTS/MRCC_new_Interface_project/TestSet/FNO_AND_NON-FNO/ammoniaca/Iterations/Iteration_3/task_atom_1_ixyz_3_down/Gau-atom_1_ixyz_3_down.EIn


THREAD-22415047350016: Original working directory: /home/barone/lcrisci_vb/ACTUAL_PROJECTS/MRCC_new_Interface_project/TestSet/FNO_AND_NON-FNO/ammoniaca
THREAD-22415043147520: Task directory: /home/barone/lcrisci_vb/ACTUAL_PROJECTS/MRCC_new_Interface_project/TestSet/FNO_AND_NON-FNO/ammoniaca/Iterations/Iteration_3/task_atom_2_ixyz_2_upTHREAD-22415051552512: Original working directory: /home/barone/lcrisci_vb/ACTUAL_PROJECTS/MRCC_new_Interface_project/TestSet/FNO_AND_NON-FNO/ammoniaca

THREAD-22415041046272: Original working directory: /home/barone/lcrisci_vb/ACTUAL_PROJECTS/MRCC_new_Interface_project/TestSet/FNO_AND_NON-FNO/ammoniaca
THREAD-22415051552512: Test mode: False
THREAD-22415036843776: Original working directory: /home/barone/lcrisci_vb/ACTUAL_PROJECTS/MRCC_new_Interface_project/TestSet/FNO_AND_NON-FNO/ammoniacaTHREAD-22415047350016: Test mode: False

THREAD-22415043147520: Input file: /home/barone/lcrisci_vb/ACTUAL_PROJECTS/MRCC_new_Interface_project/TestSet/FNO_AND_NON-FNO/ammoniaca/Iterations/Iteration_3/task_atom_2_ixyz_2_up/Gau-atom_2_ixyz_2_up.EIn
THREAD-22415045248768: Original working directory: /home/barone/lcrisci_vb/ACTUAL_PROJECTS/MRCC_new_Interface_project/TestSet/FNO_AND_NON-FNO/ammoniacaTHREAD-22415053653760: Original working directory: /home/barone/lcrisci_vb/ACTUAL_PROJECTS/MRCC_new_Interface_project/TestSet/FNO_AND_NON-FNO/ammoniacaTHREAD-22415051552512: Executing command: /shared/apps/python/3.9.16/bin/python3.9 /home/barone/lcrisci_vb/External/Executables/MRCC_ext 4 READ 2 1 PR_FNO_CCSDTF12 test_en.dat R Gau-atom_1_ixyz_2_up.EIn energy_output.dat
THREAD-22415049451264: Original working directory: /home/barone/lcrisci_vb/ACTUAL_PROJECTS/MRCC_new_Interface_project/TestSet/FNO_AND_NON-FNO/ammoniaca

THREAD-22415038945024: Original working directory: /home/barone/lcrisci_vb/ACTUAL_PROJECTS/MRCC_new_Interface_project/TestSet/FNO_AND_NON-FNO/ammoniaca
THREAD-22415047350016: Executing command: /shared/apps/python/3.9.16/bin/python3.9 /home/barone/lcrisci_vb/External/Executables/MRCC_ext 4 READ 2 1 PR_FNO_CCSDTF12 test_en.dat R Gau-atom_1_ixyz_3_up.EIn energy_output.dat
THREAD-22415041046272: Test mode: False


THREAD-22415051552512: Working directory for subprocess: /home/barone/lcrisci_vb/ACTUAL_PROJECTS/MRCC_new_Interface_project/TestSet/FNO_AND_NON-FNO/ammoniaca/Iterations/Iteration_3/task_atom_1_ixyz_2_up
THREAD-22415049451264: Test mode: FalseTHREAD-22415036843776: Test mode: FalseTHREAD-22415038945024: Test mode: FalseTHREAD-22415047350016: Working directory for subprocess: /home/barone/lcrisci_vb/ACTUAL_PROJECTS/MRCC_new_Interface_project/TestSet/FNO_AND_NON-FNO/ammoniaca/Iterations/Iteration_3/task_atom_1_ixyz_3_upTHREAD-22415043147520: Original working directory: /home/barone/lcrisci_vb/ACTUAL_PROJECTS/MRCC_new_Interface_project/TestSet/FNO_AND_NON-FNO/ammoniacaTHREAD-22415041046272: Executing command: /shared/apps/python/3.9.16/bin/python3.9 /home/barone/lcrisci_vb/External/Executables/MRCC_ext 4 READ 2 1 PR_FNO_CCSDTF12 test_en.dat R Gau-atom_2_ixyz_2_down.EIn energy_output.datTHREAD-22415045248768: Test mode: FalseTHREAD-22415053653760: Test mode: False







THREAD-22415041046272: Working directory for subprocess: /home/barone/lcrisci_vb/ACTUAL_PROJECTS/MRCC_new_Interface_project/TestSet/FNO_AND_NON-FNO/ammoniaca/Iterations/Iteration_3/task_atom_2_ixyz_2_down
THREAD-22415043147520: Test mode: FalseTHREAD-22415049451264: Executing command: /shared/apps/python/3.9.16/bin/python3.9 /home/barone/lcrisci_vb/External/Executables/MRCC_ext 4 READ 2 1 PR_FNO_CCSDTF12 test_en.dat R Gau-atom_1_ixyz_2_down.EIn energy_output.datTHREAD-22415038945024: Executing command: /shared/apps/python/3.9.16/bin/python3.9 /home/barone/lcrisci_vb/External/Executables/MRCC_ext 4 READ 2 1 PR_FNO_CCSDTF12 test_en.dat R Gau-atom_2_ixyz_3_up.EIn energy_output.datTHREAD-22415036843776: Executing command: /shared/apps/python/3.9.16/bin/python3.9 /home/barone/lcrisci_vb/External/Executables/MRCC_ext 4 READ 2 1 PR_FNO_CCSDTF12 test_en.dat R Gau-atom_2_ixyz_3_down.EIn energy_output.datTHREAD-22415045248768: Executing command: /shared/apps/python/3.9.16/bin/python3.9 /home/barone/lcrisci_vb/External/Executables/MRCC_ext 4 READ 2 1 PR_FNO_CCSDTF12 test_en.dat R Gau-atom_1_ixyz_3_down.EIn energy_output.datTHREAD-22415053653760: Executing command: /shared/apps/python/3.9.16/bin/python3.9 /home/barone/lcrisci_vb/External/Executables/MRCC_ext 4 READ 2 1 PR_FNO_CCSDTF12 test_en.dat R Gau-central.EIn energy_output.dat

THREAD-22415038945024: Working directory for subprocess: /home/barone/lcrisci_vb/ACTUAL_PROJECTS/MRCC_new_Interface_project/TestSet/FNO_AND_NON-FNO/ammoniaca/Iterations/Iteration_3/task_atom_2_ixyz_3_up


THREAD-22415045248768: Working directory for subprocess: /home/barone/lcrisci_vb/ACTUAL_PROJECTS/MRCC_new_Interface_project/TestSet/FNO_AND_NON-FNO/ammoniaca/Iterations/Iteration_3/task_atom_1_ixyz_3_down
THREAD-22415036843776: Working directory for subprocess: /home/barone/lcrisci_vb/ACTUAL_PROJECTS/MRCC_new_Interface_project/TestSet/FNO_AND_NON-FNO/ammoniaca/Iterations/Iteration_3/task_atom_2_ixyz_3_down

THREAD-22415053653760: Working directory for subprocess: /home/barone/lcrisci_vb/ACTUAL_PROJECTS/MRCC_new_Interface_project/TestSet/FNO_AND_NON-FNO/ammoniaca/Iterations/Iteration_3/task_centralTHREAD-22415049451264: Working directory for subprocess: /home/barone/lcrisci_vb/ACTUAL_PROJECTS/MRCC_new_Interface_project/TestSet/FNO_AND_NON-FNO/ammoniaca/Iterations/Iteration_3/task_atom_1_ixyz_2_down
THREAD-22415043147520: Executing command: /shared/apps/python/3.9.16/bin/python3.9 /home/barone/lcrisci_vb/External/Executables/MRCC_ext 4 READ 2 1 PR_FNO_CCSDTF12 test_en.dat R Gau-atom_2_ixyz_2_up.EIn energy_output.dat


THREAD-22415043147520: Working directory for subprocess: /home/barone/lcrisci_vb/ACTUAL_PROJECTS/MRCC_new_Interface_project/TestSet/FNO_AND_NON-FNO/ammoniaca/Iterations/Iteration_3/task_atom_2_ixyz_2_up
THREAD-22415038945024: Subprocess completed successfully
THREAD-22415051552512: Subprocess completed successfullyTHREAD-22415038945024: Subprocess stdout (last 200 chars): ****************************************************************
SCRIPT EXECUTION FINISHED
*****************************************************************************
MRCC External Script Finished.


THREAD-22415051552512: Subprocess stdout (last 200 chars): ****************************************************************
SCRIPT EXECUTION FINISHED
*****************************************************************************
MRCC External Script Finished.

THREAD-22415038945024: Output file path: /home/barone/lcrisci_vb/ACTUAL_PROJECTS/MRCC_new_Interface_project/TestSet/FNO_AND_NON-FNO/ammoniaca/Iterations/Iteration_3/task_atom_2_ixyz_3_up/energy_output.datTHREAD-22415051552512: Output file path: /home/barone/lcrisci_vb/ACTUAL_PROJECTS/MRCC_new_Interface_project/TestSet/FNO_AND_NON-FNO/ammoniaca/Iterations/Iteration_3/task_atom_1_ixyz_2_up/energy_output.dat

THREAD-22415038945024: Already in original directory /home/barone/lcrisci_vb/ACTUAL_PROJECTS/MRCC_new_Interface_project/TestSet/FNO_AND_NON-FNO/ammoniacaTHREAD-22415051552512: Already in original directory /home/barone/lcrisci_vb/ACTUAL_PROJECTS/MRCC_new_Interface_project/TestSet/FNO_AND_NON-FNO/ammoniaca

PARALLEL EXECUTION: Task 'atom_2_ixyz_3_up' completed successfully with energy -56.492888409259
PARALLEL EXECUTION: Task 'atom_1_ixyz_2_up' completed successfully with energy -56.492887800922
THREAD-22415047350016: Subprocess completed successfully
THREAD-22415047350016: Subprocess stdout (last 200 chars): ****************************************************************
SCRIPT EXECUTION FINISHED
*****************************************************************************
MRCC External Script Finished.

THREAD-22415047350016: Output file path: /home/barone/lcrisci_vb/ACTUAL_PROJECTS/MRCC_new_Interface_project/TestSet/FNO_AND_NON-FNO/ammoniaca/Iterations/Iteration_3/task_atom_1_ixyz_3_up/energy_output.dat
THREAD-22415047350016: Already in original directory /home/barone/lcrisci_vb/ACTUAL_PROJECTS/MRCC_new_Interface_project/TestSet/FNO_AND_NON-FNO/ammoniaca
PARALLEL EXECUTION: Task 'atom_1_ixyz_3_up' completed successfully with energy -56.492889869835
THREAD-22415041046272: Subprocess completed successfullyTHREAD-22415036843776: Subprocess completed successfully

THREAD-22415036843776: Subprocess stdout (last 200 chars): ****************************************************************
SCRIPT EXECUTION FINISHED
*****************************************************************************
MRCC External Script Finished.

THREAD-22415041046272: Subprocess stdout (last 200 chars): ****************************************************************
SCRIPT EXECUTION FINISHED
*****************************************************************************
MRCC External Script Finished.
THREAD-22415036843776: Output file path: /home/barone/lcrisci_vb/ACTUAL_PROJECTS/MRCC_new_Interface_project/TestSet/FNO_AND_NON-FNO/ammoniaca/Iterations/Iteration_3/task_atom_2_ixyz_3_down/energy_output.dat

THREAD-22415041046272: Output file path: /home/barone/lcrisci_vb/ACTUAL_PROJECTS/MRCC_new_Interface_project/TestSet/FNO_AND_NON-FNO/ammoniaca/Iterations/Iteration_3/task_atom_2_ixyz_2_down/energy_output.datTHREAD-22415036843776: Already in original directory /home/barone/lcrisci_vb/ACTUAL_PROJECTS/MRCC_new_Interface_project/TestSet/FNO_AND_NON-FNO/ammoniaca

THREAD-22415041046272: Already in original directory /home/barone/lcrisci_vb/ACTUAL_PROJECTS/MRCC_new_Interface_project/TestSet/FNO_AND_NON-FNO/ammoniaca
PARALLEL EXECUTION: Task 'atom_2_ixyz_3_down' completed successfully with energy -56.492889266168
PARALLEL EXECUTION: Task 'atom_2_ixyz_2_down' completed successfully with energy -56.492891472856
THREAD-22415043147520: Subprocess completed successfullyTHREAD-22415045248768: Subprocess completed successfully

THREAD-22415045248768: Subprocess stdout (last 200 chars): ****************************************************************
SCRIPT EXECUTION FINISHED
*****************************************************************************
MRCC External Script Finished.

THREAD-22415043147520: Subprocess stdout (last 200 chars): ****************************************************************
SCRIPT EXECUTION FINISHED
*****************************************************************************
MRCC External Script Finished.
THREAD-22415045248768: Output file path: /home/barone/lcrisci_vb/ACTUAL_PROJECTS/MRCC_new_Interface_project/TestSet/FNO_AND_NON-FNO/ammoniaca/Iterations/Iteration_3/task_atom_1_ixyz_3_down/energy_output.dat

THREAD-22415045248768: Already in original directory /home/barone/lcrisci_vb/ACTUAL_PROJECTS/MRCC_new_Interface_project/TestSet/FNO_AND_NON-FNO/ammoniaca
THREAD-22415043147520: Output file path: /home/barone/lcrisci_vb/ACTUAL_PROJECTS/MRCC_new_Interface_project/TestSet/FNO_AND_NON-FNO/ammoniaca/Iterations/Iteration_3/task_atom_2_ixyz_2_up/energy_output.dat
THREAD-22415043147520: Already in original directory /home/barone/lcrisci_vb/ACTUAL_PROJECTS/MRCC_new_Interface_project/TestSet/FNO_AND_NON-FNO/ammoniaca
PARALLEL EXECUTION: Task 'atom_1_ixyz_3_down' completed successfully with energy -56.49288730522
PARALLEL EXECUTION: Task 'atom_2_ixyz_2_up' completed successfully with energy -56.492885002719
THREAD-22415049451264: Subprocess completed successfully
THREAD-22415049451264: Subprocess stdout (last 200 chars): ****************************************************************
SCRIPT EXECUTION FINISHED
*****************************************************************************
MRCC External Script Finished.

THREAD-22415049451264: Output file path: /home/barone/lcrisci_vb/ACTUAL_PROJECTS/MRCC_new_Interface_project/TestSet/FNO_AND_NON-FNO/ammoniaca/Iterations/Iteration_3/task_atom_1_ixyz_2_down/energy_output.dat
THREAD-22415049451264: Already in original directory /home/barone/lcrisci_vb/ACTUAL_PROJECTS/MRCC_new_Interface_project/TestSet/FNO_AND_NON-FNO/ammoniaca
PARALLEL EXECUTION: Task 'atom_1_ixyz_2_down' completed successfully with energy -56.492887803915
THREAD-22415053653760: Subprocess completed successfully
THREAD-22415053653760: Subprocess stdout (last 200 chars): ****************************************************************
SCRIPT EXECUTION FINISHED
*****************************************************************************
MRCC External Script Finished.

THREAD-22415053653760: Output file path: /home/barone/lcrisci_vb/ACTUAL_PROJECTS/MRCC_new_Interface_project/TestSet/FNO_AND_NON-FNO/ammoniaca/Iterations/Iteration_3/task_central/energy_output.dat
THREAD-22415053653760: Already in original directory /home/barone/lcrisci_vb/ACTUAL_PROJECTS/MRCC_new_Interface_project/TestSet/FNO_AND_NON-FNO/ammoniaca
PARALLEL EXECUTION: Task 'central' completed successfully with energy -56.492888959623
PARALLEL EXECUTION: Completed tasks: ['atom_1_ixyz_2_down', 'atom_1_ixyz_2_up', 'atom_1_ixyz_3_down', 'atom_1_ixyz_3_up', 'atom_2_ixyz_2_down', 'atom_2_ixyz_2_up', 'atom_2_ixyz_3_down', 'atom_2_ixyz_3_up', 'central']
PARALLEL EXECUTION: Failed tasks: []
PARALLEL EXECUTION: All 9 tasks completed successfully
TASK COMPLETION: Received 9 results
  - Task atom_2_ixyz_3_up: Energy = -56.492888409259
  - Task atom_1_ixyz_2_up: Energy = -56.492887800922
  - Task atom_1_ixyz_3_up: Energy = -56.492889869835
  - Task atom_2_ixyz_3_down: Energy = -56.492889266168
  - Task atom_2_ixyz_2_down: Energy = -56.492891472856
  - Task atom_1_ixyz_3_down: Energy = -56.49288730522
  - Task atom_2_ixyz_2_up: Energy = -56.492885002719
  - Task atom_1_ixyz_2_down: Energy = -56.492887803915
  - Task central: Energy = -56.492888959623
WARNING: Using deprecated hardcoded rotation matrices
Please provide input_geometry_bohr for auto-detection
Point group: C03V
Using identity rotation (no coordinate transformation)
ADVANCED SYMMETRY: Using C03V point group with 6 operations
ADVANCED SYMMETRY: Applying non-abelian group theory algorithm
AUTO-DETECT: Found R_coords with RMSD = 5.96e-13 Bohr
Gradient transformation matrix R^T (original → central):
  [1. 0. 0.]
  [0. 1. 0.]
  [0. 0. 1.]

=== MOLECULAR SYMMETRY CONSTRAINTS ===
SYMMETRY CONSTRAINT: Atom 1, Axis 1 = 0.000000000 (missing displacement)
SYMMETRY CONSTRAINT: Atom 2, Axis 1 = 0.000000000 (missing displacement)

=== DIRECT CALCULATIONS ===
DIRECT CALCULATION: Atom 1, Axis 2 = 0.00000079
DIRECT CALCULATION: Atom 1, Axis 3 = -0.00067857
DIRECT CALCULATION: Atom 2, Axis 2 = 0.00171192
DIRECT CALCULATION: Atom 2, Axis 3 = 0.00022673
SYMMETRY PROPAGATION: Atom 3 from Atom 2 via operation 3
  Source gradient: [0.         0.00171192 0.00022673]
  Transformation matrix:
    [-0.5   -0.866  0.   ]
    [ 0.866 -0.5    0.   ]
    [0. 0. 1.]
  Result gradient: [-0.00148253 -0.00085596  0.00022673]
SYMMETRY PROPAGATION: Atom 4 from Atom 2 via operation 2
  Source gradient: [0.         0.00171192 0.00022673]
  Transformation matrix:
    [-0.5    0.866  0.   ]
    [-0.866 -0.5    0.   ]
    [0. 0. 1.]
  Result gradient: [ 0.00148253 -0.00085596  0.00022673]

=== VALIDATION ===
CONSTRAINT VERIFIED: Atom 1, Axis 1 = 0.000000000
CONSTRAINT VERIFIED: Atom 2, Axis 1 = 0.000000000
SYMMETRY EFFICIENCY: 58.3% computational reduction
SYMMETRY EFFICIENCY: 5/12 components calculated
DEBUG: Writing output to /local/scratch/lcrisci_vb/amm_Gaussian_73951.pbs.village.sns.it/Gau-1003896.EOu
DEBUG: Current directory: /home/barone/lcrisci_vb/ACTUAL_PROJECTS/MRCC_new_Interface_project/TestSet/FNO_AND_NON-FNO/ammoniaca
DEBUG: Central energy: -56.492888959623
DEBUG: Gradient shape: (4, 3)
INFO: Writing results from iteration 3 to output file
DEBUG: Output written successfully
DEBUG: File exists: True
SUCCESS: Parallel gradient calculation completed using iteration 3
Task directories preserved in: /home/barone/lcrisci_vb/ACTUAL_PROJECTS/MRCC_new_Interface_project/TestSet/FNO_AND_NON-FNO/ammoniaca/Iterations/Iteration_3
 Recovered energy= -56.4928889596     dipole=      0.000000000000      0.000000000000      0.000000000000
 Energy=    -56.4928890     NIter=   0.
 Dipole moment=       0.000000       0.000000       0.000000
 Leave Link  402 at Sat Oct 11 14:17:20 2025, MaxMem=   104857600 cpu:               0.0 elap:             454.3
 Leave Link  601 at Sat Oct 11 14:17:20 2025, MaxMem=   104857600 cpu:               0.0 elap:               0.0
 Dipole        = 0.00000000D+00 0.00000000D+00 0.00000000D+00
 ***** Axes restored to original set *****
 -------------------------------------------------------------------
 Center     Atomic                   Forces (Hartrees/Bohr)
 Number     Number              X              Y              Z
 -------------------------------------------------------------------
      1        7          -0.000000000   -0.000000792    0.000678568
      2        1          -0.000000000   -0.001711925   -0.000226728
      3        1           0.001482527    0.000855962   -0.000226728
      4        1          -0.001482526    0.000855963   -0.000226728
 -------------------------------------------------------------------
 Cartesian Forces:  Max     0.001711925 RMS     0.000885366
 Leave Link  716 at Sat Oct 11 14:17:20 2025, MaxMem=   104857600 cpu:               0.0 elap:               0.0

 GradGradGradGradGradGradGradGradGradGradGradGradGradGradGradGradGradGrad
 Berny optimization.
 FormGI is forming the generalized inverse of G from B-inverse, IUseBI=4.
 NTrRot=    -1 NTRed=     8 NAtoms=     4 NSkip=     2 NRank=     6 IsLin=F EigSml=7.5571D-01
 Internal  Forces:  Max     0.001508494 RMS     0.001041359
 Search for a local minimum.
 Step number   1 out of a maximum of   20
 All quantities printed in internal units (Hartrees-Bohrs-Radians)
 RMS Force = .10414D-02 SwitMx=.10000D-02 MixMth= 1
 Mixed Optimization -- RFO/linear search
 Second derivative matrix not updated -- first step.
 The second derivative matrix:
                          R1        R2        R3        A1        A2
           R1           0.44967
           R2          -0.00111   0.44967
           R3          -0.00111  -0.00111   0.44967
           A1           0.01805   0.01805  -0.00584   0.12623
           A2           0.00819  -0.00714   0.00869  -0.03678   0.05064
           A3          -0.00714   0.00819   0.00869  -0.03678  -0.02137
           D1          -0.00454  -0.01478  -0.01143  -0.00112   0.01793
           D2           0.01478   0.00454   0.01143   0.00112   0.03014
                          A3        D1        D2
           A3           0.05064
           D1          -0.03014   0.02663
           D2          -0.01793   0.00547   0.02663
 ITU=  0
     Eigenvalues ---    0.02567   0.10313   0.14691   0.44973   0.45176
     Eigenvalues ---    0.45255
 RFO step:  Lambda=-6.23679699D-05 EMin= 2.56744564D-02
 Linear search not attempted -- first point.
 GrdOpt: GIC=T ITstSp=  0 NP=   1 DidLin=F DidDIS=F IDoGRo=0 IDoRot=0
         ISwap=1 XLin= 0.000 DXMaxT= 0.300
 Iteration  1 RMS(Cart)=  0.00682432 RMS(Int)=  0.00016618
 Iteration  2 RMS(Cart)=  0.00007569 RMS(Int)=  0.00013083
 Iteration  3 RMS(Cart)=  0.00000001 RMS(Int)=  0.00013083
 ClnCor:  largest displacement from symmetrization is 4.23D-05 for atom     4.
 Variable       Old X    -DE/DX   Delta X   Delta X   Delta X     New X
                                 (Linear)    (Quad)   (Total)
    R1        1.91431  -0.00151   0.00000  -0.00174  -0.00172   1.91258
    R2        1.91431  -0.00151   0.00000  -0.00174  -0.00172   1.91258
    R3        1.91431  -0.00151   0.00000  -0.00174  -0.00172   1.91258
    A1        1.87209  -0.00075   0.00000  -0.01215  -0.01232   1.85978
    A2        1.87209  -0.00024   0.00000  -0.01214  -0.01232   1.85978
    A3        1.87209  -0.00024   0.00000  -0.01214  -0.01232   1.85978
    D1       -2.00643   0.00076   0.00000   0.02586   0.02570  -1.98073
    D2        2.00643  -0.00076   0.00000  -0.02586  -0.02570   1.98073
         Item               Value     Threshold  Converged?
 Maximum Force            0.001508     0.000450     NO 
 RMS     Force            0.001041     0.000300     NO 
 Maximum Displacement     0.014617     0.001800     NO 
 RMS     Displacement     0.008420     0.001200     NO 
 Predicted change in Energy=-3.123934D-05
 GradGradGradGradGradGradGradGradGradGradGradGradGradGradGradGradGradGrad

 Leave Link  103 at Sat Oct 11 14:17:20 2025, MaxMem=   104857600 cpu:               0.0 elap:               0.2
                          Input orientation:                          
 ---------------------------------------------------------------------
 Center     Atomic      Atomic             Coordinates (Angstroms)
 Number     Number       Type             X           Y           Z
 ---------------------------------------------------------------------
      1          7           0       -0.000000   -0.000000    0.137369
      2          1           0        0.000000    0.936748   -0.245827
      3          1           0       -0.811248   -0.468374   -0.245827
      4          1           0        0.811247   -0.468374   -0.245827
 ---------------------------------------------------------------------
                    Distance matrix (angstroms):
                    1          2          3          4
     1  N    0.000000
     2  H    1.012095   0.000000
     3  H    1.012095   1.622495   0.000000
     4  H    1.012095   1.622495   1.622495   0.000000
 Stoichiometry    H3N
 Framework group  C3V[C3(N),3SGV(H)]
 Deg. of freedom     2
 Full point group                 C3V     NOp   6
 RotChk:  IX=0 Diff= 6.00D-16
 Largest Abelian subgroup         CS      NOp   2
 Largest concise Abelian subgroup CS      NOp   2
                         Standard orientation:                         
 ---------------------------------------------------------------------
 Center     Atomic      Atomic             Coordinates (Angstroms)
 Number     Number       Type             X           Y           Z
 ---------------------------------------------------------------------
      1          7           0        0.000000    0.000000    0.114959
      2          1           0        0.000000    0.936748   -0.268237
      3          1           0       -0.811248   -0.468374   -0.268237
      4          1           0        0.811248   -0.468374   -0.268237
 ---------------------------------------------------------------------
 Rotational constants (GHZ):         298.7450402         298.7450402         190.4869892
 Leave Link  202 at Sat Oct 11 14:17:20 2025, MaxMem=   104857600 cpu:               0.0 elap:               0.0
 Standard basis: Dummy (5D, 7F)
 There are     3 symmetry adapted cartesian basis functions of A'  symmetry.
 There are     1 symmetry adapted cartesian basis functions of A"  symmetry.
 There are     3 symmetry adapted basis functions of A'  symmetry.
 There are     1 symmetry adapted basis functions of A"  symmetry.
     4 basis functions,     4 primitive gaussians,     4 cartesian basis functions
     2 alpha electrons        2 beta electrons
       nuclear repulsion energy         2.5470108844 Hartrees.
 IExCor=         0 DFT=F Ex=HF Corr=None N6=None ScaHFX=  1.000000
 ScaDFX=  1.000000  1.000000  1.000000  1.000000  1.000000  0.000000
 ScaDFX=  0.000000  0.000000  0.000000  0.000000  0.000000  0.000000
 Grid=UltraFine IRanWt=     -1 IRanGd=            0 ICorTp=0 IEDCtl=  2004
 NAtoms=    4 NActive=    4 NUniq=    2 SFac= 4.00D+00 NAtFMM=   60 NAOKFM=F Big=F
 Integral buffers will be    131072 words long.
 Raffenetti 1 integral format.
 Two-electron integral symmetry is turned on.
 Leave Link  301 at Sat Oct 11 14:17:20 2025, MaxMem=   104857600 cpu:               0.0 elap:               0.0
 External calculation of energy and first derivatives.
 Running external command "CentralExt mrcc 4 READ 2 1 $PMR/PR_FNO_CCSDTF12 $EMR/test_en.dat parall 16 R"
         input file       "/local/scratch/lcrisci_vb/amm_Gaussian_73951.pbs.village.sns.it/Gau-1003896.EIn"
         output file      "/local/scratch/lcrisci_vb/amm_Gaussian_73951.pbs.village.sns.it/Gau-1003896.EOu"
         message file     "/local/scratch/lcrisci_vb/amm_Gaussian_73951.pbs.village.sns.it/Gau-1003896.EMs"
         fchk file        "/local/scratch/lcrisci_vb/amm_Gaussian_73951.pbs.village.sns.it/Gau-1003896.EFC"
         mat. el file     "/local/scratch/lcrisci_vb/amm_Gaussian_73951.pbs.village.sns.it/Gau-1003896.EUF"
FAKE_FREQ CONVERSION: N Bohr=['0.0', '0.0', '0.217240843961'] -> Angstrom=[0.0, 0.0, 0.1149589039014958]
FAKE_FREQ CONVERSION: H Bohr=['0.0', '1.770197035586', '-0.506895302575'] -> Angstrom=[0.0, 0.936747930040158, -0.2682374424364708]
FAKE_FREQ CONVERSION: H Bohr=['-1.533035602522', '-0.885098517793', '-0.506895302575'] -> Angstrom=[-0.811247504357592, -0.468373965020079, -0.2682374424364708]
FAKE_FREQ CONVERSION: H Bohr=['1.533035602522', '-0.885098517793', '-0.506895302575'] -> Angstrom=[0.811247504357592, -0.468373965020079, -0.2682374424364708]
Checking original directory for Gaussian input: /home/barone/lcrisci_vb/ACTUAL_PROJECTS/MRCC_new_Interface_project/TestSet/FNO_AND_NON-FNO/ammoniaca
Found Gaussian input file with External keyword: /home/barone/lcrisci_vb/ACTUAL_PROJECTS/MRCC_new_Interface_project/TestSet/FNO_AND_NON-FNO/ammoniaca/ammoniaca.gjf
GEOMETRY CONVERSION: Task 'central' - Converted from Bohr to Angstrom
  First atom coordinates: Bohr = [0.         0.         0.21724084], Angstrom = [0.        0.        0.1149589]
GEOMETRY CONVERSION: Task 'atom_1_ixyz_1_up' - Converted from Bohr to Angstrom
  First atom coordinates: Bohr = [0.00188973 0.         0.21724084], Angstrom = [0.001     0.        0.1149589]
GEOMETRY CONVERSION: Task 'atom_1_ixyz_2_up' - Converted from Bohr to Angstrom
  First atom coordinates: Bohr = [0.         0.00188973 0.21724084], Angstrom = [0.        0.001     0.1149589]
GEOMETRY CONVERSION: Task 'atom_1_ixyz_2_down' - Converted from Bohr to Angstrom
  First atom coordinates: Bohr = [ 0.         -0.00188973  0.21724084], Angstrom = [ 0.        -0.001      0.1149589]
GEOMETRY CONVERSION: Task 'atom_1_ixyz_3_up' - Converted from Bohr to Angstrom
  First atom coordinates: Bohr = [0.         0.         0.21913057], Angstrom = [0.        0.        0.1159589]
GEOMETRY CONVERSION: Task 'atom_1_ixyz_3_down' - Converted from Bohr to Angstrom
  First atom coordinates: Bohr = [0.         0.         0.21535112], Angstrom = [0.        0.        0.1139589]
GEOMETRY CONVERSION: Task 'atom_2_ixyz_1_up' - Converted from Bohr to Angstrom
  First atom coordinates: Bohr = [0.         0.         0.21724084], Angstrom = [0.        0.        0.1149589]
GEOMETRY CONVERSION: Task 'atom_2_ixyz_2_up' - Converted from Bohr to Angstrom
  First atom coordinates: Bohr = [0.         0.         0.21724084], Angstrom = [0.        0.        0.1149589]
GEOMETRY CONVERSION: Task 'atom_2_ixyz_2_down' - Converted from Bohr to Angstrom
  First atom coordinates: Bohr = [0.         0.         0.21724084], Angstrom = [0.        0.        0.1149589]
GEOMETRY CONVERSION: Task 'atom_2_ixyz_3_up' - Converted from Bohr to Angstrom
  First atom coordinates: Bohr = [0.         0.         0.21724084], Angstrom = [0.        0.        0.1149589]
GEOMETRY CONVERSION: Task 'atom_2_ixyz_3_down' - Converted from Bohr to Angstrom
  First atom coordinates: Bohr = [0.         0.         0.21724084], Angstrom = [0.        0.        0.1149589]
✓ Extracted Input orientation (4 atoms)
✓ Extracted Original coordinates (4 atoms)
DEBUG: Preserved fake frequency log as FAKE_FREQ/fake_freq_4.log
DEBUG: Expected atoms: 4
DEBUG: Task central: 4 atoms
DEBUG: Task atom_1_ixyz_2_up: 4 atoms
DEBUG: Task atom_1_ixyz_2_down: 4 atoms
DEBUG: Task atom_1_ixyz_3_up: 4 atoms
DEBUG: Task atom_1_ixyz_3_down: 4 atoms
DEBUG: Task atom_2_ixyz_2_up: 4 atoms
DEBUG: Task atom_2_ixyz_2_down: 4 atoms
DEBUG: Task atom_2_ixyz_3_up: 4 atoms
DEBUG: Task atom_2_ixyz_3_down: 4 atoms
DEBUG: All geometries have correct atom count (4)
Created iteration directory: /home/barone/lcrisci_vb/ACTUAL_PROJECTS/MRCC_new_Interface_project/TestSet/FNO_AND_NON-FNO/ammoniaca/Iterations/Iteration_4
INFO: This is iteration number 4
INFO: Running parallel gradient calculation in iteration 4
Running parallel energy calculations with 16 threads
TASK SUBMISSION: Submitting 9 tasks
  - Task: central
  - Task: atom_1_ixyz_2_up
  - Task: atom_1_ixyz_2_down
  - Task: atom_1_ixyz_3_up
  - Task: atom_1_ixyz_3_down
  - Task: atom_2_ixyz_2_up
  - Task: atom_2_ixyz_2_down
  - Task: atom_2_ixyz_3_up
  - Task: atom_2_ixyz_3_down
PARALLEL EXECUTION: Starting with 16 workers
PARALLEL EXECUTION: Total tasks to execute: 9
PARALLEL EXECUTION: Submitted tasks: ['atom_1_ixyz_2_down', 'atom_1_ixyz_2_up', 'atom_1_ixyz_3_down', 'atom_1_ixyz_3_up', 'atom_2_ixyz_2_down', 'atom_2_ixyz_2_up', 'atom_2_ixyz_3_down', 'atom_2_ixyz_3_up', 'central']
PARALLEL EXECUTION: Submitted 9 futures to executor
MRCC SETUP: No GENBAS file found in /home/barone/lcrisci_vb/ACTUAL_PROJECTS/MRCC_new_Interface_project/TestSet/FNO_AND_NON-FNO/ammoniaca for task central
MRCC SETUP: No GENBAS file found in /home/barone/lcrisci_vb/ACTUAL_PROJECTS/MRCC_new_Interface_project/TestSet/FNO_AND_NON-FNO/ammoniaca for task atom_1_ixyz_2_down
MRCC SETUP: No GENBAS file found in /home/barone/lcrisci_vb/ACTUAL_PROJECTS/MRCC_new_Interface_project/TestSet/FNO_AND_NON-FNO/ammoniaca for task atom_1_ixyz_2_upMRCC SETUP: No GENBAS file found in /home/barone/lcrisci_vb/ACTUAL_PROJECTS/MRCC_new_Interface_project/TestSet/FNO_AND_NON-FNO/ammoniaca for task atom_1_ixyz_3_down
MRCC SETUP: No GENBAS file found in /home/barone/lcrisci_vb/ACTUAL_PROJECTS/MRCC_new_Interface_project/TestSet/FNO_AND_NON-FNO/ammoniaca for task atom_1_ixyz_3_upMRCC SETUP: No GENBAS file found in /home/barone/lcrisci_vb/ACTUAL_PROJECTS/MRCC_new_Interface_project/TestSet/FNO_AND_NON-FNO/ammoniaca for task atom_2_ixyz_2_up
MRCC SETUP: No GENBAS file found in /home/barone/lcrisci_vb/ACTUAL_PROJECTS/MRCC_new_Interface_project/TestSet/FNO_AND_NON-FNO/ammoniaca for task atom_2_ixyz_2_downMRCC SETUP: No GENBAS file found in /home/barone/lcrisci_vb/ACTUAL_PROJECTS/MRCC_new_Interface_project/TestSet/FNO_AND_NON-FNO/ammoniaca for task atom_2_ixyz_3_down
MRCC SETUP: No GENBAS file found in /home/barone/lcrisci_vb/ACTUAL_PROJECTS/MRCC_new_Interface_project/TestSet/FNO_AND_NON-FNO/ammoniaca for task atom_2_ixyz_3_up



UNIT CONVERSION: Task 'central' - Wrote .EIn file in Bohr
UNIT CONVERSION: Task 'atom_1_ixyz_2_down' - Wrote .EIn file in Bohr
  First atom: Angstrom = [0.        0.        0.1149589], Bohr = [0.         0.         0.21724084]  First atom: Angstrom = [ 0.        -0.001      0.1149589], Bohr = [ 0.         -0.00188973  0.21724084]
UNIT CONVERSION: Task 'atom_1_ixyz_3_down' - Wrote .EIn file in Bohr
THREAD-23167374309120: Starting execution for task 'central'
UNIT CONVERSION: Task 'atom_1_ixyz_2_up' - Wrote .EIn file in Bohr
THREAD-23167370106624: Starting execution for task 'atom_1_ixyz_2_down'UNIT CONVERSION: Task 'atom_1_ixyz_3_up' - Wrote .EIn file in BohrTHREAD-23167374309120: Task directory: /home/barone/lcrisci_vb/ACTUAL_PROJECTS/MRCC_new_Interface_project/TestSet/FNO_AND_NON-FNO/ammoniaca/Iterations/Iteration_4/task_central
UNIT CONVERSION: Task 'atom_2_ixyz_2_up' - Wrote .EIn file in Bohr  First atom: Angstrom = [0.        0.        0.1139589], Bohr = [0.         0.         0.21535112]
UNIT CONVERSION: Task 'atom_2_ixyz_2_down' - Wrote .EIn file in Bohr
UNIT CONVERSION: Task 'atom_2_ixyz_3_down' - Wrote .EIn file in Bohr

UNIT CONVERSION: Task 'atom_2_ixyz_3_up' - Wrote .EIn file in Bohr

  First atom: Angstrom = [0.        0.001     0.1149589], Bohr = [0.         0.00188973 0.21724084]

THREAD-23167365904128: Starting execution for task 'atom_1_ixyz_3_down'

THREAD-23167370106624: Task directory: /home/barone/lcrisci_vb/ACTUAL_PROJECTS/MRCC_new_Interface_project/TestSet/FNO_AND_NON-FNO/ammoniaca/Iterations/Iteration_4/task_atom_1_ixyz_2_down
  First atom: Angstrom = [0.        0.        0.1149589], Bohr = [0.         0.         0.21724084]
  First atom: Angstrom = [0.        0.        0.1159589], Bohr = [0.         0.         0.21913057]
  First atom: Angstrom = [0.        0.        0.1149589], Bohr = [0.         0.         0.21724084]
THREAD-23167374309120: Input file: /home/barone/lcrisci_vb/ACTUAL_PROJECTS/MRCC_new_Interface_project/TestSet/FNO_AND_NON-FNO/ammoniaca/Iterations/Iteration_4/task_central/Gau-central.EInTHREAD-23167372207872: Starting execution for task 'atom_1_ixyz_2_up'  First atom: Angstrom = [0.        0.        0.1149589], Bohr = [0.         0.         0.21724084]THREAD-23167365904128: Task directory: /home/barone/lcrisci_vb/ACTUAL_PROJECTS/MRCC_new_Interface_project/TestSet/FNO_AND_NON-FNO/ammoniaca/Iterations/Iteration_4/task_atom_1_ixyz_3_down
  First atom: Angstrom = [0.        0.        0.1149589], Bohr = [0.         0.         0.21724084]
THREAD-23167370106624: Input file: /home/barone/lcrisci_vb/ACTUAL_PROJECTS/MRCC_new_Interface_project/TestSet/FNO_AND_NON-FNO/ammoniaca/Iterations/Iteration_4/task_atom_1_ixyz_2_down/Gau-atom_1_ixyz_2_down.EIn
THREAD-23167357499136: Starting execution for task 'atom_2_ixyz_3_down'
THREAD-23167368005376: Starting execution for task 'atom_1_ixyz_3_up'
THREAD-23167359600384: Starting execution for task 'atom_2_ixyz_3_up'



THREAD-23167365904128: Input file: /home/barone/lcrisci_vb/ACTUAL_PROJECTS/MRCC_new_Interface_project/TestSet/FNO_AND_NON-FNO/ammoniaca/Iterations/Iteration_4/task_atom_1_ixyz_3_down/Gau-atom_1_ixyz_3_down.EIn
THREAD-23167361701632: Starting execution for task 'atom_2_ixyz_2_down'THREAD-23167357499136: Task directory: /home/barone/lcrisci_vb/ACTUAL_PROJECTS/MRCC_new_Interface_project/TestSet/FNO_AND_NON-FNO/ammoniaca/Iterations/Iteration_4/task_atom_2_ixyz_3_down
THREAD-23167368005376: Task directory: /home/barone/lcrisci_vb/ACTUAL_PROJECTS/MRCC_new_Interface_project/TestSet/FNO_AND_NON-FNO/ammoniaca/Iterations/Iteration_4/task_atom_1_ixyz_3_upTHREAD-23167359600384: Task directory: /home/barone/lcrisci_vb/ACTUAL_PROJECTS/MRCC_new_Interface_project/TestSet/FNO_AND_NON-FNO/ammoniaca/Iterations/Iteration_4/task_atom_2_ixyz_3_upTHREAD-23167372207872: Task directory: /home/barone/lcrisci_vb/ACTUAL_PROJECTS/MRCC_new_Interface_project/TestSet/FNO_AND_NON-FNO/ammoniaca/Iterations/Iteration_4/task_atom_1_ixyz_2_up
THREAD-23167363802880: Starting execution for task 'atom_2_ixyz_2_up'THREAD-23167370106624: Original working directory: /home/barone/lcrisci_vb/ACTUAL_PROJECTS/MRCC_new_Interface_project/TestSet/FNO_AND_NON-FNO/ammoniaca

THREAD-23167357499136: Input file: /home/barone/lcrisci_vb/ACTUAL_PROJECTS/MRCC_new_Interface_project/TestSet/FNO_AND_NON-FNO/ammoniaca/Iterations/Iteration_4/task_atom_2_ixyz_3_down/Gau-atom_2_ixyz_3_down.EIn

THREAD-23167368005376: Input file: /home/barone/lcrisci_vb/ACTUAL_PROJECTS/MRCC_new_Interface_project/TestSet/FNO_AND_NON-FNO/ammoniaca/Iterations/Iteration_4/task_atom_1_ixyz_3_up/Gau-atom_1_ixyz_3_up.EIn
THREAD-23167372207872: Input file: /home/barone/lcrisci_vb/ACTUAL_PROJECTS/MRCC_new_Interface_project/TestSet/FNO_AND_NON-FNO/ammoniaca/Iterations/Iteration_4/task_atom_1_ixyz_2_up/Gau-atom_1_ixyz_2_up.EIn
THREAD-23167374309120: Original working directory: /home/barone/lcrisci_vb/ACTUAL_PROJECTS/MRCC_new_Interface_project/TestSet/FNO_AND_NON-FNO/ammoniaca

THREAD-23167370106624: Test mode: False
THREAD-23167361701632: Task directory: /home/barone/lcrisci_vb/ACTUAL_PROJECTS/MRCC_new_Interface_project/TestSet/FNO_AND_NON-FNO/ammoniaca/Iterations/Iteration_4/task_atom_2_ixyz_2_down
THREAD-23167365904128: Original working directory: /home/barone/lcrisci_vb/ACTUAL_PROJECTS/MRCC_new_Interface_project/TestSet/FNO_AND_NON-FNO/ammoniaca
THREAD-23167359600384: Input file: /home/barone/lcrisci_vb/ACTUAL_PROJECTS/MRCC_new_Interface_project/TestSet/FNO_AND_NON-FNO/ammoniaca/Iterations/Iteration_4/task_atom_2_ixyz_3_up/Gau-atom_2_ixyz_3_up.EIn
THREAD-23167374309120: Test mode: FalseTHREAD-23167363802880: Task directory: /home/barone/lcrisci_vb/ACTUAL_PROJECTS/MRCC_new_Interface_project/TestSet/FNO_AND_NON-FNO/ammoniaca/Iterations/Iteration_4/task_atom_2_ixyz_2_upTHREAD-23167370106624: Executing command: /shared/apps/python/3.9.16/bin/python3.9 /home/barone/lcrisci_vb/External/Executables/MRCC_ext 4 READ 2 1 PR_FNO_CCSDTF12 test_en.dat R Gau-atom_1_ixyz_2_down.EIn energy_output.dat
THREAD-23167357499136: Original working directory: /home/barone/lcrisci_vb/ACTUAL_PROJECTS/MRCC_new_Interface_project/TestSet/FNO_AND_NON-FNO/ammoniacaTHREAD-23167361701632: Input file: /home/barone/lcrisci_vb/ACTUAL_PROJECTS/MRCC_new_Interface_project/TestSet/FNO_AND_NON-FNO/ammoniaca/Iterations/Iteration_4/task_atom_2_ixyz_2_down/Gau-atom_2_ixyz_2_down.EIn

THREAD-23167372207872: Original working directory: /home/barone/lcrisci_vb/ACTUAL_PROJECTS/MRCC_new_Interface_project/TestSet/FNO_AND_NON-FNO/ammoniaca


THREAD-23167370106624: Working directory for subprocess: /home/barone/lcrisci_vb/ACTUAL_PROJECTS/MRCC_new_Interface_project/TestSet/FNO_AND_NON-FNO/ammoniaca/Iterations/Iteration_4/task_atom_1_ixyz_2_down

THREAD-23167365904128: Test mode: FalseTHREAD-23167372207872: Test mode: FalseTHREAD-23167368005376: Original working directory: /home/barone/lcrisci_vb/ACTUAL_PROJECTS/MRCC_new_Interface_project/TestSet/FNO_AND_NON-FNO/ammoniacaTHREAD-23167374309120: Executing command: /shared/apps/python/3.9.16/bin/python3.9 /home/barone/lcrisci_vb/External/Executables/MRCC_ext 4 READ 2 1 PR_FNO_CCSDTF12 test_en.dat R Gau-central.EIn energy_output.datTHREAD-23167359600384: Original working directory: /home/barone/lcrisci_vb/ACTUAL_PROJECTS/MRCC_new_Interface_project/TestSet/FNO_AND_NON-FNO/ammoniacaTHREAD-23167363802880: Input file: /home/barone/lcrisci_vb/ACTUAL_PROJECTS/MRCC_new_Interface_project/TestSet/FNO_AND_NON-FNO/ammoniaca/Iterations/Iteration_4/task_atom_2_ixyz_2_up/Gau-atom_2_ixyz_2_up.EIn

THREAD-23167357499136: Test mode: False


THREAD-23167361701632: Original working directory: /home/barone/lcrisci_vb/ACTUAL_PROJECTS/MRCC_new_Interface_project/TestSet/FNO_AND_NON-FNO/ammoniaca

THREAD-23167372207872: Executing command: /shared/apps/python/3.9.16/bin/python3.9 /home/barone/lcrisci_vb/External/Executables/MRCC_ext 4 READ 2 1 PR_FNO_CCSDTF12 test_en.dat R Gau-atom_1_ixyz_2_up.EIn energy_output.datTHREAD-23167368005376: Test mode: FalseTHREAD-23167357499136: Executing command: /shared/apps/python/3.9.16/bin/python3.9 /home/barone/lcrisci_vb/External/Executables/MRCC_ext 4 READ 2 1 PR_FNO_CCSDTF12 test_en.dat R Gau-atom_2_ixyz_3_down.EIn energy_output.dat
THREAD-23167365904128: Executing command: /shared/apps/python/3.9.16/bin/python3.9 /home/barone/lcrisci_vb/External/Executables/MRCC_ext 4 READ 2 1 PR_FNO_CCSDTF12 test_en.dat R Gau-atom_1_ixyz_3_down.EIn energy_output.datTHREAD-23167374309120: Working directory for subprocess: /home/barone/lcrisci_vb/ACTUAL_PROJECTS/MRCC_new_Interface_project/TestSet/FNO_AND_NON-FNO/ammoniaca/Iterations/Iteration_4/task_central

THREAD-23167359600384: Test mode: False

THREAD-23167357499136: Working directory for subprocess: /home/barone/lcrisci_vb/ACTUAL_PROJECTS/MRCC_new_Interface_project/TestSet/FNO_AND_NON-FNO/ammoniaca/Iterations/Iteration_4/task_atom_2_ixyz_3_downTHREAD-23167363802880: Original working directory: /home/barone/lcrisci_vb/ACTUAL_PROJECTS/MRCC_new_Interface_project/TestSet/FNO_AND_NON-FNO/ammoniaca
THREAD-23167372207872: Working directory for subprocess: /home/barone/lcrisci_vb/ACTUAL_PROJECTS/MRCC_new_Interface_project/TestSet/FNO_AND_NON-FNO/ammoniaca/Iterations/Iteration_4/task_atom_1_ixyz_2_upTHREAD-23167361701632: Test mode: False

THREAD-23167368005376: Executing command: /shared/apps/python/3.9.16/bin/python3.9 /home/barone/lcrisci_vb/External/Executables/MRCC_ext 4 READ 2 1 PR_FNO_CCSDTF12 test_en.dat R Gau-atom_1_ixyz_3_up.EIn energy_output.dat

THREAD-23167365904128: Working directory for subprocess: /home/barone/lcrisci_vb/ACTUAL_PROJECTS/MRCC_new_Interface_project/TestSet/FNO_AND_NON-FNO/ammoniaca/Iterations/Iteration_4/task_atom_1_ixyz_3_down
THREAD-23167361701632: Executing command: /shared/apps/python/3.9.16/bin/python3.9 /home/barone/lcrisci_vb/External/Executables/MRCC_ext 4 READ 2 1 PR_FNO_CCSDTF12 test_en.dat R Gau-atom_2_ixyz_2_down.EIn energy_output.datTHREAD-23167359600384: Executing command: /shared/apps/python/3.9.16/bin/python3.9 /home/barone/lcrisci_vb/External/Executables/MRCC_ext 4 READ 2 1 PR_FNO_CCSDTF12 test_en.dat R Gau-atom_2_ixyz_3_up.EIn energy_output.dat
THREAD-23167363802880: Test mode: False

THREAD-23167368005376: Working directory for subprocess: /home/barone/lcrisci_vb/ACTUAL_PROJECTS/MRCC_new_Interface_project/TestSet/FNO_AND_NON-FNO/ammoniaca/Iterations/Iteration_4/task_atom_1_ixyz_3_up

THREAD-23167361701632: Working directory for subprocess: /home/barone/lcrisci_vb/ACTUAL_PROJECTS/MRCC_new_Interface_project/TestSet/FNO_AND_NON-FNO/ammoniaca/Iterations/Iteration_4/task_atom_2_ixyz_2_downTHREAD-23167363802880: Executing command: /shared/apps/python/3.9.16/bin/python3.9 /home/barone/lcrisci_vb/External/Executables/MRCC_ext 4 READ 2 1 PR_FNO_CCSDTF12 test_en.dat R Gau-atom_2_ixyz_2_up.EIn energy_output.dat


THREAD-23167359600384: Working directory for subprocess: /home/barone/lcrisci_vb/ACTUAL_PROJECTS/MRCC_new_Interface_project/TestSet/FNO_AND_NON-FNO/ammoniaca/Iterations/Iteration_4/task_atom_2_ixyz_3_upTHREAD-23167363802880: Working directory for subprocess: /home/barone/lcrisci_vb/ACTUAL_PROJECTS/MRCC_new_Interface_project/TestSet/FNO_AND_NON-FNO/ammoniaca/Iterations/Iteration_4/task_atom_2_ixyz_2_up

THREAD-23167363802880: Subprocess completed successfully
THREAD-23167363802880: Subprocess stdout (last 200 chars): ****************************************************************
SCRIPT EXECUTION FINISHED
*****************************************************************************
MRCC External Script Finished.

THREAD-23167363802880: Output file path: /home/barone/lcrisci_vb/ACTUAL_PROJECTS/MRCC_new_Interface_project/TestSet/FNO_AND_NON-FNO/ammoniaca/Iterations/Iteration_4/task_atom_2_ixyz_2_up/energy_output.dat
THREAD-23167363802880: Already in original directory /home/barone/lcrisci_vb/ACTUAL_PROJECTS/MRCC_new_Interface_project/TestSet/FNO_AND_NON-FNO/ammoniaca
PARALLEL EXECUTION: Task 'atom_2_ixyz_2_up' completed successfully with energy -56.492918503217
THREAD-23167368005376: Subprocess completed successfully
THREAD-23167368005376: Subprocess stdout (last 200 chars): ****************************************************************
SCRIPT EXECUTION FINISHED
*****************************************************************************
MRCC External Script Finished.

THREAD-23167368005376: Output file path: /home/barone/lcrisci_vb/ACTUAL_PROJECTS/MRCC_new_Interface_project/TestSet/FNO_AND_NON-FNO/ammoniaca/Iterations/Iteration_4/task_atom_1_ixyz_3_up/energy_output.dat
THREAD-23167368005376: Already in original directory /home/barone/lcrisci_vb/ACTUAL_PROJECTS/MRCC_new_Interface_project/TestSet/FNO_AND_NON-FNO/ammoniaca
PARALLEL EXECUTION: Task 'atom_1_ixyz_3_up' completed successfully with energy -56.492918594884
THREAD-23167361701632: Subprocess completed successfully
THREAD-23167361701632: Subprocess stdout (last 200 chars): ****************************************************************
SCRIPT EXECUTION FINISHED
*****************************************************************************
MRCC External Script Finished.

THREAD-23167361701632: Output file path: /home/barone/lcrisci_vb/ACTUAL_PROJECTS/MRCC_new_Interface_project/TestSet/FNO_AND_NON-FNO/ammoniaca/Iterations/Iteration_4/task_atom_2_ixyz_2_down/energy_output.dat
THREAD-23167361701632: Already in original directory /home/barone/lcrisci_vb/ACTUAL_PROJECTS/MRCC_new_Interface_project/TestSet/FNO_AND_NON-FNO/ammoniaca
PARALLEL EXECUTION: Task 'atom_2_ixyz_2_down' completed successfully with energy -56.492918355996
THREAD-23167359600384: Subprocess completed successfully
THREAD-23167359600384: Subprocess stdout (last 200 chars): ****************************************************************
SCRIPT EXECUTION FINISHED
*****************************************************************************
MRCC External Script Finished.

THREAD-23167359600384: Output file path: /home/barone/lcrisci_vb/ACTUAL_PROJECTS/MRCC_new_Interface_project/TestSet/FNO_AND_NON-FNO/ammoniaca/Iterations/Iteration_4/task_atom_2_ixyz_3_up/energy_output.dat
THREAD-23167359600384: Already in original directory /home/barone/lcrisci_vb/ACTUAL_PROJECTS/MRCC_new_Interface_project/TestSet/FNO_AND_NON-FNO/ammoniaca
PARALLEL EXECUTION: Task 'atom_2_ixyz_3_up' completed successfully with energy -56.492919077416
THREAD-23167357499136: Subprocess completed successfully
THREAD-23167357499136: Subprocess stdout (last 200 chars): ****************************************************************
SCRIPT EXECUTION FINISHED
*****************************************************************************
MRCC External Script Finished.

THREAD-23167357499136: Output file path: /home/barone/lcrisci_vb/ACTUAL_PROJECTS/MRCC_new_Interface_project/TestSet/FNO_AND_NON-FNO/ammoniaca/Iterations/Iteration_4/task_atom_2_ixyz_3_down/energy_output.dat
THREAD-23167357499136: Already in original directory /home/barone/lcrisci_vb/ACTUAL_PROJECTS/MRCC_new_Interface_project/TestSet/FNO_AND_NON-FNO/ammoniaca
PARALLEL EXECUTION: Task 'atom_2_ixyz_3_down' completed successfully with energy -56.492918968856
THREAD-23167370106624: Subprocess completed successfully
THREAD-23167370106624: Subprocess stdout (last 200 chars): ****************************************************************
SCRIPT EXECUTION FINISHED
*****************************************************************************
MRCC External Script Finished.

THREAD-23167370106624: Output file path: /home/barone/lcrisci_vb/ACTUAL_PROJECTS/MRCC_new_Interface_project/TestSet/FNO_AND_NON-FNO/ammoniaca/Iterations/Iteration_4/task_atom_1_ixyz_2_down/energy_output.dat
THREAD-23167370106624: Already in original directory /home/barone/lcrisci_vb/ACTUAL_PROJECTS/MRCC_new_Interface_project/TestSet/FNO_AND_NON-FNO/ammoniaca
PARALLEL EXECUTION: Task 'atom_1_ixyz_2_down' completed successfully with energy -56.492918003729
THREAD-23167372207872: Subprocess completed successfully
THREAD-23167372207872: Subprocess stdout (last 200 chars): ****************************************************************
SCRIPT EXECUTION FINISHED
*****************************************************************************
MRCC External Script Finished.

THREAD-23167372207872: Output file path: /home/barone/lcrisci_vb/ACTUAL_PROJECTS/MRCC_new_Interface_project/TestSet/FNO_AND_NON-FNO/ammoniaca/Iterations/Iteration_4/task_atom_1_ixyz_2_up/energy_output.dat
THREAD-23167372207872: Already in original directory /home/barone/lcrisci_vb/ACTUAL_PROJECTS/MRCC_new_Interface_project/TestSet/FNO_AND_NON-FNO/ammoniaca
PARALLEL EXECUTION: Task 'atom_1_ixyz_2_up' completed successfully with energy -56.492918000768
THREAD-23167374309120: Subprocess completed successfully
THREAD-23167374309120: Subprocess stdout (last 200 chars): ****************************************************************
SCRIPT EXECUTION FINISHED
*****************************************************************************
MRCC External Script Finished.

THREAD-23167374309120: Output file path: /home/barone/lcrisci_vb/ACTUAL_PROJECTS/MRCC_new_Interface_project/TestSet/FNO_AND_NON-FNO/ammoniaca/Iterations/Iteration_4/task_central/energy_output.dat
THREAD-23167374309120: Already in original directory /home/barone/lcrisci_vb/ACTUAL_PROJECTS/MRCC_new_Interface_project/TestSet/FNO_AND_NON-FNO/ammoniaca
PARALLEL EXECUTION: Task 'central' completed successfully with energy -56.492919152493
THREAD-23167365904128: Subprocess completed successfully
THREAD-23167365904128: Subprocess stdout (last 200 chars): ****************************************************************
SCRIPT EXECUTION FINISHED
*****************************************************************************
MRCC External Script Finished.

THREAD-23167365904128: Output file path: /home/barone/lcrisci_vb/ACTUAL_PROJECTS/MRCC_new_Interface_project/TestSet/FNO_AND_NON-FNO/ammoniaca/Iterations/Iteration_4/task_atom_1_ixyz_3_down/energy_output.dat
THREAD-23167365904128: Already in original directory /home/barone/lcrisci_vb/ACTUAL_PROJECTS/MRCC_new_Interface_project/TestSet/FNO_AND_NON-FNO/ammoniaca
PARALLEL EXECUTION: Task 'atom_1_ixyz_3_down' completed successfully with energy -56.492918920774
PARALLEL EXECUTION: Completed tasks: ['atom_1_ixyz_2_down', 'atom_1_ixyz_2_up', 'atom_1_ixyz_3_down', 'atom_1_ixyz_3_up', 'atom_2_ixyz_2_down', 'atom_2_ixyz_2_up', 'atom_2_ixyz_3_down', 'atom_2_ixyz_3_up', 'central']
PARALLEL EXECUTION: Failed tasks: []
PARALLEL EXECUTION: All 9 tasks completed successfully
TASK COMPLETION: Received 9 results
  - Task atom_2_ixyz_2_up: Energy = -56.492918503217
  - Task atom_1_ixyz_3_up: Energy = -56.492918594884
  - Task atom_2_ixyz_2_down: Energy = -56.492918355996
  - Task atom_2_ixyz_3_up: Energy = -56.492919077416
  - Task atom_2_ixyz_3_down: Energy = -56.492918968856
  - Task atom_1_ixyz_2_down: Energy = -56.492918003729
  - Task atom_1_ixyz_2_up: Energy = -56.492918000768
  - Task central: Energy = -56.492919152493
  - Task atom_1_ixyz_3_down: Energy = -56.492918920774
WARNING: Using deprecated hardcoded rotation matrices
Please provide input_geometry_bohr for auto-detection
Point group: C03V
Using identity rotation (no coordinate transformation)
ADVANCED SYMMETRY: Using C03V point group with 6 operations
ADVANCED SYMMETRY: Applying non-abelian group theory algorithm
AUTO-DETECT: Found R_coords with RMSD = 8.25e-13 Bohr
Gradient transformation matrix R^T (original → central):
  [1. 0. 0.]
  [0. 1. 0.]
  [0. 0. 1.]

=== MOLECULAR SYMMETRY CONSTRAINTS ===
SYMMETRY CONSTRAINT: Atom 1, Axis 1 = 0.000000000 (missing displacement)
SYMMETRY CONSTRAINT: Atom 2, Axis 1 = 0.000000000 (missing displacement)

=== DIRECT CALCULATIONS ===
DIRECT CALCULATION: Atom 1, Axis 2 = 0.00000078
DIRECT CALCULATION: Atom 1, Axis 3 = 0.00008623
DIRECT CALCULATION: Atom 2, Axis 2 = -0.00003895
DIRECT CALCULATION: Atom 2, Axis 3 = -0.00002872
SYMMETRY PROPAGATION: Atom 3 from Atom 2 via operation 3
  Source gradient: [ 0.00000000e+00 -3.89529995e-05 -2.87237376e-05]
  Transformation matrix:
    [-0.5   -0.866  0.   ]
    [ 0.866 -0.5    0.   ]
    [0. 0. 1.]
  Result gradient: [ 3.37332976e-05  1.94764998e-05 -2.87237376e-05]
SYMMETRY PROPAGATION: Atom 4 from Atom 2 via operation 2
  Source gradient: [ 0.00000000e+00 -3.89529995e-05 -2.87237376e-05]
  Transformation matrix:
    [-0.5    0.866  0.   ]
    [-0.866 -0.5    0.   ]
    [0. 0. 1.]
  Result gradient: [-3.37332976e-05  1.94764998e-05 -2.87237376e-05]

=== VALIDATION ===
CONSTRAINT VERIFIED: Atom 1, Axis 1 = 0.000000000
CONSTRAINT VERIFIED: Atom 2, Axis 1 = 0.000000000
SYMMETRY EFFICIENCY: 58.3% computational reduction
SYMMETRY EFFICIENCY: 5/12 components calculated
DEBUG: Writing output to /local/scratch/lcrisci_vb/amm_Gaussian_73951.pbs.village.sns.it/Gau-1003896.EOu
DEBUG: Current directory: /home/barone/lcrisci_vb/ACTUAL_PROJECTS/MRCC_new_Interface_project/TestSet/FNO_AND_NON-FNO/ammoniaca
DEBUG: Central energy: -56.492919152493
DEBUG: Gradient shape: (4, 3)
INFO: Writing results from iteration 4 to output file
DEBUG: Output written successfully
DEBUG: File exists: True
SUCCESS: Parallel gradient calculation completed using iteration 4
Task directories preserved in: /home/barone/lcrisci_vb/ACTUAL_PROJECTS/MRCC_new_Interface_project/TestSet/FNO_AND_NON-FNO/ammoniaca/Iterations/Iteration_4
 Recovered energy= -56.4929191525     dipole=      0.000000000000      0.000000000000      0.000000000000
 Energy=    -56.4929192     NIter=   0.
 Dipole moment=       0.000000       0.000000       0.000000
 Leave Link  402 at Sat Oct 11 14:25:43 2025, MaxMem=   104857600 cpu:               0.0 elap:             502.5
 Dipole        = 0.00000000D+00 0.00000000D+00 0.00000000D+00
 ***** Axes restored to original set *****
 -------------------------------------------------------------------
 Center     Atomic                   Forces (Hartrees/Bohr)
 Number     Number              X              Y              Z
 -------------------------------------------------------------------
      1        7          -0.000000000   -0.000000783   -0.000086227
      2        1           0.000000000    0.000038953    0.000028724
      3        1          -0.000033733   -0.000019476    0.000028724
      4        1           0.000033733   -0.000019477    0.000028724
 -------------------------------------------------------------------
 Cartesian Forces:  Max     0.000086227 RMS     0.000034716
 Leave Link  716 at Sat Oct 11 14:25:43 2025, MaxMem=   104857600 cpu:               0.0 elap:               0.0

 GradGradGradGradGradGradGradGradGradGradGradGradGradGradGradGradGradGrad
 Berny optimization.
 Using GEDIIS/GDIIS optimizer.
 FormGI is forming the generalized inverse of G from B-inverse, IUseBI=4.
 NTrRot=    -1 NTRed=     8 NAtoms=     4 NSkip=     2 NRank=     6 IsLin=F EigSml=7.5047D-01
 Internal  Forces:  Max     0.000038070 RMS     0.000028436
 Search for a local minimum.
 Step number   2 out of a maximum of   20
 All quantities printed in internal units (Hartrees-Bohrs-Radians)
 RMS Force = .28436D-04 SwitMx=.10000D-02 MixMth= 2
 Mixed Optimization -- En-DIIS/RFO-DIIS
 Update second derivatives using D2CorX and points    1    2
 DE= -3.02D-05 DEPred=-3.12D-05 R= 9.67D-01
 TightC=F SS=  1.41D+00  RLast= 4.22D-02 DXNew= 5.0454D-01 1.2674D-01
 Trust test= 9.67D-01 RLast= 4.22D-02 DXMaxT set to 3.00D-01
 The second derivative matrix:
                          R1        R2        R3        A1        A2
           R1           0.44938
           R2          -0.00140   0.44938
           R3          -0.00135  -0.00136   0.44947
           A1           0.01829   0.01829  -0.00558   0.12654
           A2           0.00842  -0.00691   0.00893  -0.03660   0.05072
           A3          -0.00691   0.00842   0.00893  -0.03660  -0.02129
           D1          -0.00499  -0.01522  -0.01190  -0.00155   0.01772
           D2           0.01522   0.00499   0.01190   0.00155   0.03036
                          A3        D1        D2
           A3           0.05072
           D1          -0.03036   0.02716
           D2          -0.01772   0.00494   0.02716
 ITU=  1  0
 Use linear search instead of GDIIS.
     Eigenvalues ---    0.02694   0.10312   0.14696   0.44923   0.45176
     Eigenvalues ---    0.45249
 RFO step:  Lambda=-1.35086428D-08 EMin= 2.69393768D-02
 Quartic linear search produced a step of -0.04178.
 GrdOpt: GIC=T ITstSp=  0 NP=   2 DidLin=T DidDIS=F IDoGRo=0 IDoRot=0
         ISwap=1 XLin=-0.042 DXMaxT= 0.300
 Iteration  1 RMS(Cart)=  0.00031906 RMS(Int)=  0.00000515
 Iteration  2 RMS(Cart)=  0.00000016 RMS(Int)=  0.00000515
 ClnCor:  largest displacement from symmetrization is 2.84D-06 for atom     2.
 Variable       Old X    -DE/DX   Delta X   Delta X   Delta X     New X
                                 (Linear)    (Quad)   (Total)
    R1        1.91258   0.00003   0.00007  -0.00010  -0.00003   1.91255
    R2        1.91258   0.00003   0.00007  -0.00010  -0.00003   1.91255
    R3        1.91258   0.00003   0.00007  -0.00010  -0.00003   1.91255
    A1        1.85978   0.00004   0.00051   0.00011   0.00062   1.86040
    A2        1.85978   0.00001   0.00051   0.00010   0.00062   1.86040
    A3        1.85978   0.00001   0.00051   0.00010   0.00062   1.86040
    D1       -1.98073  -0.00004  -0.00107  -0.00021  -0.00128  -1.98201
    D2        1.98073   0.00004   0.00107   0.00021   0.00128   1.98201
         Item               Value     Threshold  Converged?
 Maximum Force            0.000038     0.000450     YES
 RMS     Force            0.000028     0.000300     YES
 Maximum Displacement     0.000764     0.001800     YES
 RMS     Displacement     0.000391     0.001200     YES
 Predicted change in Energy=-6.918922D-08
 Optimization completed.
    -- Stationary point found.
                           ----------------------------
                           !   Optimized Parameters   !
                           ! (Angstroms and Degrees)  !
 --------------------------                            --------------------------
 ! Name  Definition              Value          Derivative Info.                !
 --------------------------------------------------------------------------------
 ! R1    R(1,2)                  1.0121         -DE/DX =    0.0                 !
 ! R2    R(1,3)                  1.0121         -DE/DX =    0.0                 !
 ! R3    R(1,4)                  1.0121         -DE/DX =    0.0                 !
 ! A1    A(2,1,3)              106.5573         -DE/DX =    0.0                 !
 ! A2    A(2,1,4)              106.5573         -DE/DX =    0.0                 !
 ! A3    A(3,1,4)              106.5573         -DE/DX =    0.0                 !
 ! D1    D(3,1,2,4)           -113.4876         -DE/DX =    0.0                 !
 ! D2    D(2,1,3,4)            113.4876         -DE/DX =    0.0                 !
 --------------------------------------------------------------------------------
 Largest change from initial coordinates is atom    1       0.006 Angstoms.
 GradGradGradGradGradGradGradGradGradGradGradGradGradGradGradGradGradGrad

 Leave Link  103 at Sat Oct 11 14:25:43 2025, MaxMem=   104857600 cpu:               0.0 elap:               0.2
                          Input orientation:                          
 ---------------------------------------------------------------------
 Center     Atomic      Atomic             Coordinates (Angstroms)
 Number     Number       Type             X           Y           Z
 ---------------------------------------------------------------------
      1          7           0       -0.000000   -0.000000    0.137369
      2          1           0        0.000000    0.936748   -0.245827
      3          1           0       -0.811248   -0.468374   -0.245827
      4          1           0        0.811247   -0.468374   -0.245827
 ---------------------------------------------------------------------
                    Distance matrix (angstroms):
                    1          2          3          4
     1  N    0.000000
     2  H    1.012095   0.000000
     3  H    1.012095   1.622495   0.000000
     4  H    1.012095   1.622495   1.622495   0.000000
 Stoichiometry    H3N
 Framework group  C3V[C3(N),3SGV(H)]
 Deg. of freedom     2
 Full point group                 C3V     NOp   6
 RotChk:  IX=0 Diff= 9.80D-16
 Largest Abelian subgroup         CS      NOp   2
 Largest concise Abelian subgroup CS      NOp   2
                         Standard orientation:                         
 ---------------------------------------------------------------------
 Center     Atomic      Atomic             Coordinates (Angstroms)
 Number     Number       Type             X           Y           Z
 ---------------------------------------------------------------------
      1          7           0        0.000000    0.000000    0.114959
      2          1           0       -0.000000    0.936748   -0.268237
      3          1           0       -0.811248   -0.468374   -0.268237
      4          1           0        0.811248   -0.468374   -0.268237
 ---------------------------------------------------------------------
 Rotational constants (GHZ):         298.7450402         298.7450402         190.4869892
 Leave Link  202 at Sat Oct 11 14:25:43 2025, MaxMem=   104857600 cpu:               0.0 elap:               0.0
 Leave Link  601 at Sat Oct 11 14:25:43 2025, MaxMem=   104857600 cpu:               0.0 elap:               0.0
 Unable to Open any file for archive entry.
 1\1\GINC-THIOTIMOLINE01\FOpt\External='CentralExt mrcc 4 READ 2 1 $PMR
 /PR_FNO_CCSDTF12 $EMR/test_en.dat parall\ZDO\H3N1\LCRISCI_VB\11-Oct-20
 25\0\\#p output=pickett External="CentralExt mrcc 4 READ 2 1 $PMR/PR_F
 NO_CCSDTF12 $EMR/test_en.dat parall 16" opt(nomicro,readFC) geom=allch
 eck\\Title Card Required\\0,1\N,0.,0.,0.1373693214\H,0.0000002041,0.93
 67479301,-0.2458270249\H,-0.8112476065,-0.4683737882,-0.2458270249\H,0
 56.4929192\RMSD=0.000e+00\RMSF=3.472e-05\Dipole=0.,0.,0.\PG=C03V [C3(N
 1),3SGV(H1)]\\@
 The archive entry for this job was punched.
 DoSRE=F DoSRN=F DoDH=F DoFC=F DoNQ=F DoQCD=F DoSCD=F
 Inertia tensor (amu-bohr**2): 
                 1             2             3 
      1   0.604108D+01  0.000000D+00  0.000000D+00
      2   0.000000D+00  0.604108D+01  0.000000D+00
      3   0.000000D+00  0.000000D+00  0.947435D+01
 Principal inertia moments (amu-bohr**2):
 Iaa = 0.604108D+01 Ibb= 0.604108D+01 Icc= 0.947435D+01
 Rotation matrix to Principal Axis frame: 
                 1             2             3 
      1   0.100000D+01  0.000000D+00  0.000000D+00
      2   0.000000D+00  0.100000D+01  0.000000D+00
      3   0.000000D+00  0.000000D+00  0.100000D+01
                Principal axis orientation:                
 ---------------------------------------------------------------------
 Center     Atomic                     Coordinates (Angstroms)
 Number     Number                        X           Y           Z
 ---------------------------------------------------------------------
      1          7                    0.000000    0.000000    0.068046
      2          1                    0.000000    0.936748   -0.315151
      3          1                   -0.811248   -0.468374   -0.315151
      4          1                    0.811247   -0.468374   -0.315151
 ---------------------------------------------------------------------
 Rotational constants (MHZ):
 298745.0401696 298745.0401696 190486.9892325
 Dipole moment (Debye):
      0.0000000      0.0000000      0.0000000  Tot=      0.0000000

 Atoms with significant hyperfine tensors: 

--------------------------------------------------------------------------------
 Title Card Required                                     
   99  1000  50  0.1760E-11  0.1000E+07  0.1000E+01 1.0000000000
a   1  0  0  0  1  1   1  0  1  0
     10000   0.29874504E+06    0.0000E+00   /  A  /
     20000   0.29874504E+06    0.0000E+00   /  B  /
     30000   0.19048699E+06    0.0000E+00   /  C  /
--------------------------------------------------------------------------------


 Pickett input using symmetry:
 Dipole moment (Debye):
      0.0000000      0.0000000      0.0000000  Tot=      0.0000000

 Atoms with significant hyperfine tensors: 

--------------------------------------------------------------------------------
 Title Card Required                                     
   99  1000  50  0.1760E-11  0.1000E+07  0.1000E+01 1.0000000000
s   1  0  0  0  1  1   1  0  1  0
     10000   0.29874504E+06    0.0000E+00   /  A  /
     20000   0.29874504E+06    0.0000E+00   /  B  /
     30000   0.19048699E+06    0.0000E+00   /  C  /
--------------------------------------------------------------------------------



 IT MATTERS NOT HOW DEEP YOU PLOW,
 BUT HOW LONG YOU STAY IN THE FURROW.
 Job cpu time:       0 days  0 hours  0 minutes  0.6 seconds.
 Elapsed time:       0 days  0 hours 15 minutes 58.0 seconds.
 File lengths (MBytes):  RWF=     24 Int=      0 D2E=      0 Chk=     19 Scr=      1
 Normal termination of Gaussian DV at Sat Oct 11 14:25:43 2025.
 Initial command:
  
 Copyright (c) 1988-2024, Gaussian, Inc.  All Rights Reserved.
  
 This is the private, development version of
 the Gaussian(R) DV system of programs. It is based on
 the Gaussian(R) 16 system (copyright 2016, Gaussian, Inc.),
 the Gaussian(R) 09 system (copyright 2009, Gaussian, Inc.),
 the Gaussian(R) 03 system (copyright 2003, Gaussian, Inc.),
 the Gaussian(R) 98 system (copyright 1998, Gaussian, Inc.),
 the Gaussian(R) 94 system (copyright 1995, Gaussian, Inc.),
 the Gaussian 92(TM) system (copyright 1992, Gaussian, Inc.),
 the Gaussian 90(TM) system (copyright 1990, Gaussian, Inc.),
 the Gaussian 88(TM) system (copyright 1988, Gaussian, Inc.),
 the Gaussian 86(TM) system (copyright 1986, Carnegie Mellon
 University), and the Gaussian 82(TM) system (copyright 1983,
 Carnegie Mellon University). Gaussian is a federally registered
 trademark of Gaussian, Inc.
  
 This software contains proprietary and confidential information,
 including trade secrets, belonging to Gaussian, Inc.
  
 This software is provided under written license and may be
 used, copied, transmitted, or stored only in accord with that
 written license.
  
 The following legend is applicable only to US Government
 contracts under FAR:
  
                    RESTRICTED RIGHTS LEGEND
  
 Use, reproduction and disclosure by the US Government is
 subject to restrictions as set forth in subparagraphs (a)
 and (c) of the Commercial Computer Software - Restricted
 Rights clause in FAR 52.227-19.
  
 Gaussian, Inc.
 340 Quinnipiac St., Bldg. 40, Wallingford CT 06492
  
  
 ---------------------------------------------------------------
 Warning -- This program may not be used in any manner that
 competes with the business of Gaussian, Inc. or will provide
 assistance to any competitor of Gaussian, Inc.  The licensee
 of this program is prohibited from giving any competitor of
 Gaussian, Inc. access to this program.  By using this program,
 the user acknowledges that Gaussian, Inc. is engaged in the
 business of creating and licensing software in the field of
 computational chemistry and represents and warrants to the
 licensee that it is not a competitor of Gaussian, Inc. and that
 it will not use this program in any manner prohibited above.
 ---------------------------------------------------------------
  

 Cite this work as:
 Gaussian Development Version, Revision J.28,
 M. J. Frisch, G. W. Trucks, G. Scalmani, J. R. Cheeseman, X. Li, 
 J. Bloino, B. G. Janesko, A. V. Marenich, J. Zheng, F. Lipparini, 
 A. Jenkins, A. Liu, H. Liu, H. B. Schlegel, G. E. Scuseria, 
 M. A. Robb, V. Barone, G. A. Petersson, H. Nakatsuji, B. Mennucci, 
 C. Adamo, N. Rega, M. Caricato, H. P. Hratchian, J. V. Ortiz, 
 F. Pawlowski, A. F. Izmaylov, H. Hu, C. Liao, J. L. Sonnenberg, 
 D. Williams-Young, F. Ding, R. Gomperts, F. Egidi, J. Goings, 
 B. Peng, A. Petrone, T. Henderson, D. Ranasinghe, V. G. Zakrzewski, 
 J. Gao, G. Zheng, W. Liang, M. Hada, M. Ehara, K. Toyota, R. Fukuda, 
 J. Hasegawa, M. Ishida, T. Nakajima, Y. Honda, O. Kitao, H. Nakai, 
 T. Vreven, K. Throssell, J. A. Montgomery, Jr., J. E. Peralta, 
 F. Ogliaro, M. J. Bearpark, J. J. Heyd, E. N. Brothers, K. N. Kudin, 
 V. N. Staroverov, T. A. Keith, R. Kobayashi, J. Normand, 
 K. Raghavachari, A. P. Rendell, J. C. Burant, S. S. Iyengar, 
 M. Cossi, J. M. Millam, M. Klene, R. Cammi, R. L. Martin, O. Farkas, 
 J. B. Foresman, and D. J. Fox, Gaussian, Inc., Wallingford CT, 2023.
 
 ******************************************
                11-Oct-2025 
 ******************************************
 %oldchk=b3.chk
 %chk=molpro_struc.chk
 %nprocs=1
 Will use up to    1 processors via shared memory.
 Copying data from "b3.chk" to current chk file "molpro_struc.chk"
 IOpt=  2 FromEx=T IUOpen= 4 IOptOp= 5 NList=   0 IFRang= 0 IUIn= 4 IUOut= 2.
 ----------------------------------------------------------------------
 #p output=pickett External="CentralExt molpro_project $PRMOL/test.dat 
 $ENDMOL/E_F12c.dat 16 64 read" opt(nomicro,readFC) geom=allcheck
 ----------------------------------------------------------------------
 1/10=3,18=20,19=15,26=1,29=7,38=1/1,3;
 2/9=110,12=2/2;
 3/5=30,11=9,14=-4,25=1,30=1,41=9990000,43=2,71=1/1;
 4/20=17,22=1,24=3,113=1,114=1,125=6000/2;
 6/7=2,8=2,9=2,10=2/1;
 7/44=-1/16;
 1/18=20,19=15,26=1/3(2);
 2/9=110/2;
 99/10=1024/99;
 2/9=110/2;
 3/5=30,11=9,14=-2,25=1,30=1,41=9990000,43=2,71=1/1;
 4/16=2,20=17,22=1,24=3,113=1,114=1,125=6000/2;
 7/44=-1/16;
 1/18=20,19=15,26=1/3(-4);
 2/9=110/2;
 6/7=2,8=2,9=2,10=2/1;
 99/9=10,10=1024/99;
 Leave Link    1 at Sat Oct 11 14:25:43 2025, MaxMem=   104857600 cpu:               0.0 elap:               0.2
 Structure from the checkpoint file:  "molpro_struc.chk"
 -------------------
 Title Card Required
 -------------------
 Charge =     0 Multiplicity =     1
 Redundant internal coordinates found in file.  (GICs).
 N,0,0.,0.,0.1296341052
 H,0,0.0000002053,0.9418819892,-0.2432502729
 H,0,-0.8156938327,-0.4709408168,-0.2432502729
 H,0,0.8156936274,-0.4709411724,-0.2432502729
 
 Recover connectivity data from disk.
 Reading GIC definitions from chk.
 Reading GIC derivative info from chk.
 ITRead=  0  0  0  0
 MicOpt= -1 -1 -1 -1
 NAtoms=      4 NQM=        4 NQMF=       0 NMMI=      0 NMMIF=      0
                NMic=       0 NMicF=      0.
                    Isotopes and Nuclear Properties:
 (Nuclear quadrupole moments (NQMom) in fm**2, nuclear magnetic moments (NMagM)
  in nuclear magnetons)

  Atom         1           2           3           4
 IAtWgt=          14           1           1           1
 AtmWgt=  14.0030740   1.0078250   1.0078250   1.0078250
 NucSpn=           2           1           1           1
 AtZEff=    4.550000    1.000000    1.000000    1.000000
 NQMom=    2.0440000   0.0000000   0.0000000   0.0000000
 NMagM=    0.4037610   2.7928460   2.7928460   2.7928460
 AtZNuc=   7.0000000   1.0000000   1.0000000   1.0000000
 Leave Link  101 at Sat Oct 11 14:25:43 2025, MaxMem=   104857600 cpu:               0.1 elap:               0.2

 GradGradGradGradGradGradGradGradGradGradGradGradGradGradGradGradGradGrad
 Berny optimization.
 Initialization pass.
 Force constant matrix read from checkpoint file:
 "molpro_struc.chk"
                           ----------------------------
                           !    Initial Parameters    !
                           ! (Angstroms and Degrees)  !
 --------------------------                            --------------------------
 ! Name  Definition              Value          Derivative Info.                !
 --------------------------------------------------------------------------------
 ! R1    R(1,2)                  1.013          D2E/DX2 =    0.4497             !
 ! R2    R(1,3)                  1.013          D2E/DX2 =    0.4497             !
 ! R3    R(1,4)                  1.013          D2E/DX2 =    0.4497             !
 ! A1    A(2,1,3)              107.263          D2E/DX2 =    0.1262             !
 ! A2    A(2,1,4)              107.263          D2E/DX2 =    0.0506             !
 ! A3    A(3,1,4)              107.263          D2E/DX2 =    0.0506             !
 ! D1    D(3,1,2,4)           -114.96           D2E/DX2 =    0.0266             !
 ! D2    D(2,1,3,4)            114.96           D2E/DX2 =    0.0266             !
 --------------------------------------------------------------------------------
 Trust Radius=3.00D-01 FncErr=1.00D-07 GrdErr=1.00D-07 EigMax=2.50D+02 EigMin=1.00D-04
 Number of steps in this run=     20 maximum allowed number of steps=    100.
 GradGradGradGradGradGradGradGradGradGradGradGradGradGradGradGradGradGrad

 Leave Link  103 at Sat Oct 11 14:25:43 2025, MaxMem=   104857600 cpu:               0.0 elap:               0.0
                          Input orientation:                          
 ---------------------------------------------------------------------
 Center     Atomic      Atomic             Coordinates (Angstroms)
 Number     Number       Type             X           Y           Z
 ---------------------------------------------------------------------
      1          7           0       -0.000000   -0.000000    0.129634
      2          1           0        0.000000    0.941882   -0.243250
      3          1           0       -0.815694   -0.470941   -0.243250
      4          1           0        0.815694   -0.470941   -0.243250
 ---------------------------------------------------------------------
                    Distance matrix (angstroms):
                    1          2          3          4
     1  N    0.000000
     2  H    1.013008   0.000000
     3  H    1.013008   1.631387   0.000000
     4  H    1.013008   1.631387   1.631387   0.000000
 Stoichiometry    H3N
 Framework group  C3V[C3(N),3SGV(H)]
 Deg. of freedom     2
 Full point group                 C3V     NOp   6
 RotChk:  IX=0 Diff= 7.38D-16
 Largest Abelian subgroup         CS      NOp   2
 Largest concise Abelian subgroup CS      NOp   2
                         Standard orientation:                         
 ---------------------------------------------------------------------
 Center     Atomic      Atomic             Coordinates (Angstroms)
 Number     Number       Type             X           Y           Z
 ---------------------------------------------------------------------
      1          7           0        0.000000    0.000000    0.111865
      2          1           0       -0.000000    0.941882   -0.261019
      3          1           0       -0.815694   -0.470941   -0.261019
      4          1           0        0.815694   -0.470941   -0.261019
 ---------------------------------------------------------------------
 Rotational constants (GHZ):         299.5962557         299.5962557         188.4160162
 Leave Link  202 at Sat Oct 11 14:25:44 2025, MaxMem=   104857600 cpu:               0.0 elap:               0.0
 Standard basis: Dummy (5D, 7F)
 There are     3 symmetry adapted cartesian basis functions of A'  symmetry.
 There are     1 symmetry adapted cartesian basis functions of A"  symmetry.
 There are     3 symmetry adapted basis functions of A'  symmetry.
 There are     1 symmetry adapted basis functions of A"  symmetry.
     4 basis functions,     4 primitive gaussians,     4 cartesian basis functions
     2 alpha electrons        2 beta electrons
       nuclear repulsion energy         2.5402642477 Hartrees.
 IExCor=         0 DFT=F Ex=HF Corr=None N6=None ScaHFX=  1.000000
 ScaDFX=  1.000000  1.000000  1.000000  1.000000  1.000000  0.000000
 ScaDFX=  0.000000  0.000000  0.000000  0.000000  0.000000  0.000000
 Grid=UltraFine IRanWt=     -1 IRanGd=            0 ICorTp=0 IEDCtl=  2004
 NAtoms=    4 NActive=    4 NUniq=    2 SFac= 4.00D+00 NAtFMM=   60 NAOKFM=F Big=F
 Integral buffers will be    131072 words long.
 Raffenetti 1 integral format.
 Two-electron integral symmetry is turned on.
 Leave Link  301 at Sat Oct 11 14:25:44 2025, MaxMem=   104857600 cpu:               0.0 elap:               0.0
 External calculation of energy and first derivatives.
 Running external command "CentralExt molpro_project $PRMOL/test.dat $ENDMOL/E_F12c.dat 16 64 read R"
         input file       "/local/scratch/lcrisci_vb/amm_Gaussian_73951.pbs.village.sns.it/Gau-1007223.EIn"
         output file      "/local/scratch/lcrisci_vb/amm_Gaussian_73951.pbs.village.sns.it/Gau-1007223.EOu"
         message file     "/local/scratch/lcrisci_vb/amm_Gaussian_73951.pbs.village.sns.it/Gau-1007223.EMs"
         fchk file        "/local/scratch/lcrisci_vb/amm_Gaussian_73951.pbs.village.sns.it/Gau-1007223.EFC"
         mat. el file     "/local/scratch/lcrisci_vb/amm_Gaussian_73951.pbs.village.sns.it/Gau-1007223.EUF"
Parsing scheme and formula from /home/barone/lcrisci_vb/MyScript/PreambleMolpro/test.dat (comment='!')
  Entered !scheme section at line 1.
    Line 2: Found coefficient: 1.0
Finished parsing scheme: [('coeff', 1.0)]
 Recovered energy= -56.4939331300     dipole=      0.000000000000      0.000000000000      0.000000000000
 Energy=    -56.4939331     NIter=   0.
 Dipole moment=       0.000000       0.000000       0.000000
 Leave Link  402 at Sat Oct 11 14:26:11 2025, MaxMem=   104857600 cpu:               0.0 elap:              27.9
 Leave Link  601 at Sat Oct 11 14:26:11 2025, MaxMem=   104857600 cpu:               0.0 elap:               0.0
 Dipole        = 0.00000000D+00 0.00000000D+00 0.00000000D+00
 ***** Axes restored to original set *****
 -------------------------------------------------------------------
 Center     Atomic                   Forces (Hartrees/Bohr)
 Number     Number              X              Y              Z
 -------------------------------------------------------------------
      1        7          -0.000000000   -0.000000000    0.000699586
      2        1          -0.000000000   -0.001613495   -0.000233195
      3        1           0.001397328    0.000806747   -0.000233195
      4        1          -0.001397328    0.000806748   -0.000233195
 -------------------------------------------------------------------
 Cartesian Forces:  Max     0.001613495 RMS     0.000839775
 Leave Link  716 at Sat Oct 11 14:26:11 2025, MaxMem=   104857600 cpu:               0.0 elap:               0.0

 GradGradGradGradGradGradGradGradGradGradGradGradGradGradGradGradGradGrad
 Berny optimization.
 FormGI is forming the generalized inverse of G from B-inverse, IUseBI=4.
 NTrRot=    -1 NTRed=     8 NAtoms=     4 NSkip=     2 NRank=     6 IsLin=F EigSml=7.5571D-01
 Internal  Forces:  Max     0.001414370 RMS     0.000982465
 Search for a local minimum.
 Step number   1 out of a maximum of   20
 All quantities printed in internal units (Hartrees-Bohrs-Radians)
 RMS Force = .98246D-03 SwitMx=.10000D-02 MixMth= 2
 Mixed Optimization -- En-DIIS/RFO-DIIS
 Second derivative matrix not updated -- first step.
 The second derivative matrix:
                          R1        R2        R3        A1        A2
           R1           0.44967
           R2          -0.00111   0.44967
           R3          -0.00111  -0.00111   0.44967
           A1           0.01805   0.01805  -0.00584   0.12623
           A2           0.00819  -0.00714   0.00869  -0.03678   0.05064
           A3          -0.00714   0.00819   0.00869  -0.03678  -0.02137
           D1          -0.00454  -0.01478  -0.01143  -0.00112   0.01793
           D2           0.01478   0.00454   0.01143   0.00112   0.03014
                          A3        D1        D2
           A3           0.05064
           D1          -0.03014   0.02663
           D2          -0.01793   0.00547   0.02663
 ITU=  0
     Eigenvalues ---    0.02567   0.10313   0.14691   0.44973   0.45176
     Eigenvalues ---    0.45255
 RFO step:  Lambda=-5.76324896D-05 EMin= 2.56744564D-02
 Linear search not attempted -- first point.
 GrdOpt: GIC=T ITstSp=  0 NP=   1 DidLin=F DidDIS=F IDoGRo=0 IDoRot=0
         ISwap=1 XLin= 0.000 DXMaxT= 0.300
 Iteration  1 RMS(Cart)=  0.00658478 RMS(Int)=  0.00015631
 Iteration  2 RMS(Cart)=  0.00007128 RMS(Int)=  0.00012281
 Iteration  3 RMS(Cart)=  0.00000001 RMS(Int)=  0.00012281
 ClnCor:  largest displacement from symmetrization is 4.07D-05 for atom     4.
 Variable       Old X    -DE/DX   Delta X   Delta X   Delta X     New X
                                 (Linear)    (Quad)   (Total)
    R1        1.91431  -0.00141   0.00000  -0.00158  -0.00157   1.91274
    R2        1.91431  -0.00141   0.00000  -0.00158  -0.00157   1.91274
    R3        1.91431  -0.00141   0.00000  -0.00158  -0.00157   1.91274
    A1        1.87209  -0.00073   0.00000  -0.01177  -0.01193   1.86016
    A2        1.87209  -0.00023   0.00000  -0.01176  -0.01193   1.86016
    A3        1.87209  -0.00023   0.00000  -0.01176  -0.01193   1.86016
    D1       -2.00643   0.00074   0.00000   0.02505   0.02490  -1.98153
    D2        2.00643  -0.00074   0.00000  -0.02505  -0.02490   1.98153
         Item               Value     Threshold  Converged?
 Maximum Force            0.001414     0.000450     NO 
 RMS     Force            0.000982     0.000300     NO 
 Maximum Displacement     0.014192     0.001800     NO 
 RMS     Displacement     0.008123     0.001200     NO 
 Predicted change in Energy=-2.886421D-05
 GradGradGradGradGradGradGradGradGradGradGradGradGradGradGradGradGradGrad

 Leave Link  103 at Sat Oct 11 14:26:12 2025, MaxMem=   104857600 cpu:               0.1 elap:               0.3
                          Input orientation:                          
 ---------------------------------------------------------------------
 Center     Atomic      Atomic             Coordinates (Angstroms)
 Number     Number       Type             X           Y           Z
 ---------------------------------------------------------------------
      1          7           0       -0.000000   -0.000000    0.137144
      2          1           0        0.000000    0.936962   -0.245752
      3          1           0       -0.811433   -0.468481   -0.245752
      4          1           0        0.811432   -0.468481   -0.245752
 ---------------------------------------------------------------------
                    Distance matrix (angstroms):
                    1          2          3          4
     1  N    0.000000
     2  H    1.012179   0.000000
     3  H    1.012179   1.622865   0.000000
     4  H    1.012179   1.622865   1.622865   0.000000
 Stoichiometry    H3N
 Framework group  C3V[C3(N),3SGV(H)]
 Deg. of freedom     2
 Full point group                 C3V     NOp   6
 RotChk:  IX=0 Diff= 6.00D-16
 Largest Abelian subgroup         CS      NOp   2
 Largest concise Abelian subgroup CS      NOp   2
                         Standard orientation:                         
 ---------------------------------------------------------------------
 Center     Atomic      Atomic             Coordinates (Angstroms)
 Number     Number       Type             X           Y           Z
 ---------------------------------------------------------------------
      1          7           0        0.000000    0.000000    0.114869
      2          1           0        0.000000    0.936962   -0.268027
      3          1           0       -0.811433   -0.468481   -0.268027
      4          1           0        0.811433   -0.468481   -0.268027
 ---------------------------------------------------------------------
 Rotational constants (GHZ):         298.7391547         298.7391547         190.4001277
 Leave Link  202 at Sat Oct 11 14:26:12 2025, MaxMem=   104857600 cpu:               0.0 elap:               0.0
 Standard basis: Dummy (5D, 7F)
 There are     3 symmetry adapted cartesian basis functions of A'  symmetry.
 There are     1 symmetry adapted cartesian basis functions of A"  symmetry.
 There are     3 symmetry adapted basis functions of A'  symmetry.
 There are     1 symmetry adapted basis functions of A"  symmetry.
     4 basis functions,     4 primitive gaussians,     4 cartesian basis functions
     2 alpha electrons        2 beta electrons
       nuclear repulsion energy         2.5466573658 Hartrees.
 IExCor=         0 DFT=F Ex=HF Corr=None N6=None ScaHFX=  1.000000
 ScaDFX=  1.000000  1.000000  1.000000  1.000000  1.000000  0.000000
 ScaDFX=  0.000000  0.000000  0.000000  0.000000  0.000000  0.000000
 Grid=UltraFine IRanWt=     -1 IRanGd=            0 ICorTp=0 IEDCtl=  2004
 NAtoms=    4 NActive=    4 NUniq=    2 SFac= 4.00D+00 NAtFMM=   60 NAOKFM=F Big=F
 Integral buffers will be    131072 words long.
 Raffenetti 1 integral format.
 Two-electron integral symmetry is turned on.
 Leave Link  301 at Sat Oct 11 14:26:12 2025, MaxMem=   104857600 cpu:               0.1 elap:               0.1
 External calculation of energy and first derivatives.
 Running external command "CentralExt molpro_project $PRMOL/test.dat $ENDMOL/E_F12c.dat 16 64 read R"
         input file       "/local/scratch/lcrisci_vb/amm_Gaussian_73951.pbs.village.sns.it/Gau-1007223.EIn"
         output file      "/local/scratch/lcrisci_vb/amm_Gaussian_73951.pbs.village.sns.it/Gau-1007223.EOu"
         message file     "/local/scratch/lcrisci_vb/amm_Gaussian_73951.pbs.village.sns.it/Gau-1007223.EMs"
         fchk file        "/local/scratch/lcrisci_vb/amm_Gaussian_73951.pbs.village.sns.it/Gau-1007223.EFC"
         mat. el file     "/local/scratch/lcrisci_vb/amm_Gaussian_73951.pbs.village.sns.it/Gau-1007223.EUF"
Parsing scheme and formula from /home/barone/lcrisci_vb/MyScript/PreambleMolpro/test.dat (comment='!')
  Entered !scheme section at line 1.
    Line 2: Found coefficient: 1.0
Finished parsing scheme: [('coeff', 1.0)]
 Recovered energy= -56.4939612900     dipole=      0.000000000000      0.000000000000      0.000000000000
 Energy=    -56.4939613     NIter=   0.
 Dipole moment=       0.000000       0.000000       0.000000
 Leave Link  402 at Sat Oct 11 14:26:39 2025, MaxMem=   104857600 cpu:               0.0 elap:              27.4
 Dipole        = 0.00000000D+00 0.00000000D+00 0.00000000D+00
 ***** Axes restored to original set *****
 -------------------------------------------------------------------
 Center     Atomic                   Forces (Hartrees/Bohr)
 Number     Number              X              Y              Z
 -------------------------------------------------------------------
      1        7          -0.000000000   -0.000000000   -0.000079079
      2        1           0.000000000    0.000031175    0.000026360
      3        1          -0.000026998   -0.000015587    0.000026360
      4        1           0.000026998   -0.000015587    0.000026360
 -------------------------------------------------------------------
 Cartesian Forces:  Max     0.000079079 RMS     0.000030623
 Leave Link  716 at Sat Oct 11 14:26:39 2025, MaxMem=   104857600 cpu:               0.0 elap:               0.0

 GradGradGradGradGradGradGradGradGradGradGradGradGradGradGradGradGradGrad
 Berny optimization.
 Using GEDIIS/GDIIS optimizer.
 FormGI is forming the generalized inverse of G from B-inverse, IUseBI=4.
 NTrRot=    -1 NTRed=     8 NAtoms=     4 NSkip=     2 NRank=     6 IsLin=F EigSml=7.5057D-01
 Internal  Forces:  Max     0.000033407 RMS     0.000023908
 Search for a local minimum.
 Step number   2 out of a maximum of   20
 All quantities printed in internal units (Hartrees-Bohrs-Radians)
 RMS Force = .23908D-04 SwitMx=.10000D-02 MixMth= 2
 Mixed Optimization -- En-DIIS/RFO-DIIS
 Swapping is turned off.
 Update second derivatives using D2CorX and points    1    2
 DE= -2.82D-05 DEPred=-2.89D-05 R= 9.76D-01
 TightC=F SS=  1.41D+00  RLast= 4.09D-02 DXNew= 5.0454D-01 1.2276D-01
 Trust test= 9.76D-01 RLast= 4.09D-02 DXMaxT set to 3.00D-01
 The second derivative matrix:
                          R1        R2        R3        A1        A2
           R1           0.44932
           R2          -0.00146   0.44932
           R3          -0.00142  -0.00142   0.44940
           A1           0.01822   0.01822  -0.00565   0.12650
           A2           0.00839  -0.00694   0.00890  -0.03661   0.05071
           A3          -0.00694   0.00839   0.00890  -0.03661  -0.02130
           D1          -0.00491  -0.01515  -0.01183  -0.00150   0.01773
           D2           0.01515   0.00491   0.01183   0.00150   0.03034
                          A3        D1        D2
           A3           0.05071
           D1          -0.03034   0.02712
           D2          -0.01773   0.00498   0.02712
 ITU=  1  0
     Eigenvalues ---    0.02685   0.10312   0.14695   0.44901   0.45176
     Eigenvalues ---    0.45248
 En-DIIS/RFO-DIIS/Sim-DIIS IScMMF=       -3 using points:     2    1
 RFO step:  Lambda=-1.07241432D-07.
 NNeg= 0 NGDIIS= 2 SimSw=  2.50D-03 Rises=F DC= -2.82D-05 SmlDif=  1.00D-05
 NRisDI= 0 DoIntr=F SqrtH=F CThrHd= 10.0 CDAdj=  3.0
 RMS Error=  0.6883343013D-03 NUsed= 2 OKEnD=T EnDIS=F
 InvSVX:  RCond= 1.88D-03 Info=           0 Equed=N FErr=  9.32D-16 BErr=  1.49D-17
 DidBck=FF Rises=F RFO-DIIS coefs:    0.95266    0.04734
 GrdOpt: GIC=T ITstSp=  0 NP=   2 DidLin=F DidDIS=T IDoGRo=0 IDoRot=0
         ISwap=0 XLin= 0.000 DXMaxT= 0.300
 Iteration  1 RMS(Cart)=  0.00029316 RMS(Int)=  0.00000555
 Iteration  2 RMS(Cart)=  0.00000014 RMS(Int)=  0.00000555
 ClnCor:  largest displacement from symmetrization is 6.58D-07 for atom     4.
 Variable       Old X    -DE/DX   Delta X   Delta X   Delta X     New X
                                 (Linear)    (Quad)   (Total)
    R1        1.91274   0.00002   0.00007  -0.00011  -0.00004   1.91270
    R2        1.91274   0.00002   0.00007  -0.00011  -0.00004   1.91270
    R3        1.91274   0.00002   0.00007  -0.00011  -0.00004   1.91270
    A1        1.86016   0.00003   0.00056   0.00001   0.00058   1.86074
    A2        1.86016   0.00001   0.00056   0.00000   0.00058   1.86074
    A3        1.86016   0.00001   0.00056   0.00000   0.00058   1.86074
    D1       -1.98153  -0.00003  -0.00118  -0.00001  -0.00118  -1.98271
    D2        1.98153   0.00003   0.00118   0.00001   0.00118   1.98271
         Item               Value     Threshold  Converged?
 Maximum Force            0.000033     0.000450     YES
 RMS     Force            0.000024     0.000300     YES
 Maximum Displacement     0.000709     0.001800     YES
 RMS     Displacement     0.000359     0.001200     YES
 Predicted change in Energy=-5.361988D-08
 Optimization completed.
    -- Stationary point found.
                           ----------------------------
                           !   Optimized Parameters   !
                           ! (Angstroms and Degrees)  !
 --------------------------                            --------------------------
 ! Name  Definition              Value          Derivative Info.                !
 --------------------------------------------------------------------------------
 ! R1    R(1,2)                  1.0122         -DE/DX =    0.0                 !
 ! R2    R(1,3)                  1.0122         -DE/DX =    0.0                 !
 ! R3    R(1,4)                  1.0122         -DE/DX =    0.0                 !
 ! A1    A(2,1,3)              106.5795         -DE/DX =    0.0                 !
 ! A2    A(2,1,4)              106.5795         -DE/DX =    0.0                 !
 ! A3    A(3,1,4)              106.5795         -DE/DX =    0.0                 !
 ! D1    D(3,1,2,4)           -113.5331         -DE/DX =    0.0                 !
 ! D2    D(2,1,3,4)            113.5331         -DE/DX =    0.0                 !
 --------------------------------------------------------------------------------
 Largest change from initial coordinates is atom    1       0.006 Angstoms.
 GradGradGradGradGradGradGradGradGradGradGradGradGradGradGradGradGradGrad

 Leave Link  103 at Sat Oct 11 14:26:40 2025, MaxMem=   104857600 cpu:               0.0 elap:               0.1
                          Input orientation:                          
 ---------------------------------------------------------------------
 Center     Atomic      Atomic             Coordinates (Angstroms)
 Number     Number       Type             X           Y           Z
 ---------------------------------------------------------------------
      1          7           0       -0.000000   -0.000000    0.137144
      2          1           0        0.000000    0.936962   -0.245752
      3          1           0       -0.811433   -0.468481   -0.245752
      4          1           0        0.811432   -0.468481   -0.245752
 ---------------------------------------------------------------------
                    Distance matrix (angstroms):
                    1          2          3          4
     1  N    0.000000
     2  H    1.012179   0.000000
     3  H    1.012179   1.622865   0.000000
     4  H    1.012179   1.622865   1.622865   0.000000
 Stoichiometry    H3N
 Framework group  C3V[C3(N),3SGV(H)]
 Deg. of freedom     2
 Full point group                 C3V     NOp   6
 RotChk:  IX=0 Diff= 9.80D-16
 Largest Abelian subgroup         CS      NOp   2
 Largest concise Abelian subgroup CS      NOp   2
                         Standard orientation:                         
 ---------------------------------------------------------------------
 Center     Atomic      Atomic             Coordinates (Angstroms)
 Number     Number       Type             X           Y           Z
 ---------------------------------------------------------------------
      1          7           0        0.000000    0.000000    0.114869
      2          1           0       -0.000000    0.936962   -0.268027
      3          1           0       -0.811433   -0.468481   -0.268027
      4          1           0        0.811433   -0.468481   -0.268027
 ---------------------------------------------------------------------
 Rotational constants (GHZ):         298.7391547         298.7391547         190.4001277
 Leave Link  202 at Sat Oct 11 14:26:40 2025, MaxMem=   104857600 cpu:               0.0 elap:               0.0
 Leave Link  601 at Sat Oct 11 14:26:40 2025, MaxMem=   104857600 cpu:               0.0 elap:               0.0
 Unable to Open any file for archive entry.
 1\1\GINC-THIOTIMOLINE01\FOpt\External='CentralExt molpro_project $PRMO
 L/test.dat $ENDMOL/E_F12c.dat 16 64 read\ZDO\H3N1\LCRISCI_VB\11-Oct-20
 25\0\\#p output=pickett External="CentralExt molpro_project $PRMOL/tes
 t.dat $ENDMOL/E_F12c.dat 16 64 read" opt(nomicro,readFC) geom=allcheck
 \\Title Card Required\\0,1\N,0.,0.,0.1371442114\H,0.0000002042,0.93696
 15803,-0.2457519446\H,-0.811432633,-0.4684806133,-0.2457519446\H,0.811
 39613\RMSD=0.000e+00\RMSF=3.062e-05\Dipole=0.,0.,0.\PG=C03V [C3(N1),3S
 GV(H1)]\\@
 The archive entry for this job was punched.
 DoSRE=F DoSRN=F DoDH=F DoFC=F DoNQ=F DoQCD=F DoSCD=F
 Inertia tensor (amu-bohr**2): 
                 1             2             3 
      1   0.604119D+01  0.000000D+00  0.000000D+00
      2   0.000000D+00  0.604119D+01  0.000000D+00
      3   0.000000D+00  0.000000D+00  0.947868D+01
 Principal inertia moments (amu-bohr**2):
 Iaa = 0.604119D+01 Ibb= 0.604119D+01 Icc= 0.947868D+01
 Rotation matrix to Principal Axis frame: 
                 1             2             3 
      1   0.100000D+01  0.000000D+00  0.000000D+00
      2   0.000000D+00  0.100000D+01  0.000000D+00
      3   0.000000D+00  0.000000D+00  0.100000D+01
                Principal axis orientation:                
 ---------------------------------------------------------------------
 Center     Atomic                     Coordinates (Angstroms)
 Number     Number                        X           Y           Z
 ---------------------------------------------------------------------
      1          7                    0.000000    0.000000    0.067992
      2          1                    0.000000    0.936962   -0.314904
      3          1                   -0.811433   -0.468481   -0.314904
      4          1                    0.811432   -0.468481   -0.314904
 ---------------------------------------------------------------------
 Rotational constants (MHZ):
 298739.1546776 298739.1546776 190400.1277222
 Dipole moment (Debye):
      0.0000000      0.0000000      0.0000000  Tot=      0.0000000

 Atoms with significant hyperfine tensors: 

--------------------------------------------------------------------------------
 Title Card Required                                     
   99  1000  50  0.1760E-11  0.1000E+07  0.1000E+01 1.0000000000
a   1  0  0  0  1  1   1  0  1  0
     10000   0.29873915E+06    0.0000E+00   /  A  /
     20000   0.29873915E+06    0.0000E+00   /  B  /
     30000   0.19040013E+06    0.0000E+00   /  C  /
--------------------------------------------------------------------------------


 Pickett input using symmetry:
 Dipole moment (Debye):
      0.0000000      0.0000000      0.0000000  Tot=      0.0000000

 Atoms with significant hyperfine tensors: 

--------------------------------------------------------------------------------
 Title Card Required                                     
   99  1000  50  0.1760E-11  0.1000E+07  0.1000E+01 1.0000000000
s   1  0  0  0  1  1   1  0  1  0
     10000   0.29873915E+06    0.0000E+00   /  A  /
     20000   0.29873915E+06    0.0000E+00   /  B  /
     30000   0.19040013E+06    0.0000E+00   /  C  /
--------------------------------------------------------------------------------



 YOU WILL NEVER "FIND" TIME FOR ANYTHING.
 IF YOU WANT TIME, YOU MUST MAKE IT.

                        -- CHARLES BIXTON
 Job cpu time:       0 days  0 hours  0 minutes  0.6 seconds.
 Elapsed time:       0 days  0 hours  0 minutes 56.6 seconds.
 File lengths (MBytes):  RWF=     24 Int=      0 D2E=      0 Chk=     19 Scr=      1
 Normal termination of Gaussian DV at Sat Oct 11 14:26:40 2025.
