%nproc=7
%mem=10GB
%chk=GauExternal.chk
#P hf/sto-3g scf=xqc

External Calculation

0 1
C 0.0 0.0 0.7699999699502259
H 0.0 1.0098058299357529 1.1266662599278148
H 0.8736514762100495 -0.5044029149677774 1.1266662599278148
H -0.8736514762100495 -0.5044029149677774 1.1266662599278148
C 0.0 0.0 -0.7699999699502259
H -0.8736514762100495 0.5044029149677774 -1.1266662599278148
H 0.8736514762100495 0.5044029149677774 -1.1266662599278148
H 0.0 -1.008805829935555 -1.1266662599278148

!normalmode
!fakekey
! scf=xqc 





