 Entering Gaussian System, Link 0=g16
 Input=GauExternal.gjf
 Output=GauExternal.log
 Initial command:
 /gaussian/g16.c01/intel64-sandybridge/g16/l1.exe "/home/barone/lcrisci_vb/ACTUAL_PROJECTS/MRCC_new_Interface_project/TestingOldVersion/Symmetry/C2H6_D3d/Iterations/Iteration_1/task_atom_2_ixyz_2_up/Gau-4155340.inp" -scrdir="/home/barone/lcrisci_vb/ACTUAL_PROJECTS/MRCC_new_Interface_project/TestingOldVersion/Symmetry/C2H6_D3d/Iterations/Iteration_1/task_atom_2_ixyz_2_up/"
 Entering Link 1 = /gaussian/g16.c01/intel64-sandybridge/g16/l1.exe PID=   4155342.
  
 Copyright (c) 1988-2019, Gaussian, Inc.  All Rights Reserved.
  
 This is part of the Gaussian(R) 16 program.  It is based on
 the Gaussian(R) 09 system (copyright 2009, Gaussian, Inc.),
 the Gaussian(R) 03 system (copyright 2003, Gaussian, Inc.),
 the Gaussian(R) 98 system (copyright 1998, Gaussian, Inc.),
 the Gaussian(R) 94 system (copyright 1995, Gaussian, Inc.),
 the Gaussian 92(TM) system (copyright 1992, Gaussian, Inc.),
 the Gaussian 90(TM) system (copyright 1990, Gaussian, Inc.),
 the Gaussian 88(TM) system (copyright 1988, Gaussian, Inc.),
 the Gaussian 86(TM) system (copyright 1986, Carnegie Mellon
 University), and the Gaussian 82(TM) system (copyright 1983,
 Carnegie Mellon University). Gaussian is a federally registered
 trademark of Gaussian, Inc.
  
 This software contains proprietary and confidential information,
 including trade secrets, belonging to Gaussian, Inc.
  
 This software is provided under written license and may be
 used, copied, transmitted, or stored only in accord with that
 written license.
  
 The following legend is applicable only to US Government
 contracts under FAR:
  
                    RESTRICTED RIGHTS LEGEND
  
 Use, reproduction and disclosure by the US Government is
 subject to restrictions as set forth in subparagraphs (a)
 and (c) of the Commercial Computer Software - Restricted
 Rights clause in FAR 52.227-19.
  
 Gaussian, Inc.
 340 Quinnipiac St., Bldg. 40, Wallingford CT 06492
  
  
 ---------------------------------------------------------------
 Warning -- This program may not be used in any manner that
 competes with the business of Gaussian, Inc. or will provide
 assistance to any competitor of Gaussian, Inc.  The licensee
 of this program is prohibited from giving any competitor of
 Gaussian, Inc. access to this program.  By using this program,
 the user acknowledges that Gaussian, Inc. is engaged in the
 business of creating and licensing software in the field of
 computational chemistry and represents and warrants to the
 licensee that it is not a competitor of Gaussian, Inc. and that
 it will not use this program in any manner prohibited above.
 ---------------------------------------------------------------
  

 Cite this work as:
 Gaussian 16, Revision C.01,
 M. J. Frisch, G. W. Trucks, H. B. Schlegel, G. E. Scuseria, 
 M. A. Robb, J. R. Cheeseman, G. Scalmani, V. Barone, 
 G. A. Petersson, H. Nakatsuji, X. Li, M. Caricato, A. V. Marenich, 
 J. Bloino, B. G. Janesko, R. Gomperts, B. Mennucci, H. P. Hratchian, 
 J. V. Ortiz, A. F. Izmaylov, J. L. Sonnenberg, D. Williams-Young, 
 F. Ding, F. Lipparini, F. Egidi, J. Goings, B. Peng, A. Petrone, 
 T. Henderson, D. Ranasinghe, V. G. Zakrzewski, J. Gao, N. Rega, 
 G. Zheng, W. Liang, M. Hada, M. Ehara, K. Toyota, R. Fukuda, 
 J. Hasegawa, M. Ishida, T. Nakajima, Y. Honda, O. Kitao, H. Nakai, 
 T. Vreven, K. Throssell, J. A. Montgomery, Jr., J. E. Peralta, 
 F. Ogliaro, M. J. Bearpark, J. J. Heyd, E. N. Brothers, K. N. Kudin, 
 V. N. Staroverov, T. A. Keith, R. Kobayashi, J. Normand, 
 K. Raghavachari, A. P. Rendell, J. C. Burant, S. S. Iyengar, 
 J. Tomasi, M. Cossi, J. M. Millam, M. Klene, C. Adamo, R. Cammi, 
 J. W. Ochterski, R. L. Martin, K. Morokuma, O. Farkas, 
 J. B. Foresman, and D. J. Fox, Gaussian, Inc., Wallingford CT, 2019.
 
 ******************************************
 Gaussian 16:  ES64L-G16RevC.01  3-Jul-2019
                19-Nov-2025 
 ******************************************
 %nproc=7
 Will use up to    7 processors via shared memory.
 %mem=10GB
 %chk=GauExternal.chk
 --------------------
 #P hf/sto-3g scf=xqc
 --------------------
 1/38=1,172=1/1;
 2/12=2,17=6,18=5,40=1/2;
 3/6=3,11=9,25=1,30=1/1,2,3;
 4//1;
 5/5=2,8=3,13=1,38=5/2,8;
 6/7=2,8=2,9=2,10=2,28=1/1;
 99/5=1,9=1/99;
 Leave Link    1 at Wed Nov 19 18:16:58 2025, MaxMem=  1342177280 cpu:               0.0 elap:               0.2
 (Enter /gaussian/g16.c01/intel64-sandybridge/g16/l101.exe)
 --------------------
 External Calculation
 --------------------
 Symbolic Z-matrix:
 Charge =  0 Multiplicity = 1
 C                     0.        0.        0.77 
 H                     0.        1.00981   1.12667 
 H                     0.87365  -0.5044    1.12667 
 H                    -0.87365  -0.5044    1.12667 
 C                     0.        0.       -0.77 
 H                    -0.87365   0.5044   -1.12667 
 H                     0.87365   0.5044   -1.12667 
 H                     0.       -1.00881  -1.12667 
 
 ITRead=  0  0  0  0  0  0  0  0
 MicOpt= -1 -1 -1 -1 -1 -1 -1 -1
 NAtoms=      8 NQM=        8 NQMF=       0 NMMI=      0 NMMIF=      0
                NMic=       0 NMicF=      0.
                    Isotopes and Nuclear Properties:
 (Nuclear quadrupole moments (NQMom) in fm**2, nuclear magnetic moments (NMagM)
  in nuclear magnetons)

  Atom         1           2           3           4           5           6           7           8
 IAtWgt=          12           1           1           1          12           1           1           1
 AtmWgt=  12.0000000   1.0078250   1.0078250   1.0078250  12.0000000   1.0078250   1.0078250   1.0078250
 NucSpn=           0           1           1           1           0           1           1           1
 AtZEff=  -0.0000000  -0.0000000  -0.0000000  -0.0000000  -0.0000000  -0.0000000  -0.0000000  -0.0000000
 NQMom=    0.0000000   0.0000000   0.0000000   0.0000000   0.0000000   0.0000000   0.0000000   0.0000000
 NMagM=    0.0000000   2.7928460   2.7928460   2.7928460   0.0000000   2.7928460   2.7928460   2.7928460
 AtZNuc=   6.0000000   1.0000000   1.0000000   1.0000000   6.0000000   1.0000000   1.0000000   1.0000000
 Leave Link  101 at Wed Nov 19 18:16:58 2025, MaxMem=  1342177280 cpu:               0.2 elap:               0.2
 (Enter /gaussian/g16.c01/intel64-sandybridge/g16/l202.exe)
                          Input orientation:                          
 ---------------------------------------------------------------------
 Center     Atomic      Atomic             Coordinates (Angstroms)
 Number     Number       Type             X           Y           Z
 ---------------------------------------------------------------------
      1          6           0        0.000000    0.000000    0.770000
      2          1           0        0.000000    1.009806    1.126666
      3          1           0        0.873651   -0.504403    1.126666
      4          1           0       -0.873651   -0.504403    1.126666
      5          6           0        0.000000    0.000000   -0.770000
      6          1           0       -0.873651    0.504403   -1.126666
      7          1           0        0.873651    0.504403   -1.126666
      8          1           0        0.000000   -1.008806   -1.126666
 ---------------------------------------------------------------------
                    Distance matrix (angstroms):
                    1          2          3          4          5
     1  C    0.000000
     2  H    1.070943   0.000000
     3  H    1.070000   1.748169   0.000000
     4  H    1.070000   1.748169   1.747303   0.000000
     5  C    1.540000   2.148732   2.148263   2.148263   0.000000
     6  H    2.148263   2.469050   3.024610   2.468845   1.070000
     7  H    2.148263   2.469050   2.468845   3.024610   1.070000
     8  H    2.148263   3.025277   2.468845   2.468845   1.070000
                    6          7          8
     6  H    0.000000
     7  H    1.747303   0.000000
     8  H    1.747303   1.747303   0.000000
 Stoichiometry    C2H6
 Framework group  CS[SG(C2H2),X(H4)]
 Deg. of freedom    11
 Full point group                 CS      NOp   2
 Largest Abelian subgroup         CS      NOp   2
 Largest concise Abelian subgroup CS      NOp   2
                         Standard orientation:                         
 ---------------------------------------------------------------------
 Center     Atomic      Atomic             Coordinates (Angstroms)
 Number     Number       Type             X           Y           Z
 ---------------------------------------------------------------------
      1          6           0       -0.000056    0.770000    0.000000
      2          1           0        1.009750    1.126666    0.000000
      3          1           0       -0.504458    1.126666    0.873651
      4          1           0       -0.504458    1.126666   -0.873651
      5          6           0       -0.000056   -0.770000    0.000000
      6          1           0        0.504347   -1.126666   -0.873651
      7          1           0        0.504347   -1.126666    0.873651
      8          1           0       -1.008861   -1.126666    0.000000
 ---------------------------------------------------------------------
 Rotational constants (GHZ):          82.0960190          20.2293892          20.2277421
 Leave Link  202 at Wed Nov 19 18:16:59 2025, MaxMem=  1342177280 cpu:               0.0 elap:               0.1
 (Enter /gaussian/g16.c01/intel64-sandybridge/g16/l301.exe)
 Standard basis: STO-3G (5D, 7F)
 Ernie: Thresh=  0.10000D-02 Tol=  0.10000D-05 Strict=F.
 There are    12 symmetry adapted cartesian basis functions of A'  symmetry.
 There are     4 symmetry adapted cartesian basis functions of A"  symmetry.
 There are    12 symmetry adapted basis functions of A'  symmetry.
 There are     4 symmetry adapted basis functions of A"  symmetry.
    16 basis functions,    48 primitive gaussians,    16 cartesian basis functions
     9 alpha electrons        9 beta electrons
       nuclear repulsion energy        42.6670135891 Hartrees.
 IExCor=    0 DFT=F Ex=HF Corr=None ExCW=0 ScaHFX=  1.000000
 ScaDFX=  1.000000  1.000000  1.000000  1.000000 ScalE2=  1.000000  1.000000
 IRadAn=      5 IRanWt=     -1 IRanGd=            0 ICorTp=0 IEmpDi=  4
 NAtoms=    8 NActive=    8 NUniq=    6 SFac= 1.78D+00 NAtFMM=   60 NAOKFM=F Big=F
 Integral buffers will be    131072 words long.
 Raffenetti 1 integral format.
 Two-electron integral symmetry is turned on.
 Leave Link  301 at Wed Nov 19 18:16:59 2025, MaxMem=  1342177280 cpu:               0.1 elap:               0.1
 (Enter /gaussian/g16.c01/intel64-sandybridge/g16/l302.exe)
 NPDir=0 NMtPBC=     1 NCelOv=     1 NCel=       1 NClECP=     1 NCelD=      1
         NCelK=      1 NCelE2=     1 NClLst=     1 CellRange=     0.0.
 One-electron integrals computed using PRISM.
 One-electron integral symmetry used in STVInt
 NBasis=    16 RedAO= T EigKep=  1.99D-01  NBF=    12     4
 NBsUse=    16 1.00D-06 EigRej= -1.00D+00 NBFU=    12     4
 Leave Link  302 at Wed Nov 19 18:16:59 2025, MaxMem=  1342177280 cpu:               0.3 elap:               0.2
 (Enter /gaussian/g16.c01/intel64-sandybridge/g16/l303.exe)
 DipDrv:  MaxL=1.
 Leave Link  303 at Wed Nov 19 18:16:59 2025, MaxMem=  1342177280 cpu:               0.1 elap:               0.1
 (Enter /gaussian/g16.c01/intel64-sandybridge/g16/l401.exe)
 ExpMin= 1.69D-01 ExpMax= 7.16D+01 ExpMxC= 7.16D+01 IAcc=3 IRadAn=         5 AccDes= 0.00D+00
 Harris functional with IExCor=  205 and IRadAn=       5 diagonalized for initial guess.
 HarFok:  IExCor=  205 AccDes= 0.00D+00 IRadAn=         5 IDoV= 1 UseB2=F ITyADJ=14
 ICtDFT=  3500011 ScaDFX=  1.000000  1.000000  1.000000  1.000000
 FoFCou: FMM=F IPFlag=           0 FMFlag=      100000 FMFlg1=           0
         NFxFlg=           0 DoJE=T BraDBF=F KetDBF=T FulRan=T
         wScrn=  0.000000 ICntrl=       500 IOpCl=  0 I1Cent=   200000004 NGrid=           0
         NMat0=    1 NMatS0=      1 NMatT0=    0 NMatD0=    1 NMtDS0=    0 NMtDT0=    0
 Petite list used in FoFCou.
 Harris En= -78.5415348784286    
 JPrj=0 DoOrth=F DoCkMO=F.
 Initial guess orbital symmetries:
       Occupied  (A') (A') (A') (A') (A") (A') (A') (A") (A')
       Virtual   (A') (A') (A") (A') (A') (A") (A')
 The electronic state of the initial guess is 1-A'.
 Leave Link  401 at Wed Nov 19 18:17:00 2025, MaxMem=  1342177280 cpu:               0.5 elap:               0.2
 (Enter /gaussian/g16.c01/intel64-sandybridge/g16/l502.exe)
 Keep R1 ints in memory in symmetry-blocked form, NReq=818882.
 FoFCou: FMM=F IPFlag=           0 FMFlag=           0 FMFlg1=           0
         NFxFlg=           0 DoJE=F BraDBF=F KetDBF=F FulRan=T
         wScrn=  0.000000 ICntrl=       600 IOpCl=  0 I1Cent=           0 NGrid=           0
         NMat0=    1 NMatS0=    136 NMatT0=    0 NMatD0=    1 NMtDS0=    0 NMtDT0=    0
 Petite list used in FoFCou.
 Closed shell SCF:
 Using DIIS extrapolation, IDIIS=  1040.
 NGot=  1342177280 LenX=  1342169917 LenY=  1342169035
 Requested convergence on RMS density matrix=1.00D-08 within  32 cycles.
 Requested convergence on MAX density matrix=1.00D-06.
 Requested convergence on             energy=1.00D-06.
 No special actions if energy rises.

 Cycle   1  Pass 1  IDiag  1:
 E= -78.2187158005545    
 DIIS: error= 5.66D-02 at cycle   1 NSaved=   1.
 NSaved= 1 IEnMin= 1 EnMin= -78.2187158005545     IErMin= 1 ErrMin= 5.66D-02
 ErrMax= 5.66D-02  0.00D+00 EMaxC= 1.00D-01 BMatC= 7.84D-02 BMatP= 7.84D-02
 IDIUse=3 WtCom= 4.34D-01 WtEn= 5.66D-01
 Coeff-Com:  0.100D+01
 Coeff-En:   0.100D+01
 Coeff:      0.100D+01
 Gap=     1.129 Goal=   None    Shift=    0.000
 GapD=    1.129 DampG=2.000 DampE=0.500 DampFc=1.0000 IDamp=-1.
 RMSDP=2.45D-02 MaxDP=1.13D-01              OVMax= 0.00D+00

 Cycle   2  Pass 1  IDiag  1:
 E= -78.3024001709542     Delta-E=       -0.083684370400 Rises=F Damp=F
 DIIS: error= 1.03D-02 at cycle   2 NSaved=   2.
 NSaved= 2 IEnMin= 2 EnMin= -78.3024001709542     IErMin= 2 ErrMin= 1.03D-02
 ErrMax= 1.03D-02  0.00D+00 EMaxC= 1.00D-01 BMatC= 1.90D-03 BMatP= 7.84D-02
 IDIUse=3 WtCom= 8.97D-01 WtEn= 1.03D-01
 Coeff-Com:  0.921D-01 0.908D+00
 Coeff-En:   0.000D+00 0.100D+01
 Coeff:      0.826D-01 0.917D+00
 Gap=     1.145 Goal=   None    Shift=    0.000
 RMSDP=3.54D-03 MaxDP=1.83D-02 DE=-8.37D-02 OVMax= 0.00D+00

 Cycle   3  Pass 1  IDiag  1:
 E= -78.3043526647050     Delta-E=       -0.001952493751 Rises=F Damp=F
 DIIS: error= 7.02D-04 at cycle   3 NSaved=   3.
 NSaved= 3 IEnMin= 3 EnMin= -78.3043526647050     IErMin= 3 ErrMin= 7.02D-04
 ErrMax= 7.02D-04  0.00D+00 EMaxC= 1.00D-01 BMatC= 1.01D-05 BMatP= 1.90D-03
 IDIUse=3 WtCom= 9.93D-01 WtEn= 7.02D-03
 Coeff-Com: -0.907D-02-0.454D-02 0.101D+01
 Coeff-En:   0.000D+00 0.000D+00 0.100D+01
 Coeff:     -0.900D-02-0.450D-02 0.101D+01
 Gap=     1.146 Goal=   None    Shift=    0.000
 RMSDP=2.96D-04 MaxDP=1.02D-03 DE=-1.95D-03 OVMax= 0.00D+00

 Cycle   4  Pass 1  IDiag  1:
 E= -78.3043683073974     Delta-E=       -0.000015642692 Rises=F Damp=F
 DIIS: error= 1.31D-04 at cycle   4 NSaved=   4.
 NSaved= 4 IEnMin= 4 EnMin= -78.3043683073974     IErMin= 4 ErrMin= 1.31D-04
 ErrMax= 1.31D-04  0.00D+00 EMaxC= 1.00D-01 BMatC= 2.59D-07 BMatP= 1.01D-05
 IDIUse=3 WtCom= 9.99D-01 WtEn= 1.31D-03
 Coeff-Com:  0.232D-02-0.376D-02-0.305D+00 0.131D+01
 Coeff-En:   0.000D+00 0.000D+00 0.000D+00 0.100D+01
 Coeff:      0.232D-02-0.376D-02-0.305D+00 0.131D+01
 Gap=     1.145 Goal=   None    Shift=    0.000
 RMSDP=6.79D-05 MaxDP=4.74D-04 DE=-1.56D-05 OVMax= 0.00D+00

 Cycle   5  Pass 1  IDiag  1:
 E= -78.3043687748507     Delta-E=       -0.000000467453 Rises=F Damp=F
 DIIS: error= 2.25D-06 at cycle   5 NSaved=   5.
 NSaved= 5 IEnMin= 5 EnMin= -78.3043687748507     IErMin= 5 ErrMin= 2.25D-06
 ErrMax= 2.25D-06  0.00D+00 EMaxC= 1.00D-01 BMatC= 6.69D-11 BMatP= 2.59D-07
 IDIUse=1 WtCom= 1.00D+00 WtEn= 0.00D+00
 Coeff-Com: -0.444D-03 0.660D-03 0.582D-01-0.251D+00 0.119D+01
 Coeff:     -0.444D-03 0.660D-03 0.582D-01-0.251D+00 0.119D+01
 Gap=     1.145 Goal=   None    Shift=    0.000
 RMSDP=9.02D-07 MaxDP=5.02D-06 DE=-4.67D-07 OVMax= 0.00D+00

 Cycle   6  Pass 1  IDiag  1:
 E= -78.3043687749603     Delta-E=       -0.000000000110 Rises=F Damp=F
 DIIS: error= 1.70D-07 at cycle   6 NSaved=   6.
 NSaved= 6 IEnMin= 6 EnMin= -78.3043687749603     IErMin= 6 ErrMin= 1.70D-07
 ErrMax= 1.70D-07  0.00D+00 EMaxC= 1.00D-01 BMatC= 5.25D-13 BMatP= 6.69D-11
 IDIUse=1 WtCom= 1.00D+00 WtEn= 0.00D+00
 Coeff-Com: -0.498D-05 0.166D-04 0.715D-03-0.293D-02-0.660D-01 0.107D+01
 Coeff:     -0.498D-05 0.166D-04 0.715D-03-0.293D-02-0.660D-01 0.107D+01
 Gap=     1.145 Goal=   None    Shift=    0.000
 RMSDP=8.30D-08 MaxDP=4.08D-07 DE=-1.10D-10 OVMax= 0.00D+00

 Cycle   7  Pass 1  IDiag  1:
 E= -78.3043687749612     Delta-E=       -0.000000000001 Rises=F Damp=F
 DIIS: error= 1.80D-08 at cycle   7 NSaved=   7.
 NSaved= 7 IEnMin= 7 EnMin= -78.3043687749612     IErMin= 7 ErrMin= 1.80D-08
 ErrMax= 1.80D-08  0.00D+00 EMaxC= 1.00D-01 BMatC= 8.08D-15 BMatP= 5.25D-13
 IDIUse=1 WtCom= 1.00D+00 WtEn= 0.00D+00
 Coeff-Com:  0.428D-05-0.539D-05-0.554D-03 0.240D-02-0.190D-01 0.104D+00
 Coeff-Com:  0.913D+00
 Coeff:      0.428D-05-0.539D-05-0.554D-03 0.240D-02-0.190D-01 0.104D+00
 Coeff:      0.913D+00
 Gap=     1.145 Goal=   None    Shift=    0.000
 RMSDP=8.44D-09 MaxDP=4.55D-08 DE=-9.38D-13 OVMax= 0.00D+00

 SCF Done:  E(RHF) =  -78.3043687750     A.U. after    7 cycles
            NFock=  7  Conv=0.84D-08     -V/T= 2.0071
 KE= 7.775268754931D+01 PE=-2.668259403573D+02 EE= 6.810187044394D+01
 Leave Link  502 at Wed Nov 19 18:17:00 2025, MaxMem=  1342177280 cpu:               0.5 elap:               0.3
 (Enter /gaussian/g16.c01/intel64-sandybridge/g16/l508.exe)
 QCSCF skips out because SCF is already converged.
 Leave Link  508 at Wed Nov 19 18:17:00 2025, MaxMem=  1342177280 cpu:               0.0 elap:               0.0
 (Enter /gaussian/g16.c01/intel64-sandybridge/g16/l601.exe)
 Copying SCF densities to generalized density rwf, IOpCl= 0 IROHF=0.

 **********************************************************************

            Population analysis using the SCF Density.

 **********************************************************************

 Orbital symmetries:
       Occupied  (A') (A') (A') (A') (A") (A') (A") (A') (A')
       Virtual   (A') (A') (A") (A') (A') (A") (A')
 The electronic state is 1-A'.
 Alpha  occ. eigenvalues --  -11.03354 -11.03322  -0.98747  -0.81664  -0.58102
 Alpha  occ. eigenvalues --   -0.58093  -0.46786  -0.46776  -0.46633
 Alpha virt. eigenvalues --    0.67831   0.67855   0.67865   0.74454   0.80410
 Alpha virt. eigenvalues --    0.80449   0.80517
          Condensed to atoms (all electrons):
               1          2          3          4          5          6
     1  C    4.723827   0.388922   0.389091   0.389091   0.358958  -0.021410
     2  H    0.388922   0.617517  -0.022036  -0.022036  -0.021400  -0.002375
     3  H    0.389091  -0.022036   0.617248  -0.022079  -0.021415   0.001989
     4  H    0.389091  -0.022036  -0.022079   0.617248  -0.021415  -0.002375
     5  C    0.358958  -0.021400  -0.021415  -0.021415   4.723948   0.389098
     6  H   -0.021410  -0.002375   0.001989  -0.002375   0.389098   0.617232
     7  H   -0.021410  -0.002375  -0.002375   0.001989   0.389098  -0.022068
     8  H   -0.021408   0.001988  -0.002374  -0.002374   0.389091  -0.022068
               7          8
     1  C   -0.021410  -0.021408
     2  H   -0.002375   0.001988
     3  H   -0.002375  -0.002374
     4  H    0.001989  -0.002374
     5  C    0.389098   0.389091
     6  H   -0.022068  -0.022068
     7  H    0.617232  -0.022068
     8  H   -0.022068   0.617245
 Mulliken charges:
               1
     1  C   -0.185660
     2  H    0.061795
     3  H    0.061952
     4  H    0.061952
     5  C   -0.185961
     6  H    0.061977
     7  H    0.061977
     8  H    0.061969
 Sum of Mulliken charges =   0.00000
 Mulliken charges with hydrogens summed into heavy atoms:
               1
     1  C    0.000039
     5  C   -0.000039
 Electronic spatial extent (au):  <R**2>=            106.0530
 Charge=              0.0000 electrons
 Dipole moment (field-independent basis, Debye):
    X=             -0.0001    Y=             -0.0001    Z=              0.0000  Tot=              0.0001
 Quadrupole moment (field-independent basis, Debye-Ang):
   XX=            -13.9918   YY=            -14.5651   ZZ=            -13.9930
   XY=             -0.0001   XZ=              0.0000   YZ=              0.0000
 Traceless Quadrupole moment (field-independent basis, Debye-Ang):
   XX=              0.1915   YY=             -0.3817   ZZ=              0.1903
   XY=             -0.0001   XZ=              0.0000   YZ=              0.0000
 Octapole moment (field-independent basis, Debye-Ang**2):
  XXX=              0.0013  YYY=             -0.0014  ZZZ=             -0.0000  XYY=             -0.0000
  XXY=              0.0010  XXZ=             -0.0000  XZZ=             -0.0002  YZZ=             -0.0005
  YYZ=              0.0000  XYZ=              0.0000
 Hexadecapole moment (field-independent basis, Debye-Ang**3):
 XXXX=            -24.7028 YYYY=            -84.1301 ZZZZ=            -24.6969 XXXY=              1.0889
 XXXZ=              0.0000 YYYX=             -0.0031 YYYZ=              0.0000 ZZZX=             -0.0000
 ZZZY=              0.0000 XXYY=            -17.1090 XXZZ=             -8.2338 YYZZ=            -17.1091
 XXYZ=              0.0000 YYXZ=              0.0000 ZZXY=             -1.0911
 N-N= 4.266701358912D+01 E-N=-2.668259403356D+02  KE= 7.775268754931D+01
 Symmetry A'   KE= 7.381516748813D+01
 Symmetry A"   KE= 3.937520061177D+00
 No NMR shielding tensors so no spin-rotation constants.
 Leave Link  601 at Wed Nov 19 18:17:00 2025, MaxMem=  1342177280 cpu:               0.3 elap:               0.1
 (Enter /gaussian/g16.c01/intel64-sandybridge/g16/l9999.exe)
 Unable to Open any file for archive entry.
 1\1\GINC-THIOTIMOLINE-LARGE01\SP\RHF\STO-3G\C2H6\LCRISCI_VB\19-Nov-202
 5\0\\#P hf/sto-3g scf=xqc\\External Calculation\\0,1\C,0,0.,0.,0.76999
 997\H,0,0.,1.0098058299,1.1266662599\H,0,0.8736514762,-0.504402915,1.1
 266662599\H,0,-0.8736514762,-0.504402915,1.1266662599\C,0,0.,0.,-0.769
 99997\H,0,-0.8736514762,0.504402915,-1.1266662599\H,0,0.8736514762,0.5
 04402915,-1.1266662599\H,0,0.,-1.0088058299,-1.1266662599\\Version=ES6
 4L-G16RevC.01\State=1-A'\HF=-78.3043688\RMSD=8.435e-09\Dipole=0.,-0.00
 0042,-0.0000287\Quadrupole=0.1414779,0.1423438,-0.2838217,0.,0.,-0.000
 0594\PG=CS [SG(C2H2),X(H4)]\\@
 The archive entry for this job was punched.


 CHINESE FORTUNE COOKIE OF JAN 1 1967 SAY....
 ALL THINGS ARE DIFFICULT BEFORE THEY ARE EASY.
 WE LEARN SO LITTLE AND FORGET SO MUCH.
 YOU WILL OVERCOME OBSTACLES TO ACHIEVE SUCCESS.
 AH SO.
 Job cpu time:       0 days  0 hours  0 minutes  2.2 seconds.
 Elapsed time:       0 days  0 hours  0 minutes  1.7 seconds.
 File lengths (MBytes):  RWF=      5 Int=      0 D2E=      0 Chk=      1 Scr=      1
 Normal termination of Gaussian 16 at Wed Nov 19 18:17:01 2025.
