External Calculation                                                    
SP        RHF                                                         STO-3G              
Number of atoms                            I                6
Info1-9                                    I   N=           9
          20          15           0           0           0         110
           1           1           2
Full Title                                 C   N=           2
External Calculation    
Route                                      C   N=           2
#P hf/sto-3g scf=xqc    
Charge                                     I                0
Multiplicity                               I                1
Number of electrons                        I               46
Number of alpha electrons                  I               23
Number of beta electrons                   I               23
Number of basis functions                  I               30
Number of independent functions            I               30
Number of point charges in /Mol/           I                0
Number of translation vectors              I                0
Atomic numbers                             I   N=           6
           6           1           6           1          16          16
Nuclear charges                            R   N=           6
  6.00000000E+00  1.00000000E+00  6.00000000E+00  1.00000000E+00  1.60000000E+01
  1.60000000E+01
Current cartesian coordinates              R   N=          18
  0.00000000E+00  1.28010777E+00  0.00000000E+00  1.75353524E+00  2.28689785E+00
 -2.46519033E-32 -1.08578998E-03 -1.28084886E+00  8.93150012E-33 -1.75462103E+00
 -2.28763894E+00  2.46519033E-32  2.90613269E+00 -2.97439717E+00  4.93038066E-32
 -2.90565766E+00  2.97472140E+00 -4.93038066E-32
Number of symbols in /Mol/                 I                0
Int Atom Types                             I   N=           6
           0           0           0           0           0           0
Force Field                                I                0
Atom Types                                 C   N=           6
                                                            
            
MM charges                                 R   N=           6
  0.00000000E+00  0.00000000E+00  0.00000000E+00  0.00000000E+00  0.00000000E+00
  0.00000000E+00
Integer atomic weights                     I   N=           6
          12           1          12           1          32          32
Real atomic weights                        R   N=           6
  1.20000000E+01  1.00782504E+00  1.20000000E+01  1.00782504E+00  3.19720718E+01
  3.19720718E+01
Atom fragment info                         I   N=           6
           0           0           0           0           0           0
Atom residue num                           I   N=           6
           0           0           0           0           0           0
Nuclear spins                              I   N=           6
           0           1           0           1           0           0
Nuclear ZEff                               R   N=           6
 -3.60000000E+00 -1.00000000E+00 -3.60000000E+00 -1.00000000E+00 -1.36000000E+01
 -1.36000000E+01
Nuclear ZNuc                               R   N=           6
  6.00000000E+00  1.00000000E+00  6.00000000E+00  1.00000000E+00  1.60000000E+01
  1.60000000E+01
Nuclear QMom                               R   N=           6
  0.00000000E+00  0.00000000E+00  0.00000000E+00  0.00000000E+00  0.00000000E+00
  0.00000000E+00
Nuclear GFac                               R   N=           6
  0.00000000E+00  2.79284600E+00  0.00000000E+00  2.79284600E+00  0.00000000E+00
  0.00000000E+00
MicOpt                                     I   N=           6
          -1          -1          -1          -1          -1          -1
Number of residues                         I                0
Number of secondary structures             I                0
SymInf integers                            I   N=          26
           1           2           1           1           1           1
           1          -1           0           0           0           0
           0           0           0           0           0           0
           0           0           0           0           0           0
           0           0
RotTr to input orientation                 R   N=          12
 -8.25952015E-01 -5.63740427E-01 -1.22464680E-16 -5.63740427E-01  8.25952015E-01
  0.00000000E+00  1.01149949E-16  6.90382909E-17 -1.00000000E+00 -6.57296043E-04
  0.00000000E+00  0.00000000E+00
Number of contracted shells                I               12
Number of primitive shells                 I               36
Pure/Cartesian d shells                    I                0
Pure/Cartesian f shells                    I                0
Highest angular momentum                   I                1
Largest degree of contraction              I                3
Shell types                                I   N=          12
           0          -1           0           0          -1           0
           0          -1          -1           0          -1          -1
Number of primitives per shell             I   N=          12
           3           3           3           3           3           3
           3           3           3           3           3           3
Shell to atom map                          I   N=          12
           1           1           2           3           3           4
           5           5           5           6           6           6
Primitive exponents                        R   N=          36
  7.16168373E+01  1.30450963E+01  3.53051216E+00  2.94124936E+00  6.83483096E-01
  2.22289916E-01  3.42525091E+00  6.23913730E-01  1.68855404E-01  7.16168373E+01
  1.30450963E+01  3.53051216E+00  2.94124936E+00  6.83483096E-01  2.22289916E-01
  3.42525091E+00  6.23913730E-01  1.68855404E-01  5.33125736E+02  9.71095183E+01
  2.62816254E+01  3.33297517E+01  7.74511752E+00  2.51895260E+00  2.02919427E+00
  5.66140052E-01  2.21583379E-01  5.33125736E+02  9.71095183E+01  2.62816254E+01
  3.33297517E+01  7.74511752E+00  2.51895260E+00  2.02919427E+00  5.66140052E-01
  2.21583379E-01
Contraction coefficients                   R   N=          36
  1.54328967E-01  5.35328142E-01  4.44634542E-01 -9.99672292E-02  3.99512826E-01
  7.00115469E-01  1.54328967E-01  5.35328142E-01  4.44634542E-01  1.54328967E-01
  5.35328142E-01  4.44634542E-01 -9.99672292E-02  3.99512826E-01  7.00115469E-01
  1.54328967E-01  5.35328142E-01  4.44634542E-01  1.54328967E-01  5.35328142E-01
  4.44634542E-01 -9.99672292E-02  3.99512826E-01  7.00115469E-01 -2.19620369E-01
  2.25595434E-01  9.00398426E-01  1.54328967E-01  5.35328142E-01  4.44634542E-01
 -9.99672292E-02  3.99512826E-01  7.00115469E-01 -2.19620369E-01  2.25595434E-01
  9.00398426E-01
P(S=P) Contraction coefficients            R   N=          36
  0.00000000E+00  0.00000000E+00  0.00000000E+00  1.55916275E-01  6.07683719E-01
  3.91957393E-01  0.00000000E+00  0.00000000E+00  0.00000000E+00  0.00000000E+00
  0.00000000E+00  0.00000000E+00  1.55916275E-01  6.07683719E-01  3.91957393E-01
  0.00000000E+00  0.00000000E+00  0.00000000E+00  0.00000000E+00  0.00000000E+00
  0.00000000E+00  1.55916275E-01  6.07683719E-01  3.91957393E-01  1.05876043E-02
  5.95167005E-01  4.62001012E-01  0.00000000E+00  0.00000000E+00  0.00000000E+00
  1.55916275E-01  6.07683719E-01  3.91957393E-01  1.05876043E-02  5.95167005E-01
  4.62001012E-01
Coordinates of each shell                  R   N=          36
  0.00000000E+00  1.28010777E+00  0.00000000E+00  0.00000000E+00  1.28010777E+00
  0.00000000E+00  1.75353524E+00  2.28689785E+00  0.00000000E+00 -1.08578998E-03
 -1.28084886E+00  0.00000000E+00 -1.08578998E-03 -1.28084886E+00  0.00000000E+00
 -1.75462103E+00 -2.28763894E+00  0.00000000E+00  2.90613269E+00 -2.97439717E+00
  0.00000000E+00  2.90613269E+00 -2.97439717E+00  0.00000000E+00  2.90613269E+00
 -2.97439717E+00  0.00000000E+00 -2.90565766E+00  2.97472140E+00  0.00000000E+00
 -2.90565766E+00  2.97472140E+00  0.00000000E+00 -2.90565766E+00  2.97472140E+00
  0.00000000E+00
Num ILSW                                   I              100
ILSW                                       I   N=         100
           0           0           0           0           2           0
           0           0           0           0           0          -1
           5           0           0           0           0           0
           0           0           0           0           0           0
           1           0           0           0           0           0
           0           0      100000           0          -1           0
           0           0           0           0           0           0
           0           0           0           1           0           0
           0 -2000000000           1           0           0           0
           0           0           4          52           0           0
           0           0           0           0           0           0
           0           0           0           6           0           1
           0           0           0           0           0           0
           0           0           0           0           0           0
           0           0           0           0           0           0
           0           0           0           0           0           0
           0           0           0           0
Num RLSW                                   I               52
RLSW                                       R   N=          52
  1.00000000E+00  1.00000000E+00  1.00000000E+00  1.00000000E+00  1.00000000E+00
  0.00000000E+00  0.00000000E+00  1.00000000E+00  0.00000000E+00  0.00000000E+00
  0.00000000E+00  0.00000000E+00  1.00000000E+00  0.00000000E+00  0.00000000E+00
  0.00000000E+00  0.00000000E+00  1.00000000E+00  0.00000000E+00  0.00000000E+00
  0.00000000E+00  0.00000000E+00  1.00000000E+00  0.00000000E+00  0.00000000E+00
  0.00000000E+00  0.00000000E+00  1.00000000E+00  0.00000000E+00  0.00000000E+00
  0.00000000E+00  0.00000000E+00  1.00000000E+00  0.00000000E+00  0.00000000E+00
  0.00000000E+00  0.00000000E+00  0.00000000E+00  1.00000000E+00  1.00000000E+00
  0.00000000E+00  1.00000000E+00  0.00000000E+00  0.00000000E+00  0.00000000E+00
  0.00000000E+00  0.00000000E+00  0.00000000E+00  0.00000000E+00  0.00000000E+00
  0.00000000E+00  0.00000000E+00
MxBond                                     I                3
NBond                                      I   N=           6
           3           1           3           1           1           1
IBond                                      I   N=          18
           2           3           6           1           0           0
           1           4           5           3           0           0
           3           0           0           1           0           0
RBond                                      R   N=          18
  1.00000000E+00  2.00000000E+00  1.00000000E+00  1.00000000E+00  0.00000000E+00
  0.00000000E+00  2.00000000E+00  1.00000000E+00  1.00000000E+00  1.00000000E+00
  0.00000000E+00  0.00000000E+00  1.00000000E+00  0.00000000E+00  0.00000000E+00
  1.00000000E+00  0.00000000E+00  0.00000000E+00
Virial Ratio                               R      2.010923658566731E+00
SCF Energy                                 R     -8.621594537011360E+02
Total Energy                               R     -8.621594537011360E+02
RMS Density                                R      7.466492936515187E-09
Job Status                                 I                1
Nuclear derivative order                   I                0
External E-field                           R   N=          35
  0.00000000E+00  0.00000000E+00  0.00000000E+00  0.00000000E+00  0.00000000E+00
  0.00000000E+00  0.00000000E+00  0.00000000E+00  0.00000000E+00  0.00000000E+00
  0.00000000E+00  0.00000000E+00  0.00000000E+00  0.00000000E+00  0.00000000E+00
  0.00000000E+00  0.00000000E+00  0.00000000E+00  0.00000000E+00  0.00000000E+00
  0.00000000E+00  0.00000000E+00  0.00000000E+00  0.00000000E+00  0.00000000E+00
  0.00000000E+00  0.00000000E+00  0.00000000E+00  0.00000000E+00  0.00000000E+00
  0.00000000E+00  0.00000000E+00  0.00000000E+00  0.00000000E+00  0.00000000E+00
IOpCl                                      I                0
IROHF                                      I                0
Alpha Orbital Energies                     R   N=          30
 -9.07030657E+01 -9.07030362E+01 -1.10470781E+01 -1.10466271E+01 -8.61374751E+00
 -8.61369672E+00 -6.24455158E+00 -6.24452234E+00 -6.24433652E+00 -6.24428850E+00
 -6.24050085E+00 -6.24047062E+00 -1.02985760E+00 -8.75043381E-01 -7.52913460E-01
 -7.08198049E-01 -5.46408308E-01 -4.64016219E-01 -3.75937062E-01 -3.61240927E-01
 -2.52689173E-01 -2.45694616E-01 -1.93291590E-01  7.58991187E-02  3.18101563E-01
  4.48404195E-01  5.22100091E-01  6.57993455E-01  8.58213444E-01  9.22144428E-01
Alpha MO coefficients                      R   N=         900
 -6.57553309E-05  4.71135896E-04 -3.87265497E-04  2.19138442E-04  0.00000000E+00
  1.02791428E-05  1.49271582E-06 -3.31697429E-05  2.02831616E-05  1.64758159E-05
  0.00000000E+00  4.53299374E-05 -2.18544009E-02 -3.77082000E-04  3.27597223E-06
 -3.05217602E-06  0.00000000E+00  5.45302920E-05 -7.25967772E-06  9.32303739E-06
  0.00000000E+00  9.93924684E-01  1.71052278E-02  1.35834434E-04 -7.83490480E-05
  0.00000000E+00 -2.29286031E-03 -2.66563747E-04  1.56228267E-04  0.00000000E+00
 -1.39985743E-06 -1.25166095E-05 -3.73118778E-05 -6.85260893E-06  0.00000000E+00
  4.58677847E-05 -6.57289424E-05  4.69725904E-04  3.88431432E-04 -2.18292189E-04
  0.00000000E+00  1.23063508E-05  9.93924706E-01  1.71051633E-02 -1.35789701E-04
  7.81670245E-05  0.00000000E+00 -2.29237069E-03  2.66288040E-04 -1.55663846E-04
  0.00000000E+00  2.18549505E-02  3.75145285E-04  2.69682800E-06 -3.89115145E-07
  0.00000000E+00 -4.62882460E-05 -4.45614507E-06 -2.46640543E-06  0.00000000E+00
  6.90030743E-01  1.86738062E-02  7.67025394E-04  1.92119681E-03  0.00000000E+00
 -4.83308488E-03  7.13651742E-01  1.96867280E-02 -7.89220838E-04 -1.75627102E-03
  0.00000000E+00 -5.00145615E-03 -5.55891412E-05  1.10601083E-04 -3.22425025E-04
  2.16849850E-04  0.00000000E+00 -2.86398624E-03  2.46056091E-03 -1.56254263E-03
  0.00000000E+00 -5.38135980E-05  1.07793801E-04  3.11395743E-04 -2.10918541E-04
  0.00000000E+00 -2.76614833E-03 -2.37440778E-03  1.51369834E-03  0.00000000E+00
  7.13158106E-01  3.04610049E-02  6.32482381E-04 -4.79602035E-03  0.00000000E+00
 -5.08558243E-03 -6.89520940E-01 -2.98122761E-02  6.08413101E-04 -4.86005972E-03
  0.00000000E+00  4.91984477E-03  5.23786687E-05 -7.78875737E-05  3.20995936E-04
 -1.78573259E-04  0.00000000E+00  2.92179403E-03 -2.53284333E-03  1.48250416E-03
  0.00000000E+00 -5.42473342E-05  8.14528196E-05  3.31667275E-04 -1.86074004E-04
  0.00000000E+00 -3.01920110E-03 -2.61496838E-03  1.53694918E-03  0.00000000E+00
  1.00759961E-03 -7.42325798E-03  5.30640318E-03 -3.20417989E-03  0.00000000E+00
  1.89588187E-04 -5.38719909E-04  4.36302050E-03  2.85239504E-03 -1.93766031E-03
  0.00000000E+00 -5.56309327E-04  1.79890141E-01 -5.12647765E-01  4.61577022E-03
 -2.64673037E-03  0.00000000E+00 -2.45455352E-02  2.71365718E-03 -1.64977299E-03
  0.00000000E+00 -3.20485859E-01  9.13316077E-01  8.22728518E-03 -4.73383057E-03
  0.00000000E+00  4.36248642E-02  4.78393782E-03 -2.84007366E-03  0.00000000E+00
  6.17321793E-04 -3.78336395E-03  3.21961283E-03 -1.52679662E-03  0.00000000E+00
 -7.58761815E-04  1.05175792E-03 -7.09030215E-03 -5.51167748E-03  2.96827339E-03
  0.00000000E+00 -5.48608207E-04 -3.20491623E-01  9.13333342E-01 -8.23158991E-03
  4.73785554E-03  0.00000000E+00  4.35209702E-02 -4.73184362E-03  2.73919433E-03
  0.00000000E+00 -1.79899949E-01  5.12677419E-01  4.62283572E-03 -2.66987610E-03
  0.00000000E+00  2.43706319E-02  2.62770048E-03 -1.48186158E-03  0.00000000E+00
  0.00000000E+00  0.00000000E+00  0.00000000E+00  0.00000000E+00 -3.87597425E-03
  0.00000000E+00  0.00000000E+00  0.00000000E+00  0.00000000E+00  0.00000000E+00
 -5.66145031E-04  0.00000000E+00  0.00000000E+00  0.00000000E+00  0.00000000E+00
  0.00000000E+00  2.02003662E-01  0.00000000E+00  0.00000000E+00  0.00000000E+00
  1.08623002E-02  0.00000000E+00  0.00000000E+00  0.00000000E+00  0.00000000E+00
  9.64189735E-01  0.00000000E+00  0.00000000E+00  0.00000000E+00  5.17505891E-02
  0.00000000E+00  0.00000000E+00  0.00000000E+00  0.00000000E+00  1.07926729E-03
  0.00000000E+00  0.00000000E+00  0.00000000E+00  0.00000000E+00  0.00000000E+00
 -3.98050688E-03  0.00000000E+00  0.00000000E+00  0.00000000E+00  0.00000000E+00
  0.00000000E+00  9.64192735E-01  0.00000000E+00  0.00000000E+00  0.00000000E+00
  5.17407117E-02  0.00000000E+00  0.00000000E+00  0.00000000E+00  0.00000000E+00
 -2.02016708E-01  0.00000000E+00  0.00000000E+00  0.00000000E+00 -1.08204255E-02
  1.23287416E-03 -1.20245746E-02  8.12292524E-03 -4.77301556E-03  0.00000000E+00
  2.46973032E-04 -6.13027818E-04  6.52973992E-03  4.04824321E-03 -2.55267560E-03
  0.00000000E+00 -5.40763495E-04 -2.27825689E-03  6.64293694E-03  3.90948037E-01
 -2.33079615E-01  0.00000000E+00 -3.39430380E-03  2.40468435E-02 -1.43659523E-02
  0.00000000E+00  4.35339815E-03 -1.26920469E-02  7.51535991E-01 -4.41717662E-01
  0.00000000E+00  6.37234147E-03  4.61500026E-02 -2.71204269E-02  0.00000000E+00
 -6.97900707E-04  5.83050983E-03 -4.57761089E-03  2.38116277E-03  0.00000000E+00
  5.92675924E-04 -1.27766415E-03  1.16488847E-02  8.39913982E-03 -4.67617949E-03
  0.00000000E+00  3.45385552E-04 -4.34261253E-03  1.26596810E-02  7.54072087E-01
 -4.37413626E-01  0.00000000E+00 -6.26408501E-03  4.62387121E-02 -2.67718762E-02
  0.00000000E+00 -2.26210217E-03  6.59370498E-03 -3.95202687E-01  2.25864270E-01
  0.00000000E+00 -3.20339341E-03 -2.41933906E-02  1.37687507E-02  0.00000000E+00
 -2.11797180E-06  3.71276293E-04 -1.99610569E-03 -3.69760907E-03  0.00000000E+00
  2.83679986E-04 -5.09425422E-05 -9.93174474E-04 -9.32674445E-04 -1.19651070E-03
  0.00000000E+00  7.37325087E-04 -2.20131288E-05  6.90461505E-05  1.30025490E-01
  2.13366293E-01  0.00000000E+00  1.17223699E-04  6.57380773E-03  1.09708014E-02
  0.00000000E+00  2.54191953E-05 -7.50908564E-05  4.82161486E-01  8.22852309E-01
  0.00000000E+00 -3.38861752E-05  2.46330819E-02  4.20046815E-02  0.00000000E+00
  5.96257577E-05  9.30956928E-04  5.04006286E-05  7.08258408E-04  0.00000000E+00
 -1.00701979E-03  3.09582942E-05  1.33550531E-04 -1.76258179E-03 -3.56742972E-03
  0.00000000E+00 -7.41619029E-04 -1.71600853E-05  4.84168661E-05  4.79555946E-01
  8.24378972E-01  0.00000000E+00 -2.68051281E-05  2.45384590E-02  4.20376034E-02
  0.00000000E+00  1.05080415E-05 -3.56843097E-05 -1.21962013E-01 -2.18092628E-01
  0.00000000E+00 -1.16018515E-04 -6.31071628E-03 -1.10418910E-02  0.00000000E+00
 -1.66597479E-01  4.50875882E-01 -1.23610569E-02 -9.62795423E-02  0.00000000E+00
  1.03819266E-01 -1.66538336E-01  4.50724677E-01  1.22876912E-02  9.63713750E-02
  0.00000000E+00  1.03789538E-01  2.43008205E-02 -8.36075471E-02  2.49481753E-02
 -1.78413925E-02  0.00000000E+00  2.21985698E-01 -5.60554986E-02  3.98918332E-02
  0.00000000E+00  2.43310547E-02 -8.37132322E-02 -2.49734394E-02  1.78738456E-02
  0.00000000E+00  2.22246559E-01  5.61071597E-02 -3.99617010E-02  0.00000000E+00
 -8.97850629E-02  2.75738462E-01 -8.76861729E-02  1.21749897E-01  0.00000000E+00
  8.08248893E-02  8.99162495E-02 -2.76117710E-01 -8.75774583E-02  1.21448185E-01
  0.00000000E+00 -8.09408513E-02 -5.29827438E-02  1.80453554E-01 -3.35678260E-02
  1.73556139E-02  0.00000000E+00 -5.21381800E-01  7.79082408E-02 -4.03958360E-02
  0.00000000E+00  5.30075515E-02 -1.80540786E-01 -3.35794601E-02  1.73751326E-02
  0.00000000E+00  5.21598027E-01  7.79240257E-02 -4.04336838E-02  0.00000000E+00
  6.23311092E-02 -1.75544615E-01 -1.13869947E-01  1.89886558E-01  0.00000000E+00
 -7.02365076E-02  6.23926149E-02 -1.75704282E-01  1.14197183E-01 -1.89781478E-01
  0.00000000E+00 -7.05122914E-02  5.97202823E-02 -2.00995593E-01  6.48589677E-03
  3.42395799E-03  0.00000000E+00  6.28649237E-01 -1.31549381E-02 -1.16658168E-02
  0.00000000E+00  5.96454991E-02 -2.00744922E-01 -6.49346870E-03 -3.43542904E-03
  0.00000000E+00  6.27851948E-01  1.31782460E-02  1.16987625E-02  0.00000000E+00
 -9.09495902E-02  2.90022986E-01  2.55609719E-01  1.30497950E-01  0.00000000E+00
  3.08088902E-01  9.08785750E-02 -2.89816241E-01  2.55465988E-01  1.30793666E-01
  0.00000000E+00 -3.08041686E-01  2.45396939E-02 -8.21532703E-02 -1.67778319E-02
 -1.20944433E-02  0.00000000E+00  2.65229883E-01  4.76972219E-02  3.36040996E-02
  0.00000000E+00 -2.46136996E-02  8.24004942E-02 -1.67977015E-02 -1.20800483E-02
  0.00000000E+00 -2.66035950E-01  4.77488244E-02  3.35618785E-02  0.00000000E+00
 -6.07239507E-04  2.11505882E-02  1.96043714E-01  4.22519095E-01  0.00000000E+00
  3.43484322E-01 -6.23988613E-04  2.12129320E-02 -1.95965870E-01 -4.22512811E-01
  0.00000000E+00  3.43507589E-01 -8.94505266E-03  2.91927863E-02  3.08806000E-02
  2.30778832E-02  0.00000000E+00 -1.07502745E-01 -8.84479876E-02 -6.95954953E-02
  0.00000000E+00 -8.95555615E-03  2.92255197E-02 -3.09387887E-02 -2.30951439E-02
  0.00000000E+00 -1.07647346E-01  8.86077016E-02  6.96529974E-02  0.00000000E+00
  6.31584147E-02 -2.55881217E-01  3.20749477E-01 -9.61743134E-02  0.00000000E+00
  7.67786848E-02 -6.31501298E-02  2.55834602E-01  3.20605028E-01 -9.60888561E-02
  0.00000000E+00 -7.66930536E-02 -3.39116704E-02  1.09051935E-01  9.98151188E-02
 -8.03601966E-02  0.00000000E+00 -4.31450774E-01 -2.84267893E-01  2.34894470E-01
  0.00000000E+00  3.39304085E-02 -1.09108205E-01  9.98445897E-02 -8.04736432E-02
  0.00000000E+00  4.31737307E-01 -2.84332742E-01  2.35210786E-01  0.00000000E+00
  0.00000000E+00  0.00000000E+00  0.00000000E+00  0.00000000E+00  5.37051735E-01
  0.00000000E+00  0.00000000E+00  0.00000000E+00  0.00000000E+00  0.00000000E+00
  5.36852813E-01  0.00000000E+00  0.00000000E+00  0.00000000E+00  0.00000000E+00
  0.00000000E+00 -1.03255726E-01  0.00000000E+00  0.00000000E+00  0.00000000E+00
  3.23359297E-01  0.00000000E+00  0.00000000E+00  0.00000000E+00  0.00000000E+00
 -1.03342217E-01  0.00000000E+00  0.00000000E+00  0.00000000E+00  3.23620494E-01
  2.28187841E-02 -1.32721050E-01  3.40175572E-01 -1.96170413E-01  0.00000000E+00
  1.90742791E-01  2.28747110E-02 -1.32980191E-01 -3.40400464E-01  1.96227788E-01
  0.00000000E+00  1.90728851E-01  1.86178374E-02 -5.81175117E-02 -1.43001465E-01
  5.53642568E-02  0.00000000E+00  2.60373661E-01  4.28855200E-01 -1.59439336E-01
  0.00000000E+00  1.86061376E-02 -5.80769779E-02  1.42904399E-01 -5.54463908E-02
  0.00000000E+00  2.60258970E-01 -4.28551566E-01  1.59683107E-01  0.00000000E+00
  1.44569734E-02 -6.15022238E-02 -5.05060562E-02  4.62171976E-02  0.00000000E+00
 -9.41183053E-02 -1.44664243E-02  6.15392760E-02 -5.04033166E-02  4.63733835E-02
  0.00000000E+00  9.38730381E-02  9.16620099E-04 -2.75182208E-03 -1.23969933E-01
 -1.82044918E-01  0.00000000E+00  1.44208889E-02  4.05318946E-01  6.01400239E-01
  0.00000000E+00 -9.15142174E-04  2.74660112E-03 -1.24151663E-01 -1.82075321E-01
  0.00000000E+00 -1.44079127E-02  4.05918998E-01  6.01507881E-01  0.00000000E+00
  1.46467738E-02 -5.32552160E-02 -2.07770845E-02  1.13854744E-01  0.00000000E+00
  9.55179250E-02  1.46416202E-02 -5.32399750E-02  2.08049990E-02 -1.13883321E-01
  0.00000000E+00  9.55263278E-02 -1.34368940E-03  3.99771393E-03 -8.52441327E-02
 -2.02162155E-01  0.00000000E+00 -2.13053071E-02  2.86143759E-01  6.65061643E-01
  0.00000000E+00 -1.34344662E-03  3.99635011E-03  8.52966177E-02  2.01992908E-01
  0.00000000E+00 -2.13096260E-02 -2.86321238E-01 -6.64502303E-01  0.00000000E+00
  0.00000000E+00  0.00000000E+00  0.00000000E+00  0.00000000E+00 -2.97072078E-01
  0.00000000E+00  0.00000000E+00  0.00000000E+00  0.00000000E+00  0.00000000E+00
  2.97341885E-01  0.00000000E+00  0.00000000E+00  0.00000000E+00  0.00000000E+00
  0.00000000E+00 -2.00170800E-01  0.00000000E+00  0.00000000E+00  0.00000000E+00
  6.46472050E-01  0.00000000E+00  0.00000000E+00  0.00000000E+00  0.00000000E+00
  2.00105880E-01  0.00000000E+00  0.00000000E+00  0.00000000E+00 -6.46257413E-01
  0.00000000E+00  0.00000000E+00  0.00000000E+00  0.00000000E+00 -3.52698114E-01
  0.00000000E+00  0.00000000E+00  0.00000000E+00  0.00000000E+00  0.00000000E+00
 -3.52940207E-01  0.00000000E+00  0.00000000E+00  0.00000000E+00  0.00000000E+00
  0.00000000E+00 -1.99974734E-01  0.00000000E+00  0.00000000E+00  0.00000000E+00
  6.61889234E-01  0.00000000E+00  0.00000000E+00  0.00000000E+00  0.00000000E+00
 -1.99954610E-01  0.00000000E+00  0.00000000E+00  0.00000000E+00  6.61827896E-01
  0.00000000E+00  0.00000000E+00  0.00000000E+00  0.00000000E+00  7.56528592E-01
  0.00000000E+00  0.00000000E+00  0.00000000E+00  0.00000000E+00  0.00000000E+00
 -7.56431755E-01  0.00000000E+00  0.00000000E+00  0.00000000E+00  0.00000000E+00
  0.00000000E+00 -1.02756462E-01  0.00000000E+00  0.00000000E+00  0.00000000E+00
  3.53331615E-01  0.00000000E+00  0.00000000E+00  0.00000000E+00  0.00000000E+00
  1.02843883E-01  0.00000000E+00  0.00000000E+00  0.00000000E+00 -3.53642278E-01
  9.48296435E-02 -5.03151442E-01  4.64648817E-01 -1.45669652E-01  0.00000000E+00
 -3.84308168E-02 -9.52562557E-02  5.05512689E-01  4.65890916E-01 -1.47254940E-01
  0.00000000E+00  3.70038621E-02 -2.08728897E-02  6.22060128E-02 -1.68334434E-01
  1.08613212E-01  0.00000000E+00 -3.32637503E-01  6.18579863E-01 -3.99085679E-01
  0.00000000E+00  2.08027085E-02 -6.19925535E-02 -1.67597991E-01  1.08414118E-01
  0.00000000E+00  3.31574258E-01  6.15925259E-01 -3.98374910E-01  0.00000000E+00
 -1.06771147E-01  6.28031842E-01 -3.00330948E-01  4.32628181E-01  0.00000000E+00
 -3.50960338E-01 -1.06392017E-01  6.25921215E-01  2.97994887E-01 -4.32298109E-01
  0.00000000E+00 -3.51780090E-01 -1.85267953E-02  5.43098400E-02 -1.58241818E-01
  7.09008781E-02  0.00000000E+00 -3.06439833E-01  5.90575255E-01 -2.66644888E-01
  0.00000000E+00 -1.86228026E-02  5.45865344E-02  1.58893023E-01 -7.14649986E-02
  0.00000000E+00 -3.08088575E-01 -5.93063728E-01  2.68776677E-01  0.00000000E+00
  1.28001904E-01 -8.07176967E-01 -4.82909791E-01 -1.28811594E-01  0.00000000E+00
  9.08119991E-01 -1.27929185E-01  8.06734979E-01 -4.83091038E-01 -1.28521270E-01
  0.00000000E+00 -9.07881447E-01 -2.15551293E-03  7.14561241E-03 -1.86588043E-02
 -7.92078208E-04  0.00000000E+00 -2.72891908E-02  6.85830474E-02  3.94769329E-03
  0.00000000E+00  2.16930081E-03 -7.18486007E-03 -1.87749322E-02 -7.35388547E-04
  0.00000000E+00  2.75303276E-02  6.90339756E-02  3.73256281E-03  0.00000000E+00
 -5.10538719E-02  3.81290925E-01  8.55135843E-01  2.13791647E-01  0.00000000E+00
 -8.19724953E-01 -5.11628737E-02  3.82089179E-01 -8.55046817E-01 -2.12987759E-01
  0.00000000E+00 -8.19627563E-01  7.98575016E-03 -2.17334698E-02  3.96830844E-02
 -4.43074185E-02  0.00000000E+00  1.52538331E-01 -1.62946210E-01  1.78059948E-01
  0.00000000E+00  7.98627912E-03 -2.17320895E-02 -3.96420079E-02  4.43623168E-02
  0.00000000E+00  1.52585731E-01  1.62802528E-01 -1.78296945E-01  0.00000000E+00
  1.14081195E-01 -8.46408030E-01  5.12855065E-02  1.12459868E+00  0.00000000E+00
 -1.35275521E-01 -1.14080520E-01  8.46360662E-01  5.20618796E-02  1.12459179E+00
  0.00000000E+00  1.35817960E-01  1.84514871E-03 -5.04208884E-03  2.42641476E-02
  1.78411981E-02  0.00000000E+00  3.45084114E-02 -9.62147199E-02 -7.08326486E-02
  0.00000000E+00 -1.86107690E-03  5.08368747E-03  2.43850262E-02  1.77848157E-02
  0.00000000E+00 -3.48398219E-02 -9.67233351E-02 -7.05977719E-02  0.00000000E+00
Orthonormal basis                          R   N=         900
  1.14112224E-01  3.59801380E-01  1.60352878E-02 -1.32479060E-01  0.00000000E+00
  2.07046387E-01  1.14071174E-01  3.59688219E-01 -1.60551042E-02  1.32594573E-01
  0.00000000E+00  2.06950915E-01  9.95717519E-03  2.84055455E-02 -2.36239244E-02
  2.03664460E-02  0.00000000E+00  9.48014577E-02 -9.48492215E-02  8.21891123E-02
  0.00000000E+00  9.96900394E-03  2.84384763E-02  2.36427622E-02 -2.03874803E-02
  0.00000000E+00  9.48948244E-02  9.49181167E-02 -8.22685080E-02  0.00000000E+00
 -1.01545908E-01 -2.24896521E-01 -1.93505179E-01 -2.18473456E-01  0.00000000E+00
 -3.25380423E-01  1.01627485E-01  2.25080277E-01 -1.93583843E-01 -2.18192196E-01
  0.00000000E+00  3.25464265E-01  1.29213311E-02  2.80292483E-02 -3.95874149E-02
 -9.81010252E-03  0.00000000E+00  6.25411827E-02 -1.16128849E-01 -2.95934525E-02
  0.00000000E+00 -1.29560434E-02 -2.81031451E-02 -3.96514110E-02 -9.79775484E-03
  0.00000000E+00 -6.26781451E-02 -1.16301386E-01 -2.95626797E-02  0.00000000E+00
 -4.94599585E-02 -1.12768888E-01  3.44061504E-01 -1.08546103E-01  0.00000000E+00
  7.67045600E-02  4.95169228E-02  1.12883766E-01  3.43984345E-01 -1.08183034E-01
  0.00000000E+00 -7.66878110E-02  6.24410791E-02  1.23615164E-01 -7.38621292E-02
  5.92868732E-02  0.00000000E+00  2.21055088E-01 -1.84965164E-01  1.51801726E-01
  0.00000000E+00 -6.24849696E-02 -1.23699975E-01 -7.38663187E-02  5.93328703E-02
  0.00000000E+00 -2.21162250E-01 -1.84952085E-01  1.51900707E-01  0.00000000E+00
  3.30485744E-02  1.65622638E-02  6.69772673E-02 -3.93630977E-01  0.00000000E+00
 -9.00922842E-02  3.28934068E-02  1.63072524E-02 -6.70948692E-02  3.93847695E-01
  0.00000000E+00 -9.02881453E-02 -1.49016833E-01 -2.15677238E-01  1.04908263E-01
  1.81026405E-02  0.00000000E+00 -2.09298784E-01  1.89361140E-01  3.96139342E-02
  0.00000000E+00 -1.48919225E-01 -2.15534188E-01 -1.04817321E-01 -1.81067172E-02
  0.00000000E+00 -2.09123014E-01 -1.89180154E-01 -3.96296048E-02  0.00000000E+00
 -5.90893230E-03 -1.62207762E-02 -1.91181896E-01 -2.40573919E-01  0.00000000E+00
 -2.31241306E-01 -5.96583020E-03 -1.62974886E-02  1.91102027E-01  2.40635479E-01
  0.00000000E+00 -2.31274734E-01  2.44877875E-01  2.95104628E-01  6.46848901E-02
  7.22073987E-02  0.00000000E+00  1.62544253E-01  1.01890851E-01  1.10210371E-01
  0.00000000E+00  2.44774090E-01  2.94979519E-01 -6.47879319E-02 -7.23082374E-02
  0.00000000E+00  1.62473972E-01 -1.02048853E-01 -1.10364044E-01  0.00000000E+00
 -3.76077026E-02 -4.20429638E-02  7.91145545E-02 -3.60421883E-02  0.00000000E+00
  4.91166109E-03  3.76109257E-02  4.20594840E-02  7.91903844E-02 -3.59782737E-02
  0.00000000E+00 -4.97451553E-03 -3.36976255E-01 -3.80907209E-01 -1.22297053E-01
  8.49300907E-02  0.00000000E+00 -1.56693835E-01 -1.74069449E-01  1.21342414E-01
  0.00000000E+00  3.37077324E-01  3.81021824E-01 -1.22276992E-01  8.49856981E-02
  0.00000000E+00  1.56748626E-01 -1.74037143E-01  1.21419136E-01  0.00000000E+00
  1.10486952E-02  4.08677717E-03  2.60710434E-01 -2.17110619E-03  0.00000000E+00
  1.89995477E-01  1.10637803E-02  4.08364669E-03 -2.60721588E-01  2.18975753E-03
  0.00000000E+00  1.89987927E-01  1.66570023E-01  1.62058141E-01  2.26818017E-01
 -1.97492073E-01  0.00000000E+00  1.83135799E-02  2.70568335E-01 -2.36914875E-01
  0.00000000E+00  1.66587934E-01  1.62076437E-01 -2.26456000E-01  1.97867487E-01
  0.00000000E+00  1.83343325E-02 -2.70117748E-01  2.37366119E-01  0.00000000E+00
 -5.24300831E-02 -4.25615969E-02 -5.41075460E-02 -8.44247242E-03  0.00000000E+00
 -7.40807779E-02  5.22957162E-02  4.24650572E-02 -5.40271828E-02 -8.71149706E-03
  0.00000000E+00  7.41160167E-02  6.32405660E-03  4.90764642E-03  2.48469702E-01
  3.78306406E-01  0.00000000E+00 -9.50880762E-04  2.35073213E-01  3.60095614E-01
  0.00000000E+00 -6.33765343E-03 -4.91894730E-03  2.48410703E-01  3.77098138E-01
  0.00000000E+00  9.37851627E-04  2.35009035E-01  3.58952649E-01  0.00000000E+00
  5.10155409E-02  2.99460442E-02 -8.70202489E-02 -1.88984616E-01  0.00000000E+00
 -1.44293301E-01  5.11307341E-02  3.00336473E-02  8.68279061E-02  1.89001067E-01
  0.00000000E+00 -1.44089519E-01  1.06940860E-02  7.53953159E-03 -2.28285772E-01
 -3.75325016E-01  0.00000000E+00 -5.59725652E-03 -2.00085485E-01 -3.27780348E-01
  0.00000000E+00  1.06995682E-02  7.54334988E-03  2.29096369E-01  3.76064259E-01
  0.00000000E+00 -5.60108771E-03  2.00792942E-01  3.28426268E-01  0.00000000E+00
 -1.42995464E-01 -8.08143972E-02  1.31278782E-01 -6.78450697E-02  0.00000000E+00
  3.62764203E-03  1.43008755E-01  8.08172399E-02  1.31304923E-01 -6.78579350E-02
  0.00000000E+00 -3.64623867E-03 -2.63821711E-01 -1.17805526E-01  3.56441549E-01
 -2.37030611E-01  0.00000000E+00  2.65398092E-01  1.96970588E-01 -1.30369505E-01
  0.00000000E+00  2.63938438E-01  1.17858447E-01  3.56408487E-01 -2.37322643E-01
  0.00000000E+00 -2.65499994E-01  1.96959737E-01 -1.30534325E-01  0.00000000E+00
  8.08887044E-02  5.79958220E-02 -2.18798148E-01  9.33631814E-02  0.00000000E+00
 -8.86121789E-02  8.10936818E-02  5.80784968E-02  2.18858842E-01 -9.34035505E-02
  0.00000000E+00 -8.85872599E-02 -3.33554736E-01 -1.06123406E-01  2.85685397E-01
 -1.46378969E-01  0.00000000E+00  3.79047595E-01  1.14321788E-01 -5.98370004E-02
  0.00000000E+00 -3.33524947E-01 -1.06115376E-01 -2.85444692E-01  1.46578208E-01
  0.00000000E+00  3.78985543E-01 -1.14240904E-01  5.99215808E-02  0.00000000E+00
 -6.39290951E-01 -2.45706569E-02  1.94777440E-02  8.73097536E-02  0.00000000E+00
  1.14183496E-01  6.39398708E-01  2.45628552E-02  1.94634905E-02  8.73476440E-02
  0.00000000E+00 -1.14232775E-01  1.62271375E-01  1.04950663E-03 -9.29695534E-03
 -6.34026307E-02  0.00000000E+00 -2.19790008E-01 -2.32017374E-03  3.65122602E-03
  0.00000000E+00 -1.62153966E-01 -1.04925892E-03 -9.31970610E-03 -6.34312808E-02
  0.00000000E+00  2.19620469E-01 -2.32263441E-03  3.65482492E-03  0.00000000E+00
  6.63943227E-01 -4.65097358E-02 -3.66494845E-02  1.42296474E-01  0.00000000E+00
 -1.15534343E-01  6.63739612E-01 -4.64963564E-02  3.67209506E-02 -1.42363050E-01
  0.00000000E+00 -1.15517112E-01  1.15626024E-01 -1.17796599E-02  8.36606731E-02
  3.49848487E-02  0.00000000E+00 -1.66507603E-01 -1.22582525E-02 -6.92443614E-03
  0.00000000E+00  1.15574584E-01 -1.17747127E-02 -8.36520599E-02 -3.49274071E-02
  0.00000000E+00 -1.66437997E-01  1.22571618E-02  6.91469433E-03  0.00000000E+00
  1.88053045E-01 -7.26487706E-02  1.45629896E-01 -1.18221841E-01  0.00000000E+00
 -5.62259852E-02 -1.88386442E-01  7.28302358E-02  1.45906354E-01 -1.18279885E-01
  0.00000000E+00  5.62132154E-02  2.71246297E-01 -1.10176703E-01  4.22500022E-01
 -2.36260255E-01  0.00000000E+00 -3.48564066E-01 -2.27552197E-01  1.27236208E-01
  0.00000000E+00 -2.71011259E-01  1.10082299E-01  4.21954313E-01 -2.36229191E-01
  0.00000000E+00  3.48281195E-01 -2.27248894E-01  1.27214728E-01  0.00000000E+00
  1.77599460E-01 -1.06296369E-01  1.87969838E-01 -6.97981734E-02  0.00000000E+00
  1.58563375E-02  1.77439724E-01 -1.06243380E-01 -1.87869663E-01  6.97212921E-02
  0.00000000E+00  1.58914864E-02 -2.21565624E-01  1.05834449E-01 -4.56533862E-01
  2.59776393E-01  0.00000000E+00  2.74687125E-01  2.86236047E-01 -1.62368889E-01
  0.00000000E+00 -2.21834061E-01  1.05963811E-01  4.56817619E-01 -2.60394254E-01
  0.00000000E+00  2.75040421E-01 -2.86402837E-01  1.62751958E-01  0.00000000E+00
  4.08568920E-02 -3.54718445E-02 -2.22070369E-02  2.27827780E-02  0.00000000E+00
 -9.05721802E-02 -4.07353686E-02  3.53766195E-02 -2.21027197E-02  2.26269766E-02
  0.00000000E+00  9.05808275E-02 -2.83545779E-03  2.23488348E-03 -2.87425722E-01
 -4.93575658E-01  0.00000000E+00  2.86543818E-03  2.93774164E-01  5.05394306E-01
  0.00000000E+00  2.83402243E-03 -2.23473334E-03 -2.87152765E-01 -4.92221239E-01
  0.00000000E+00 -2.88017082E-03  2.93488277E-01  5.04011332E-01  0.00000000E+00
 -5.60451531E-02  4.63930571E-02  4.33053047E-03 -8.68212662E-02  0.00000000E+00
 -5.21531731E-02 -5.61528078E-02  4.64941934E-02 -4.40881898E-03  8.69283075E-02
  0.00000000E+00 -5.18784232E-02 -3.16916475E-03  2.67684873E-03  2.72150744E-01
  4.94799917E-01  0.00000000E+00  5.23482395E-03 -2.84973645E-01 -5.15124575E-01
  0.00000000E+00 -3.16375197E-03  2.67268411E-03 -2.73063500E-01 -4.95769416E-01
  0.00000000E+00  5.23263422E-03  2.85924749E-01  5.16133633E-01  0.00000000E+00
 -3.48898647E-02  5.17685719E-02 -1.12750668E-01  8.19107095E-02  0.00000000E+00
  3.98707999E-02  3.49966636E-02 -5.19478120E-02 -1.13007029E-01  8.19979564E-02
  0.00000000E+00 -3.98412601E-02 -5.11141500E-01  5.97776604E-01  1.64382600E-01
 -9.59526542E-02  0.00000000E+00 -2.09266047E-01 -2.59298997E-01  1.51211200E-01
  0.00000000E+00  5.10449643E-01 -5.96968249E-01  1.64087496E-01 -9.59066101E-02
  0.00000000E+00  2.08970149E-01 -2.58839931E-01  1.51141339E-01  0.00000000E+00
  3.67603965E-02 -7.09868327E-02  1.15653705E-01 -4.69735951E-02  0.00000000E+00
  3.19742868E-04  3.67383550E-02 -7.09470333E-02 -1.15559313E-01  4.69219056E-02
  0.00000000E+00  3.68262425E-04 -5.23196271E-01  6.21692134E-01  1.26217287E-01
 -7.04504066E-02  0.00000000E+00 -2.48012761E-01 -2.03388871E-01  1.13882244E-01
  0.00000000E+00 -5.23940006E-01  6.22576664E-01 -1.26331140E-01  7.06375406E-02
  0.00000000E+00 -2.48352518E-01  2.03578836E-01 -1.14186474E-01  0.00000000E+00
  5.92753103E-02 -1.18548601E-01  5.42322110E-01 -2.59195035E-01  0.00000000E+00
 -2.91259492E-01 -5.98243072E-02  1.20065625E-01  5.44087211E-01 -2.59989337E-01
  0.00000000E+00  2.91100309E-01 -1.34691712E-01  2.39231294E-01 -1.93414915E-01
  1.21135142E-01  0.00000000E+00 -5.02128617E-01  4.83068942E-01 -3.01418904E-01
  0.00000000E+00  1.34263486E-01 -2.38467676E-01 -1.92684748E-01  1.20884802E-01
  0.00000000E+00  5.00578452E-01  4.81271507E-01 -3.00802958E-01  0.00000000E+00
  1.33455272E-01 -4.39719890E-01  6.21740954E-01 -2.65338993E-01  0.00000000E+00
 -5.95810578E-02  1.33506608E-01 -4.39930121E-01 -6.18683040E-01  2.66819039E-01
  0.00000000E+00 -5.58925977E-02  9.32835350E-02 -1.82479161E-01  1.81345490E-01
 -1.01037552E-01  0.00000000E+00  5.03907463E-01 -5.13361239E-01  2.87806722E-01
  0.00000000E+00  9.35360276E-02 -1.82967323E-01 -1.81695882E-01  1.01542025E-01
  0.00000000E+00  5.05353784E-01  5.14393570E-01 -2.89246775E-01  0.00000000E+00
 -6.09561382E-02  1.72675244E-01  3.32501594E-01  8.25260426E-01  0.00000000E+00
 -7.74822707E-01  6.05775730E-02 -1.71350290E-01  3.34789898E-01  8.24406510E-01
  0.00000000E+00  7.75321593E-01  2.09619460E-02 -4.34297544E-02  5.84914410E-02
  2.89370734E-03  0.00000000E+00  1.25021765E-01 -1.72514260E-01 -8.46602514E-03
  0.00000000E+00 -2.12367224E-02  4.39880666E-02  5.91055248E-02  2.54811203E-03
  0.00000000E+00 -1.26807099E-01 -1.74377440E-01 -7.41770918E-03  0.00000000E+00
  1.45341251E-01 -6.67790863E-01 -6.23754544E-01 -3.56987367E-01  0.00000000E+00
  8.86472363E-01  1.45326699E-01 -6.67782949E-01  6.23868317E-01  3.56538165E-01
  0.00000000E+00  8.86367483E-01  2.91646323E-03 -7.74724549E-03  2.32036473E-02
  1.35875695E-02  0.00000000E+00  7.39498123E-03 -6.85365945E-02 -4.72541866E-02
  0.00000000E+00  2.95042420E-03 -7.82225939E-03 -2.33042938E-02 -1.35415224E-02
  0.00000000E+00  7.67294488E-03  6.88753692E-02  4.71105579E-02  0.00000000E+00
 -2.43512671E-01  1.31359142E+00  8.57841395E-02 -7.09897693E-01  0.00000000E+00
 -3.62834804E-01  2.43476317E-01 -1.31338992E+00  8.58810068E-02 -7.10026974E-01
  0.00000000E+00  3.62763635E-01  1.15373294E-02 -2.90035127E-02  2.83419557E-02
 -3.38584312E-02  0.00000000E+00  1.18600711E-01 -1.03767890E-01  1.25325476E-01
  0.00000000E+00 -1.15488481E-02  2.90313641E-02  2.83526797E-02 -3.39075047E-02
  0.00000000E+00 -1.18728250E-01 -1.03808457E-01  1.25508764E-01  0.00000000E+00
  0.00000000E+00  0.00000000E+00  0.00000000E+00  0.00000000E+00  4.14509147E-01
  0.00000000E+00  0.00000000E+00  0.00000000E+00  0.00000000E+00  0.00000000E+00
  4.14372469E-01  0.00000000E+00  0.00000000E+00  0.00000000E+00  0.00000000E+00
  0.00000000E+00  2.66555384E-01  0.00000000E+00  0.00000000E+00  0.00000000E+00
  3.56088276E-01  0.00000000E+00  0.00000000E+00  0.00000000E+00  0.00000000E+00
  2.66833455E-01  0.00000000E+00  0.00000000E+00  0.00000000E+00  3.56455517E-01
  0.00000000E+00  0.00000000E+00  0.00000000E+00  0.00000000E+00 -1.00413531E-01
  0.00000000E+00  0.00000000E+00  0.00000000E+00  0.00000000E+00  0.00000000E+00
  1.00559744E-01  0.00000000E+00  0.00000000E+00  0.00000000E+00  0.00000000E+00
  0.00000000E+00  4.28225698E-01  0.00000000E+00  0.00000000E+00  0.00000000E+00
  4.47752461E-01  0.00000000E+00  0.00000000E+00  0.00000000E+00  0.00000000E+00
 -4.27856335E-01  0.00000000E+00  0.00000000E+00  0.00000000E+00 -4.47365064E-01
  0.00000000E+00  0.00000000E+00  0.00000000E+00  0.00000000E+00  4.65538046E-01
  0.00000000E+00  0.00000000E+00  0.00000000E+00  0.00000000E+00  0.00000000E+00
  4.65654453E-01  0.00000000E+00  0.00000000E+00  0.00000000E+00  0.00000000E+00
  0.00000000E+00 -3.94774605E-01  0.00000000E+00  0.00000000E+00  0.00000000E+00
 -2.45941345E-01  0.00000000E+00  0.00000000E+00  0.00000000E+00  0.00000000E+00
 -3.95000304E-01  0.00000000E+00  0.00000000E+00  0.00000000E+00 -2.46086085E-01
  0.00000000E+00  0.00000000E+00  0.00000000E+00  0.00000000E+00 -5.68474337E-01
  0.00000000E+00  0.00000000E+00  0.00000000E+00  0.00000000E+00  0.00000000E+00
  5.68602984E-01  0.00000000E+00  0.00000000E+00  0.00000000E+00  0.00000000E+00
  0.00000000E+00 -4.43853357E-01  0.00000000E+00  0.00000000E+00  0.00000000E+00
  2.96892500E-01  0.00000000E+00  0.00000000E+00  0.00000000E+00  0.00000000E+00
  4.44147358E-01  0.00000000E+00  0.00000000E+00  0.00000000E+00 -2.97084532E-01
  0.00000000E+00  0.00000000E+00  0.00000000E+00  0.00000000E+00 -1.55577736E-01
  0.00000000E+00  0.00000000E+00  0.00000000E+00  0.00000000E+00  0.00000000E+00
 -1.55967331E-01  0.00000000E+00  0.00000000E+00  0.00000000E+00  0.00000000E+00
  0.00000000E+00 -5.56060072E-01  0.00000000E+00  0.00000000E+00  0.00000000E+00
  5.97566342E-01  0.00000000E+00  0.00000000E+00  0.00000000E+00  0.00000000E+00
 -5.55379029E-01  0.00000000E+00  0.00000000E+00  0.00000000E+00  5.96834935E-01
  0.00000000E+00  0.00000000E+00  0.00000000E+00  0.00000000E+00  5.72215132E-01
  0.00000000E+00  0.00000000E+00  0.00000000E+00  0.00000000E+00  0.00000000E+00
 -5.71934487E-01  0.00000000E+00  0.00000000E+00  0.00000000E+00  0.00000000E+00
  0.00000000E+00 -3.94039812E-01  0.00000000E+00  0.00000000E+00  0.00000000E+00
  5.05197054E-01  0.00000000E+00  0.00000000E+00  0.00000000E+00  0.00000000E+00
  3.94657022E-01  0.00000000E+00  0.00000000E+00  0.00000000E+00 -5.05991642E-01
Total SCF Density                          R   N=         465
  2.07529396E+00 -2.46965194E-01  9.71863764E-01  1.49095828E-02 -1.09272177E-01
  6.92580549E-01 -1.10039968E-02  9.06814260E-02 -3.45303193E-02  6.37230038E-01
  0.00000000E+00  0.00000000E+00  0.00000000E+00  0.00000000E+00  7.53385148E-01
 -1.09764198E-01  2.67078682E-01  4.75975555E-01  2.67157241E-01  0.00000000E+00
  5.90911143E-01  2.50780045E-02 -5.86955247E-02 -3.51617643E-03  1.15375209E-01
  0.00000000E+00  3.14200147E-02  2.07529657E+00 -5.86946657E-02  5.00068823E-02
  7.09012108E-03 -2.81583439E-01  0.00000000E+00 -1.23428399E-01 -2.46990076E-01
  9.71982042E-01  3.52757768E-03 -7.14701461E-03  2.11005246E-02 -7.28624795E-03
  0.00000000E+00 -7.19954937E-02 -1.49192803E-02  1.09363699E-01  6.92582519E-01
 -1.15389292E-01  2.81659873E-01 -7.35161869E-03 -4.64063633E-01  0.00000000E+00
 -1.13680433E-01  1.10149216E-02 -9.07410688E-02 -3.45761838E-02  6.37236690E-01
  0.00000000E+00  0.00000000E+00  0.00000000E+00  0.00000000E+00  3.99967324E-01
  0.00000000E+00  0.00000000E+00  0.00000000E+00  0.00000000E+00  0.00000000E+00
  7.53278608E-01  3.14180853E-02 -1.23394679E-01  7.19818212E-02  1.13695634E-01
  0.00000000E+00  1.26105320E-01 -1.09772802E-01  2.67088928E-01 -4.75890110E-01
 -2.67232515E-01  0.00000000E+00  5.90861799E-01  9.27730062E-04 -2.25963213E-03
 -5.20522213E-03  2.74559691E-03  0.00000000E+00 -8.27244448E-04 -1.76586655E-03
  4.41399519E-04  1.02325168E-02 -5.64253321E-03  0.00000000E+00 -3.67125047E-03
  2.26521806E+00 -3.39974396E-03  8.48986003E-03  1.66024778E-02 -1.00902480E-02
  0.00000000E+00  3.77365362E-03  6.71011519E-03 -2.05924106E-03 -3.57625839E-02
  2.01654635E-02  0.00000000E+00  1.33662321E-02 -7.97315937E-01  2.40066103E+00
  1.51871143E-03  4.86964953E-03 -1.08987245E-02  1.68058907E-02  0.00000000E+00
 -2.22469459E-02 -3.79981740E-02  1.55375203E-01  1.71623805E-01 -1.16526181E-01
  0.00000000E+00 -6.85814061E-02 -9.61026244E-03  2.86358370E-02  2.04901774E+00
 -1.32046351E-02  5.87942209E-02  1.18406786E-02 -4.40821342E-02  0.00000000E+00
  9.26815582E-03  2.12947597E-02 -8.91127286E-02 -1.09808016E-01  4.20729283E-02
  0.00000000E+00 -2.40108114E-02  5.40739265E-03 -1.60627654E-02  5.16742037E-02
  2.11131032E+00  0.00000000E+00  0.00000000E+00  0.00000000E+00  0.00000000E+00
  8.53829867E-03  0.00000000E+00  0.00000000E+00  0.00000000E+00  0.00000000E+00
  0.00000000E+00 -2.37809258E-01  0.00000000E+00  0.00000000E+00  0.00000000E+00
  0.00000000E+00  0.00000000E+00  2.04240641E+00  7.31009687E-03 -6.47153619E-03
 -6.39604721E-02  2.47247465E-02  0.00000000E+00 -1.07138110E-02  1.64726379E-02
 -1.78451758E-01 -3.89936685E-02  2.94581946E-02  0.00000000E+00 -3.12593915E-02
  1.53889443E-01 -5.48090662E-01 -1.34881733E-01  7.60538455E-02  0.00000000E+00
  2.11079129E+00 -1.97518023E-03 -2.77872406E-02  3.69475990E-02 -4.84726100E-02
  0.00000000E+00  6.97811615E-02  9.88396973E-02 -3.58699865E-01 -4.61251804E-01
  2.94916092E-01  0.00000000E+00  2.25347032E-01  3.06210452E-02 -9.19349763E-02
 -2.30061287E-01 -1.79169440E-01  0.00000000E+00  3.88451912E-01  1.06754734E+00
  4.57104590E-02 -1.88204849E-01 -4.75567790E-02  1.52385297E-01  0.00000000E+00
 -3.47429864E-02 -5.48787462E-02  2.04708620E-01  2.75278650E-01 -1.33498773E-01
  0.00000000E+00  9.10524669E-02 -1.71953753E-02  5.14526014E-02 -1.79374045E-01
 -4.46059247E-01  0.00000000E+00 -2.17984891E-01  6.01873146E-01  1.79348623E+00
  0.00000000E+00  0.00000000E+00  0.00000000E+00  0.00000000E+00 -3.67487666E-02
  0.00000000E+00  0.00000000E+00  0.00000000E+00  0.00000000E+00  0.00000000E+00
  7.31214923E-01  0.00000000E+00  0.00000000E+00  0.00000000E+00  0.00000000E+00
  0.00000000E+00 -2.21422567E-01  0.00000000E+00  0.00000000E+00  0.00000000E+00
  1.05056487E+00 -1.76909828E-03  4.47712077E-04 -1.02422452E-02  5.65139126E-03
  0.00000000E+00 -3.67815281E-03  9.27067438E-04 -2.25502354E-03  5.20522009E-03
 -2.74595152E-03  0.00000000E+00 -8.27440392E-04  4.45751273E-05 -1.87278515E-04
  6.22675384E-04 -9.87575212E-04  0.00000000E+00 -8.84614310E-05 -1.68267798E-03
  3.05977580E-03  0.00000000E+00  2.26521739E+00  6.72263662E-03 -2.08260052E-03
  3.57985274E-02 -2.01980610E-02  0.00000000E+00  1.33880810E-02 -3.39817661E-03
  8.47673057E-03 -1.66020213E-02  1.00930985E-02  0.00000000E+00  3.77367019E-03
 -1.87306120E-04  7.45377436E-04 -2.19606690E-03  3.27133543E-03  0.00000000E+00
 -2.67251041E-04  6.06016900E-03 -1.02558651E-02  0.00000000E+00 -7.97314119E-01
  2.40065628E+00  3.79904651E-02 -1.55330349E-01  1.71547067E-01 -1.16551083E-01
  0.00000000E+00  6.86183717E-02 -1.50846579E-03 -4.92934096E-03 -1.09028670E-02
  1.67650663E-02  0.00000000E+00  2.22374631E-02 -6.22191841E-04  2.19433912E-03
 -5.11048099E-03  9.21787032E-03  0.00000000E+00 -5.48152701E-03  1.55377793E-02
 -3.05973337E-02  0.00000000E+00  9.60934743E-03 -2.86297874E-02  2.04909555E+00
 -2.13246662E-02  8.92377588E-02 -1.09904922E-01  4.21514360E-02  0.00000000E+00
  2.40071127E-02  1.32080314E-02 -5.88003504E-02  1.18518949E-02 -4.41290156E-02
  0.00000000E+00 -9.26283582E-03  9.87416140E-04 -3.27097642E-03  9.22608528E-03
 -9.54236177E-03  0.00000000E+00  1.11381189E-02 -3.03187759E-02  3.23728021E-02
  0.00000000E+00 -5.41485883E-03  1.60832962E-02  5.17044208E-02  2.11124891E+00
  0.00000000E+00  0.00000000E+00  0.00000000E+00  0.00000000E+00 -2.37802383E-01
  0.00000000E+00  0.00000000E+00  0.00000000E+00  0.00000000E+00  0.00000000E+00
  8.55711459E-03  0.00000000E+00  0.00000000E+00  0.00000000E+00  0.00000000E+00
  0.00000000E+00 -5.87957259E-02  0.00000000E+00  0.00000000E+00  0.00000000E+00
  1.91934044E-01  0.00000000E+00  0.00000000E+00  0.00000000E+00  0.00000000E+00
  2.04238914E+00  1.64641508E-02 -1.78539265E-01  3.89488682E-02 -2.94968438E-02
  0.00000000E+00 -3.13496975E-02  7.29329883E-03 -6.39862073E-03  6.39578384E-02
 -2.47054395E-02  0.00000000E+00 -1.07085500E-02 -8.88174486E-05 -2.65626140E-04
  5.48534110E-03 -1.11421186E-02  0.00000000E+00 -1.03620737E-02 -1.25915992E-02
  3.21730720E-02  0.00000000E+00  1.53880041E-01 -5.48060825E-01  1.34898505E-01
 -7.61759052E-02  0.00000000E+00  2.11076534E+00 -9.88093850E-02  3.58494223E-01
 -4.61038312E-01  2.94896816E-01  0.00000000E+00 -2.25498196E-01  1.93421509E-03
  2.79930711E-02  3.69587029E-02 -4.83209449E-02  0.00000000E+00 -6.97541644E-02
  1.68114369E-03 -6.05457957E-03  1.55370953E-02 -3.02932009E-02  0.00000000E+00
  1.25802463E-02 -4.63400220E-02  9.92032832E-02  0.00000000E+00 -3.06191792E-02
  9.19209125E-02 -2.30308599E-01 -1.79288196E-01  0.00000000E+00 -3.88463708E-01
  1.06836168E+00  5.49556224E-02 -2.04970527E-01  2.75492486E-01 -1.33682853E-01
  0.00000000E+00 -9.10620443E-02 -4.57178144E-02  1.88209973E-01 -4.75862770E-02
  1.52532391E-01  0.00000000E+00  3.47082412E-02 -3.05879383E-03  1.02530075E-02
 -3.06235300E-02  3.23730677E-02  0.00000000E+00 -3.21557561E-02  9.92848258E-02
 -1.08393732E-01  0.00000000E+00  1.72200927E-02 -5.15225532E-02 -1.79491904E-01
 -4.45839323E-01  0.00000000E+00  2.18325543E-01  6.02288329E-01  1.79274165E+00
  0.00000000E+00  0.00000000E+00  0.00000000E+00  0.00000000E+00  7.31147437E-01
  0.00000000E+00  0.00000000E+00  0.00000000E+00  0.00000000E+00  0.00000000E+00
 -3.68181039E-02  0.00000000E+00  0.00000000E+00  0.00000000E+00  0.00000000E+00
  0.00000000E+00  1.91934054E-01  0.00000000E+00  0.00000000E+00  0.00000000E+00
 -6.26278770E-01  0.00000000E+00  0.00000000E+00  0.00000000E+00  0.00000000E+00
 -2.21360549E-01  0.00000000E+00  0.00000000E+00  0.00000000E+00  1.05034815E+00
Mulliken Charges                           R   N=           6
 -1.51274083E-01  7.45669843E-02 -1.51162672E-01  7.45810098E-02  7.66088663E-02
  7.66798944E-02
ONIOM Charges                              I   N=          16
           0           0           0           0           0           0
           0           0           0           0           0           0
           0           0           0           0
ONIOM Multiplicities                       I   N=          16
           1           0           0           0           0           0
           0           0           0           0           0           0
           0           0           0           0
Atom Layers                                I   N=           6
           1           1           1           1           1           1
Atom Modifiers                             I   N=           6
           0           0           0           0           0           0
Int Atom Modified Types                    I   N=           6
           0           0           0           0           0           0
Force Field                                I                0
Atom Modified Types                        C   N=           6
                                                            
            
Link Atoms                                 I   N=           6
           0           0           0           0           0           0
Atom Modified MM Charges                   R   N=           6
  0.00000000E+00  0.00000000E+00  0.00000000E+00  0.00000000E+00  0.00000000E+00
  0.00000000E+00
Link Distances                             R   N=          24
  0.00000000E+00  0.00000000E+00  0.00000000E+00  0.00000000E+00  0.00000000E+00
  0.00000000E+00  0.00000000E+00  0.00000000E+00  0.00000000E+00  0.00000000E+00
  0.00000000E+00  0.00000000E+00  0.00000000E+00  0.00000000E+00  0.00000000E+00
  0.00000000E+00  0.00000000E+00  0.00000000E+00  0.00000000E+00  0.00000000E+00
  0.00000000E+00  0.00000000E+00  0.00000000E+00  0.00000000E+00
Cartesian Gradient                         R   N=          18
 -0.00000000E+00  0.00000000E+00  0.00000000E+00 -0.00000000E+00  0.00000000E+00
  0.00000000E+00 -0.00000000E+00  0.00000000E+00  0.00000000E+00 -0.00000000E+00
  0.00000000E+00  0.00000000E+00 -0.00000000E+00  0.00000000E+00  0.00000000E+00
 -0.00000000E+00  0.00000000E+00  0.00000000E+00
Nonadiabatic coupling                      R   N=          18
 -0.00000000E+00  0.00000000E+00  0.00000000E+00 -0.00000000E+00  0.00000000E+00
  0.00000000E+00 -0.00000000E+00  0.00000000E+00  0.00000000E+00 -0.00000000E+00
  0.00000000E+00  0.00000000E+00 -0.00000000E+00  0.00000000E+00  0.00000000E+00
 -0.00000000E+00  0.00000000E+00  0.00000000E+00
Dipole Moment                              R   N=           3
 -1.89526499E-04 -1.48806388E-04  3.00926554E-36
Quadrupole Moment                          R   N=           6
 -6.96678648E-01 -1.15759299E+00  1.85427164E+00  1.51845412E+00 -2.46519033E-32
  2.46519033E-32
QEq coupling tensors                       R   N=          36
  6.24802025E-03 -3.51824278E-02 -4.97654423E-02 -3.85185989E-34  7.70371978E-34
  4.35174221E-02 -2.18314740E-01 -2.34351439E-01  3.88328327E-02  1.23259516E-32
  6.16297582E-33  1.79481907E-01  6.30365171E-03 -3.53040549E-02 -4.96448504E-02
 -9.62964972E-34  7.70371978E-34  4.33411987E-02 -2.18297722E-01 -2.34380675E-01
  3.88182035E-02  6.16297582E-33  0.00000000E+00  1.79479518E-01 -1.05034901E+00
  2.97007138E+00  2.52704000E+00  7.39557099E-32  0.00000000E+00 -1.47669099E+00
 -1.04585723E+00  2.97179280E+00  2.52352620E+00  7.39557099E-32  0.00000000E+00
 -1.47766897E+00
ClPar MaxAn                                I              200
ClPar NIntPar                              I                4
ClPar NRealPar                             I               16
ClPar NBits                                I               30
ClPar LenBitVec                            I                1
ClPar Read BitMap                          I   N=         200
           0           0           0           0           0           0
           0           0           0           0           0           0
           0           0           0           0           0           0
           0           0           0           0           0           0
           0           0           0           0           0           0
           0           0           0           0           0           0
           0           0           0           0           0           0
           0           0           0           0           0           0
           0           0           0           0           0           0
           0           0           0           0           0           0
           0           0           0           0           0           0
           0           0           0           0           0           0
           0           0           0           0           0           0
           0           0           0           0           0           0
           0           0           0           0           0           0
           0           0           0           0           0           0
           0           0           0           0           0           0
           0           0           0           0           0           0
           0           0           0           0           0           0
           0           0           0           0           0           0
           0           0           0           0           0           0
           0           0           0           0           0           0
           0           0           0           0           0           0
           0           0           0           0           0           0
           0           0           0           0           0           0
           0           0           0           0           0           0
           0           0           0           0           0           0
           0           0           0           0           0           0
           0           0           0           0           0           0
           0           0           0           0           0           0
           0           0           0           0           0           0
           0           0           0           0           0           0
           0           0           0           0           0           0
           0           0
ClPar Default BitMap                       I   N=         200
        2016        2016        2016        2016        2016        2016
        2016        2016        2016        2016        2016        2016
        2016        2016        2016        2016        2016        2016
        2016        2016        2016        2016        2016        2016
        2016        2016        2016        2016        2016        2016
        2016        2016        2016        2016        2016        2016
        2016        2016        2016        2016        2016        2016
        2016        2016        2016        2016        2016        2016
        2016        2016        2016        2016        2016        2016
        2016        2016        2016        2016        2016        2016
        2016        2016        2016        2016        2016        2016
        2016        2016        2016        2016        2016        2016
        2016        2016        2016        2016        2016        2016
        2016        2016        2016        2016        2016        2016
        2016        2016         480         480         480         480
         480         480         480         480         480         480
         480         480         480         480         480         480
         480         480         480         480         480         480
         480         480         480         480         480         480
         480         480         480         480         480         480
         480         480         480         480         480         480
         480         480         480         480         480         480
         480         480         480         480         480         480
         480         480         480         480         480         480
         480         480         480         480         480         480
         480         480         480         480         480         480
         480         480         480         480         480         480
         480         480         480         480         480         480
         480         480         480         480         480         480
         480         480         480         480         480         480
         480         480         480         480         480         480
         480         480         480         480         480         480
         480         480         480         480         480         480
         480         480
ClPar Int Params                           I   N=         800
           0           0           0           0           0           0
           0           0           0           0           0           0
           0           0           0           0           0           0
           0           0           0           0           0           0
           0           0           0           0           0           0
           0           0           0           0           0           0
           0           0           0           0           0           0
           0           0           0           0           0           0
           0           0           0           0           0           0
           0           0           0           0           0           0
           0           0           0           0           0           0
           0           0           0           0           0           0
           0           0           0           0           0           0
           0           0           0           0           0           0
           0           0           0           0           0           0
           0           0           0           0           0           0
           0           0           0           0           0           0
           0           0           0           0           0           0
           0           0           0           0           0           0
           0           0           0           0           0           0
           0           0           0           0           0           0
           0           0           0           0           0           0
           0           0           0           0           0           0
           0           0           0           0           0           0
           0           0           0           0           0           0
           0           0           0           0           0           0
           0           0           0           0           0           0
           0           0           0           0           0           0
           0           0           0           0           0           0
           0           0           0           0           0           0
           0           0           0           0           0           0
           0           0           0           0           0           0
           0           0           0           0           0           0
           0           0           0           0           0           0
           0           0           0           0           0           0
           0           0           0           0           0           0
           0           0           0           0           0           0
           0           0           0           0           0           0
           0           0           0           0           0           0
           0           0           0           0           0           0
           0           0           0           0           0           0
           0           0           0           0           0           0
           0           0           0           0           0           0
           0           0           0           0           0           0
           0           0           0           0           0           0
           0           0           0           0           0           0
           0           0           0           0           0           0
           0           0           0           0           0           0
           0           0           0           0           0           0
           0           0           0           0           0           0
           0           0           0           0           0           0
           0           0           0           0           0           0
           0           0           0           0           0           0
           0           0           0           0           0           0
           0           0           0           0           0           0
           0           0           0           0           0           0
           0           0           0           0           0           0
           0           0           0           0           0           0
           0           0           0           0           0           0
           0           0           0           0           0           0
           0           0           0           0           0           0
           0           0           0           0           0           0
           0           0           0           0           0           0
           0           0           0           0           0           0
           0           0           0           0           0           0
           0           0           0           0           0           0
           0           0           0           0           0           0
           0           0           0           0           0           0
           0           0           0           0           0           0
           0           0           0           0           0           0
           0           0           0           0           0           0
           0           0           0           0           0           0
           0           0           0           0           0           0
           0           0           0           0           0           0
           0           0           0           0           0           0
           0           0           0           0           0           0
           0           0           0           0           0           0
           0           0           0           0           0           0
           0           0           0           0           0           0
           0           0           0           0           0           0
           0           0           0           0           0           0
           0           0           0           0           0           0
           0           0           0           0           0           0
           0           0           0           0           0           0
           0           0           0           0           0           0
           0           0           0           0           0           0
           0           0           0           0           0           0
           0           0           0           0           0           0
           0           0           0           0           0           0
           0           0           0           0           0           0
           0           0           0           0           0           0
           0           0           0           0           0           0
           0           0           0           0           0           0
           0           0           0           0           0           0
           0           0           0           0           0           0
           0           0           0           0           0           0
           0           0           0           0           0           0
           0           0           0           0           0           0
           0           0           0           0           0           0
           0           0           0           0           0           0
           0           0           0           0           0           0
           0           0           0           0           0           0
           0           0           0           0           0           0
           0           0           0           0           0           0
           0           0           0           0           0           0
           0           0           0           0           0           0
           0           0           0           0           0           0
           0           0           0           0           0           0
           0           0           0           0           0           0
           0           0           0           0           0           0
           0           0           0           0           0           0
           0           0           0           0           0           0
           0           0           0           0           0           0
           0           0           0           0           0           0
           0           0           0           0           0           0
           0           0           0           0           0           0
           0           0           0           0           0           0
           0           0           0           0           0           0
           0           0           0           0           0           0
           0           0           0           0           0           0
           0           0           0           0           0           0
           0           0           0           0           0           0
           0           0           0           0           0           0
           0           0           0           0           0           0
           0           0           0           0           0           0
           0           0           0           0           0           0
           0           0           0           0           0           0
           0           0           0           0           0           0
           0           0           0           0           0           0
           0           0           0           0           0           0
           0           0           0           0           0           0
           0           0           0           0           0           0
           0           0           0           0           0           0
           0           0
ClPar Real Params                          R   N=        3200
  0.00000000E+00  0.00000000E+00  0.00000000E+00  0.00000000E+00  0.00000000E+00
  0.00000000E+00  0.00000000E+00  0.00000000E+00  0.00000000E+00  0.00000000E+00
  0.00000000E+00  0.00000000E+00  0.00000000E+00  0.00000000E+00  0.00000000E+00
  0.00000000E+00  0.00000000E+00  0.00000000E+00  0.00000000E+00  0.00000000E+00
  0.00000000E+00  0.00000000E+00  0.00000000E+00  0.00000000E+00  0.00000000E+00
  0.00000000E+00  0.00000000E+00  0.00000000E+00  0.00000000E+00  0.00000000E+00
  0.00000000E+00  0.00000000E+00  0.00000000E+00  0.00000000E+00  0.00000000E+00
  0.00000000E+00  0.00000000E+00  0.00000000E+00  0.00000000E+00  0.00000000E+00
  0.00000000E+00  0.00000000E+00  0.00000000E+00  0.00000000E+00  0.00000000E+00
  0.00000000E+00  0.00000000E+00  0.00000000E+00  0.00000000E+00  0.00000000E+00
  0.00000000E+00  0.00000000E+00  0.00000000E+00  0.00000000E+00  0.00000000E+00
  0.00000000E+00  0.00000000E+00  0.00000000E+00  0.00000000E+00  0.00000000E+00
  0.00000000E+00  0.00000000E+00  0.00000000E+00  0.00000000E+00  0.00000000E+00
  0.00000000E+00  0.00000000E+00  0.00000000E+00  0.00000000E+00  0.00000000E+00
  0.00000000E+00  0.00000000E+00  0.00000000E+00  0.00000000E+00  0.00000000E+00
  0.00000000E+00  0.00000000E+00  0.00000000E+00  0.00000000E+00  0.00000000E+00
  0.00000000E+00  0.00000000E+00  0.00000000E+00  0.00000000E+00  0.00000000E+00
  0.00000000E+00  0.00000000E+00  0.00000000E+00  0.00000000E+00  0.00000000E+00
  0.00000000E+00  0.00000000E+00  0.00000000E+00  0.00000000E+00  0.00000000E+00
  0.00000000E+00  0.00000000E+00  0.00000000E+00  0.00000000E+00  0.00000000E+00
  0.00000000E+00  0.00000000E+00  0.00000000E+00  0.00000000E+00  0.00000000E+00
  0.00000000E+00  0.00000000E+00  0.00000000E+00  0.00000000E+00  0.00000000E+00
  0.00000000E+00  0.00000000E+00  0.00000000E+00  0.00000000E+00  0.00000000E+00
  0.00000000E+00  0.00000000E+00  0.00000000E+00  0.00000000E+00  0.00000000E+00
  0.00000000E+00  0.00000000E+00  0.00000000E+00  0.00000000E+00  0.00000000E+00
  0.00000000E+00  0.00000000E+00  0.00000000E+00  0.00000000E+00  0.00000000E+00
  0.00000000E+00  0.00000000E+00  0.00000000E+00  0.00000000E+00  0.00000000E+00
  0.00000000E+00  0.00000000E+00  0.00000000E+00  0.00000000E+00  0.00000000E+00
  0.00000000E+00  0.00000000E+00  0.00000000E+00  0.00000000E+00  0.00000000E+00
  0.00000000E+00  0.00000000E+00  0.00000000E+00  0.00000000E+00  0.00000000E+00
  0.00000000E+00  0.00000000E+00  0.00000000E+00  0.00000000E+00  0.00000000E+00
  0.00000000E+00  0.00000000E+00  0.00000000E+00  0.00000000E+00  0.00000000E+00
  0.00000000E+00  0.00000000E+00  0.00000000E+00  0.00000000E+00  0.00000000E+00
  0.00000000E+00  0.00000000E+00  0.00000000E+00  0.00000000E+00  0.00000000E+00
  0.00000000E+00  0.00000000E+00  0.00000000E+00  0.00000000E+00  0.00000000E+00
  0.00000000E+00  0.00000000E+00  0.00000000E+00  0.00000000E+00  0.00000000E+00
  0.00000000E+00  0.00000000E+00  0.00000000E+00  0.00000000E+00  0.00000000E+00
  0.00000000E+00  0.00000000E+00  0.00000000E+00  0.00000000E+00  0.00000000E+00
  0.00000000E+00  0.00000000E+00  0.00000000E+00  0.00000000E+00  0.00000000E+00
  0.00000000E+00  0.00000000E+00  0.00000000E+00  0.00000000E+00  0.00000000E+00
  2.26000000E-01  4.43000000E-01  1.01000000E-01  1.47000000E-01  1.92000000E-01
  2.40000000E-01  2.75000000E-01  3.03000000E-01  3.25000000E-01  4.13000000E-01
  9.60000000E-02  1.35000000E-01  1.73000000E-01  2.11000000E-01  2.48000000E-01
  2.86000000E-01  3.23000000E-01  3.60000000E-01  8.20000000E-02  1.04000000E-01
  1.17000000E-01  1.23000000E-01  1.29000000E-01  1.34000000E-01  1.40000000E-01
  1.44000000E-01  1.48000000E-01  1.52000000E-01  1.55000000E-01  1.76000000E-01
  1.98000000E-01  2.19000000E-01  2.39000000E-01  2.60000000E-01  2.80000000E-01
  3.00000000E-01  7.90000000E-02  9.90000000E-02  1.19000000E-01  1.26000000E-01
  1.33000000E-01  1.40000000E-01  1.47000000E-01  1.53000000E-01  1.58000000E-01
  1.63000000E-01  1.57000000E-01  1.70000000E-01  1.87000000E-01  2.03000000E-01
  2.19000000E-01  2.34000000E-01  2.50000000E-01  2.65000000E-01  7.40000000E-02
  9.20000000E-02  1.05000000E-01  1.06000000E-01  1.07000000E-01  1.08000000E-01
  1.09000000E-01  1.10000000E-01  1.11000000E-01  1.12000000E-01  1.13000000E-01
  1.14000000E-01  1.15000000E-01  1.16000000E-01  1.17000000E-01  1.17000000E-01
  1.26000000E-01  1.36000000E-01  1.46000000E-01  1.55000000E-01  1.65000000E-01
  1.73000000E-01  1.82000000E-01  1.90000000E-01  1.62000000E-01  1.78000000E-01
  1.10000000E-01  1.35000000E-01  1.59000000E-01  1.83000000E-01  2.07000000E-01
  2.31000000E-01  6.90000000E-02  9.40000000E-02  1.02000000E-01  1.03000000E-01
  1.05000000E-01  1.07000000E-01  1.09000000E-01  1.11000000E-01  1.13000000E-01
  1.15000000E-01  1.17000000E-01  1.19000000E-01  1.20000000E-01  1.22000000E-01
  1.24000000E-01  1.26000000E-01  1.28000000E-01  1.28000000E-01  1.28000000E-01
  1.28000000E-01  1.28000000E-01  1.28000000E-01  1.28000000E-01  1.28000000E-01
  1.28000000E-01  1.28000000E-01  1.28000000E-01  1.28000000E-01  1.28000000E-01
  1.28000000E-01  1.28000000E-01  1.28000000E-01  1.28000000E-01  1.28000000E-01
  1.28000000E-01  1.28000000E-01  1.28000000E-01  1.28000000E-01  1.28000000E-01
  1.28000000E-01  1.28000000E-01  1.28000000E-01  1.28000000E-01  1.28000000E-01
  1.28000000E-01  1.28000000E-01  1.28000000E-01  1.28000000E-01  1.28000000E-01
  1.28000000E-01  1.28000000E-01  1.28000000E-01  1.28000000E-01  1.28000000E-01
  1.28000000E-01  1.28000000E-01  1.28000000E-01  1.28000000E-01  1.28000000E-01
  1.28000000E-01  1.28000000E-01  1.28000000E-01  1.28000000E-01  1.28000000E-01
  1.28000000E-01  1.28000000E-01  1.28000000E-01  1.28000000E-01  1.28000000E-01
  1.28000000E-01  1.28000000E-01  1.28000000E-01  1.28000000E-01  1.28000000E-01
  1.28000000E-01  1.28000000E-01  1.28000000E-01  1.28000000E-01  1.28000000E-01
  1.28000000E-01  1.28000000E-01  1.28000000E-01  1.28000000E-01  1.28000000E-01
  1.28000000E-01  1.28000000E-01  1.28000000E-01  1.28000000E-01  1.28000000E-01
  1.28000000E-01  1.28000000E-01  1.28000000E-01  1.28000000E-01  1.28000000E-01
  1.28000000E-01  1.28000000E-01  1.28000000E-01  1.28000000E-01  1.28000000E-01
  1.28000000E-01  1.28000000E-01  1.28000000E-01  1.28000000E-01  1.28000000E-01
  1.28000000E-01  1.28000000E-01  1.28000000E-01  1.28000000E-01  1.28000000E-01
  1.28000000E-01  1.28000000E-01  1.28000000E-01  1.28000000E-01  1.28000000E-01
  5.47000000E-01  5.92000000E-01  5.99000000E-01  6.68000000E-01  6.98000000E-01
  7.18000000E-01  7.26000000E-01  7.36000000E-01  7.43000000E-01  7.45000000E-01
  6.07000000E-01  6.66000000E-01  6.93000000E-01  7.09000000E-01  7.20000000E-01
  7.29000000E-01  7.35000000E-01  7.40000000E-01  6.08000000E-01  7.34000000E-01
  7.46000000E-01  7.55000000E-01  7.61000000E-01  7.65000000E-01  7.67000000E-01
  7.60000000E-01  7.49000000E-01  7.33000000E-01  7.08000000E-01  6.48000000E-01
  6.88000000E-01  7.09000000E-01  7.22000000E-01  7.31000000E-01  7.38000000E-01
  7.44000000E-01  6.09000000E-01  7.30000000E-01  7.41000000E-01  7.52000000E-01
  7.58000000E-01  7.63000000E-01  7.66000000E-01  7.58000000E-01  7.48000000E-01
  7.33000000E-01  7.01000000E-01  6.45000000E-01  6.86000000E-01  7.08000000E-01
  7.22000000E-01  7.31000000E-01  7.38000000E-01  7.44000000E-01  6.08000000E-01
  7.28000000E-01  7.32000000E-01  7.32000000E-01  7.32000000E-01  7.32000000E-01
  7.32000000E-01  7.32000000E-01  7.32000000E-01  7.32000000E-01  7.32000000E-01
  7.31000000E-01  7.31000000E-01  7.31000000E-01  7.31000000E-01  7.46000000E-01
  7.37000000E-01  7.46000000E-01  7.51000000E-01  7.55000000E-01  7.58000000E-01
  7.47000000E-01  7.32000000E-01  7.11000000E-01  7.41000000E-01  7.07000000E-01
  7.47000000E-01  7.43000000E-01  7.42000000E-01  7.42000000E-01  7.43000000E-01
  7.44000000E-01  6.05000000E-01  7.24000000E-01  7.26000000E-01  7.26000000E-01
  7.27000000E-01  7.27000000E-01  7.27000000E-01  7.28000000E-01  7.28000000E-01
  7.28000000E-01  7.28000000E-01  7.28000000E-01  7.29000000E-01  7.29000000E-01
  7.29000000E-01  7.29000000E-01  7.29000000E-01  7.29000000E-01  7.29000000E-01
  7.29000000E-01  7.29000000E-01  7.29000000E-01  7.29000000E-01  7.29000000E-01
  7.29000000E-01  7.29000000E-01  7.29000000E-01  7.29000000E-01  7.29000000E-01
  7.29000000E-01  7.29000000E-01  7.29000000E-01  7.29000000E-01  7.29000000E-01
  7.29000000E-01  7.29000000E-01  7.29000000E-01  7.29000000E-01  7.29000000E-01
  7.29000000E-01  7.29000000E-01  7.29000000E-01  7.29000000E-01  7.29000000E-01
  7.29000000E-01  7.29000000E-01  7.29000000E-01  7.29000000E-01  7.29000000E-01
  7.29000000E-01  7.29000000E-01  7.29000000E-01  7.29000000E-01  7.29000000E-01
  7.29000000E-01  7.29000000E-01  7.29000000E-01  7.29000000E-01  7.29000000E-01
  7.29000000E-01  7.29000000E-01  7.29000000E-01  7.29000000E-01  7.29000000E-01
  7.29000000E-01  7.29000000E-01  7.29000000E-01  7.29000000E-01  7.29000000E-01
  7.29000000E-01  7.29000000E-01  7.29000000E-01  7.29000000E-01  7.29000000E-01
  7.29000000E-01  7.29000000E-01  7.29000000E-01  7.29000000E-01  7.29000000E-01
  7.29000000E-01  7.29000000E-01  7.29000000E-01  7.29000000E-01  7.29000000E-01
  7.29000000E-01  7.29000000E-01  7.29000000E-01  7.29000000E-01  7.29000000E-01
  7.29000000E-01  7.29000000E-01  7.29000000E-01  7.29000000E-01  7.29000000E-01
  7.29000000E-01  7.29000000E-01  7.29000000E-01  7.29000000E-01  7.29000000E-01
  7.29000000E-01  7.29000000E-01  7.29000000E-01  7.29000000E-01  7.29000000E-01
  7.29000000E-01  7.29000000E-01  7.29000000E-01  7.29000000E-01  7.29000000E-01
  7.29000000E-01  7.29000000E-01  7.29000000E-01  7.29000000E-01  7.29000000E-01
  1.00000000E+00  1.70400000E+00  3.23000000E-01  3.89000000E-01  4.67000000E-01
  5.67000000E-01  6.36000000E-01  6.64000000E-01  6.96000000E-01  8.79000000E-01
  3.07000000E-01  3.48000000E-01  4.00000000E-01  4.54000000E-01  5.09000000E-01
  5.65000000E-01  6.21000000E-01  6.77000000E-01  2.56000000E-01  3.50000000E-01
  3.64000000E-01  3.62000000E-01  3.62000000E-01  3.62000000E-01  3.62000000E-01
  3.65000000E-01  3.69000000E-01  3.75000000E-01  3.86000000E-01  4.46000000E-01
  4.55000000E-01  4.74000000E-01  4.96000000E-01  5.20000000E-01  5.45000000E-01
  5.70000000E-01  2.45000000E-01  3.22000000E-01  3.55000000E-01  3.59000000E-01
  3.64000000E-01  3.70000000E-01  3.76000000E-01  3.85000000E-01  3.95000000E-01
  4.08000000E-01  3.76000000E-01  4.23000000E-01  4.22000000E-01  4.32000000E-01
  4.45000000E-01  4.59000000E-01  4.75000000E-01  4.91000000E-01  2.28000000E-01
  2.92000000E-01  2.89000000E-01  2.92000000E-01  2.95000000E-01  2.98000000E-01
  3.00000000E-01  3.03000000E-01  3.06000000E-01  3.09000000E-01  3.12000000E-01
  3.15000000E-01  3.18000000E-01  3.21000000E-01  3.24000000E-01  3.61000000E-01
  3.69000000E-01  3.70000000E-01  3.72000000E-01  3.75000000E-01  3.78000000E-01
  3.85000000E-01  3.94000000E-01  4.07000000E-01  5.26000000E-01  6.21000000E-01
  3.36000000E-01  3.54000000E-01  3.71000000E-01  3.86000000E-01  4.02000000E-01
  4.17000000E-01  2.09000000E-01  2.94000000E-01  2.65000000E-01  2.72000000E-01
  2.78000000E-01  2.84000000E-01  2.91000000E-01  2.97000000E-01  3.03000000E-01
  3.10000000E-01  3.16000000E-01  3.22000000E-01  3.29000000E-01  3.35000000E-01
  3.41000000E-01  3.48000000E-01  3.54000000E-01  3.54000000E-01  3.54000000E-01
  3.54000000E-01  3.54000000E-01  3.54000000E-01  3.54000000E-01  3.54000000E-01
  3.54000000E-01  3.54000000E-01  3.54000000E-01  3.54000000E-01  3.54000000E-01
  3.54000000E-01  3.54000000E-01  3.54000000E-01  3.54000000E-01  3.54000000E-01
  3.54000000E-01  3.54000000E-01  3.54000000E-01  3.54000000E-01  3.54000000E-01
  3.54000000E-01  3.54000000E-01  3.54000000E-01  3.54000000E-01  3.54000000E-01
  3.54000000E-01  3.54000000E-01  3.54000000E-01  3.54000000E-01  3.54000000E-01
  3.54000000E-01  3.54000000E-01  3.54000000E-01  3.54000000E-01  3.54000000E-01
  3.54000000E-01  3.54000000E-01  3.54000000E-01  3.54000000E-01  3.54000000E-01
  3.54000000E-01  3.54000000E-01  3.54000000E-01  3.54000000E-01  3.54000000E-01
  3.54000000E-01  3.54000000E-01  3.54000000E-01  3.54000000E-01  3.54000000E-01
  3.54000000E-01  3.54000000E-01  3.54000000E-01  3.54000000E-01  3.54000000E-01
  3.54000000E-01  3.54000000E-01  3.54000000E-01  3.54000000E-01  3.54000000E-01
  3.54000000E-01  3.54000000E-01  3.54000000E-01  3.54000000E-01  3.54000000E-01
  3.54000000E-01  3.54000000E-01  3.54000000E-01  3.54000000E-01  3.54000000E-01
  3.54000000E-01  3.54000000E-01  3.54000000E-01  3.54000000E-01  3.54000000E-01
  3.54000000E-01  3.54000000E-01  3.54000000E-01  3.54000000E-01  3.54000000E-01
  3.54000000E-01  3.54000000E-01  3.54000000E-01  3.54000000E-01  3.54000000E-01
  3.54000000E-01  3.54000000E-01  3.54000000E-01  3.54000000E-01  3.54000000E-01
  3.54000000E-01  3.54000000E-01  3.54000000E-01  3.54000000E-01  3.54000000E-01
  2.74000000E-01  2.96000000E-01  5.80000000E-02  4.40000000E-02  3.90000000E-02
  3.90000000E-02  3.60000000E-02  3.20000000E-02  2.90000000E-02  3.30000000E-02
  5.50000000E-02  3.90000000E-02  3.30000000E-02  3.00000000E-02  2.80000000E-02
  2.60000000E-02  2.50000000E-02  2.50000000E-02  4.50000000E-02  4.40000000E-02
  3.30000000E-02  2.50000000E-02  2.10000000E-02  1.80000000E-02  1.50000000E-02
  1.80000000E-02  2.10000000E-02  2.50000000E-02  3.30000000E-02  5.00000000E-02
  3.80000000E-02  3.10000000E-02  2.70000000E-02  2.40000000E-02  2.20000000E-02
  2.10000000E-02  4.30000000E-02  4.00000000E-02  3.20000000E-02  2.50000000E-02
  2.10000000E-02  1.80000000E-02  1.60000000E-02  1.90000000E-02  2.20000000E-02
  2.80000000E-02  3.10000000E-02  4.70000000E-02  3.40000000E-02  2.80000000E-02
  2.40000000E-02  2.10000000E-02  1.90000000E-02  1.80000000E-02  3.90000000E-02
  3.60000000E-02  2.50000000E-02  2.50000000E-02  2.50000000E-02  2.60000000E-02
  2.60000000E-02  2.60000000E-02  2.70000000E-02  2.70000000E-02  2.70000000E-02
  2.70000000E-02  2.80000000E-02  2.80000000E-02  2.80000000E-02  3.30000000E-02
  3.30000000E-02  2.60000000E-02  2.10000000E-02  1.80000000E-02  1.60000000E-02
  1.80000000E-02  2.20000000E-02  2.60000000E-02  4.90000000E-02  8.20000000E-02
  3.00000000E-02  2.40000000E-02  2.10000000E-02  1.80000000E-02  1.60000000E-02
  1.50000000E-02  3.50000000E-02  3.60000000E-02  2.20000000E-02  2.30000000E-02
  2.40000000E-02  2.40000000E-02  2.50000000E-02  2.50000000E-02  2.60000000E-02
  2.70000000E-02  2.70000000E-02  2.80000000E-02  2.80000000E-02  2.90000000E-02
  3.00000000E-02  3.00000000E-02  3.10000000E-02  3.10000000E-02  3.10000000E-02
  3.10000000E-02  3.10000000E-02  3.10000000E-02  3.10000000E-02  3.10000000E-02
  3.10000000E-02  3.10000000E-02  3.10000000E-02  3.10000000E-02  3.10000000E-02
  3.10000000E-02  3.10000000E-02  3.10000000E-02  3.10000000E-02  3.10000000E-02
  3.10000000E-02  3.10000000E-02  3.10000000E-02  3.10000000E-02  3.10000000E-02
  3.10000000E-02  3.10000000E-02  3.10000000E-02  3.10000000E-02  3.10000000E-02
  3.10000000E-02  3.10000000E-02  3.10000000E-02  3.10000000E-02  3.10000000E-02
  3.10000000E-02  3.10000000E-02  3.10000000E-02  3.10000000E-02  3.10000000E-02
  3.10000000E-02  3.10000000E-02  3.10000000E-02  3.10000000E-02  3.10000000E-02
  3.10000000E-02  3.10000000E-02  3.10000000E-02  3.10000000E-02  3.10000000E-02
  3.10000000E-02  3.10000000E-02  3.10000000E-02  3.10000000E-02  3.10000000E-02
  3.10000000E-02  3.10000000E-02  3.10000000E-02  3.10000000E-02  3.10000000E-02
  3.10000000E-02  3.10000000E-02  3.10000000E-02  3.10000000E-02  3.10000000E-02
  3.10000000E-02  3.10000000E-02  3.10000000E-02  3.10000000E-02  3.10000000E-02
  3.10000000E-02  3.10000000E-02  3.10000000E-02  3.10000000E-02  3.10000000E-02
  3.10000000E-02  3.10000000E-02  3.10000000E-02  3.10000000E-02  3.10000000E-02
  3.10000000E-02  3.10000000E-02  3.10000000E-02  3.10000000E-02  3.10000000E-02
  3.10000000E-02  3.10000000E-02  3.10000000E-02  3.10000000E-02  3.10000000E-02
  3.10000000E-02  3.10000000E-02  3.10000000E-02  3.10000000E-02  3.10000000E-02
  3.10000000E-02  3.10000000E-02  3.10000000E-02  3.10000000E-02  3.10000000E-02
 -5.92770000E-01 -9.17860000E-01 -2.48668000E+00 -8.36430000E-01 -3.18470000E-01
 -4.55790000E-01 -5.70730000E-01 -6.77940000E-01 -7.69860000E-01 -8.51140000E-01
 -1.51908000E+00 -3.18830000E-01 -2.17900000E-01 -3.01260000E-01 -3.72750000E-01
 -4.15890000E-01 -4.45930000E-01 -5.91320000E-01 -9.56370000E-01 -2.88450000E-01
 -4.87320000E-01 -6.34280000E-01 -7.17490000E-01 -7.91980000E-01 -8.68490000E-01
 -9.17520000E-01 -9.54890000E-01 -9.88460000E-01 -1.50055000E+00 -2.92560000E-01
 -2.14960000E-01 -2.91180000E-01 -3.42080000E-01 -3.84480000E-01 -4.34940000E-01
 -5.24310000E-01 -8.10070000E-01 -2.58460000E-01 -4.35550000E-01 -5.32740000E-01
 -6.08450000E-01 -6.10260000E-01 -7.58920000E-01 -8.90130000E-01 -8.45780000E-01
 -8.69340000E-01 -1.38234000E+00 -2.64850000E-01 -1.97280000E-01 -2.65040000E-01
 -2.94470000E-01 -3.16570000E-01 -3.63590000E-01 -4.57840000E-01 -8.61830000E-01
 -1.33004000E+00 -6.82880000E-01 -6.25540000E-01 -6.35430000E-01 -8.79690000E-01
 -9.02690000E-01 -9.59650000E-01 -1.01869000E+00 -6.81170000E-01 -7.96500000E-01
 -9.04950000E-01 -8.34790000E-01 -9.01560000E-01 -9.74130000E-01 -1.03326000E+00
 -7.15490000E-01 -7.83960000E-01 -8.28380000E-01 -5.61040000E-01 -1.03841000E+00
 -8.62500000E-01 -9.59300000E-01 -1.01755000E+00 -7.64900000E-01 -1.29467000E+00
 -1.92740000E-01 -2.56010000E-01 -3.19820000E-01 -1.94660000E-01 -2.60090000E-01
 -4.27990000E-01  0.00000000E+00  0.00000000E+00  0.00000000E+00  0.00000000E+00
  0.00000000E+00  0.00000000E+00  0.00000000E+00  0.00000000E+00  0.00000000E+00
  0.00000000E+00  0.00000000E+00  0.00000000E+00  0.00000000E+00  0.00000000E+00
  0.00000000E+00  0.00000000E+00  0.00000000E+00  0.00000000E+00  0.00000000E+00
  0.00000000E+00  0.00000000E+00  0.00000000E+00  0.00000000E+00  0.00000000E+00
  0.00000000E+00  0.00000000E+00  0.00000000E+00  0.00000000E+00  0.00000000E+00
  0.00000000E+00  0.00000000E+00  0.00000000E+00  0.00000000E+00  0.00000000E+00
  0.00000000E+00  0.00000000E+00  0.00000000E+00  0.00000000E+00  0.00000000E+00
  0.00000000E+00  0.00000000E+00  0.00000000E+00  0.00000000E+00  0.00000000E+00
  0.00000000E+00  0.00000000E+00  0.00000000E+00  0.00000000E+00  0.00000000E+00
  0.00000000E+00  0.00000000E+00  0.00000000E+00  0.00000000E+00  0.00000000E+00
  0.00000000E+00  0.00000000E+00  0.00000000E+00  0.00000000E+00  0.00000000E+00
  0.00000000E+00  0.00000000E+00  0.00000000E+00  0.00000000E+00  0.00000000E+00
  0.00000000E+00  0.00000000E+00  0.00000000E+00  0.00000000E+00  0.00000000E+00
  0.00000000E+00  0.00000000E+00  0.00000000E+00  0.00000000E+00  0.00000000E+00
  0.00000000E+00  0.00000000E+00  0.00000000E+00  0.00000000E+00  0.00000000E+00
  0.00000000E+00  0.00000000E+00  0.00000000E+00  0.00000000E+00  0.00000000E+00
  0.00000000E+00  0.00000000E+00  0.00000000E+00  0.00000000E+00  0.00000000E+00
  0.00000000E+00  0.00000000E+00  0.00000000E+00  0.00000000E+00  0.00000000E+00
  0.00000000E+00  0.00000000E+00  0.00000000E+00  0.00000000E+00  0.00000000E+00
  0.00000000E+00  0.00000000E+00  0.00000000E+00  0.00000000E+00  0.00000000E+00
  0.00000000E+00  0.00000000E+00  0.00000000E+00  0.00000000E+00  0.00000000E+00
  0.00000000E+00  0.00000000E+00  0.00000000E+00  0.00000000E+00  0.00000000E+00
  1.90440000E+00  1.36430000E+00  4.84000000E-01  7.31600000E+00  9.24030000E+00
  8.78200000E+00  5.61290000E+00  4.83340000E+00  3.24870000E+00  2.71090000E+00
  2.01130000E+00  1.50282000E+01  1.46788000E+01  2.13546000E+01  2.38290000E+01
  1.98022000E+01  1.50468000E+01  1.09745000E+01  1.27219000E+01  1.51949000E+01
  1.57342000E+01  2.79222000E+01  1.61366000E+01  2.21252000E+01  2.45676000E+01
  1.96016000E+01  1.79818000E+01  1.72396000E+01  5.01500000E+00  1.92898000E+01
  2.34477000E+01  2.23993000E+01  2.96586000E+01  2.60081000E+01  2.15580000E+01
  1.69594000E+01  1.56479000E+01  1.86897000E+01  1.93530000E+01  3.43444000E+01
  1.98480000E+01  2.72140000E+01  3.02182000E+01  2.41099000E+01  2.21176000E+01
  2.12047000E+01  7.56690000E+00  2.37264000E+01  2.93879000E+01  3.01278000E+01
  4.19382000E+01  3.85203000E+01  3.39511000E+01  2.75774000E+01  1.56460000E+01
  1.04460000E+01  2.01830000E+01  4.99540000E+01  4.76430000E+01  1.18690000E+01
  1.08670000E+01  9.96100000E+00  9.18700000E+00  3.67980000E+01  1.34070000E+01
  9.38200000E+00  9.81700000E+00  8.90800000E+00  8.40700000E+00  8.05800000E+00
  1.29600000E+01  2.67920000E+01  2.49300000E+01  3.45630000E+01  1.11860000E+01
  1.09440000E+01  1.01270000E+01  9.40400000E+00  1.36660000E+01  7.81000000E+00
  6.93600000E+01  5.86630000E+01  4.79690000E+01  4.52740000E+01  3.92290000E+01
  3.30660000E+01  0.00000000E+00  0.00000000E+00  0.00000000E+00  0.00000000E+00
  0.00000000E+00  0.00000000E+00  0.00000000E+00  0.00000000E+00  0.00000000E+00
  0.00000000E+00  0.00000000E+00  0.00000000E+00  0.00000000E+00  0.00000000E+00
  0.00000000E+00  0.00000000E+00  0.00000000E+00  0.00000000E+00  0.00000000E+00
  0.00000000E+00  0.00000000E+00  0.00000000E+00  0.00000000E+00  0.00000000E+00
  0.00000000E+00  0.00000000E+00  0.00000000E+00  0.00000000E+00  0.00000000E+00
  0.00000000E+00  0.00000000E+00  0.00000000E+00  0.00000000E+00  0.00000000E+00
  0.00000000E+00  0.00000000E+00  0.00000000E+00  0.00000000E+00  0.00000000E+00
  0.00000000E+00  0.00000000E+00  0.00000000E+00  0.00000000E+00  0.00000000E+00
  0.00000000E+00  0.00000000E+00  0.00000000E+00  0.00000000E+00  0.00000000E+00
  0.00000000E+00  0.00000000E+00  0.00000000E+00  0.00000000E+00  0.00000000E+00
  0.00000000E+00  0.00000000E+00  0.00000000E+00  0.00000000E+00  0.00000000E+00
  0.00000000E+00  0.00000000E+00  0.00000000E+00  0.00000000E+00  0.00000000E+00
  0.00000000E+00  0.00000000E+00  0.00000000E+00  0.00000000E+00  0.00000000E+00
  0.00000000E+00  0.00000000E+00  0.00000000E+00  0.00000000E+00  0.00000000E+00
  0.00000000E+00  0.00000000E+00  0.00000000E+00  0.00000000E+00  0.00000000E+00
  0.00000000E+00  0.00000000E+00  0.00000000E+00  0.00000000E+00  0.00000000E+00
  0.00000000E+00  0.00000000E+00  0.00000000E+00  0.00000000E+00  0.00000000E+00
  0.00000000E+00  0.00000000E+00  0.00000000E+00  0.00000000E+00  0.00000000E+00
  0.00000000E+00  0.00000000E+00  0.00000000E+00  0.00000000E+00  0.00000000E+00
  0.00000000E+00  0.00000000E+00  0.00000000E+00  0.00000000E+00  0.00000000E+00
  0.00000000E+00  0.00000000E+00  0.00000000E+00  0.00000000E+00  0.00000000E+00
  0.00000000E+00  0.00000000E+00  0.00000000E+00  0.00000000E+00  0.00000000E+00
  0.00000000E+00  0.00000000E+00  0.00000000E+00  0.00000000E+00  0.00000000E+00
  0.00000000E+00  0.00000000E+00  0.00000000E+00  0.00000000E+00  0.00000000E+00
  0.00000000E+00  0.00000000E+00  0.00000000E+00  0.00000000E+00  0.00000000E+00
  0.00000000E+00  0.00000000E+00  0.00000000E+00  0.00000000E+00  0.00000000E+00
  0.00000000E+00  0.00000000E+00  0.00000000E+00  0.00000000E+00  0.00000000E+00
  0.00000000E+00  0.00000000E+00  0.00000000E+00  0.00000000E+00  0.00000000E+00
  0.00000000E+00  0.00000000E+00  0.00000000E+00  0.00000000E+00  0.00000000E+00
  0.00000000E+00  0.00000000E+00  0.00000000E+00  0.00000000E+00  0.00000000E+00
  0.00000000E+00  0.00000000E+00  0.00000000E+00  0.00000000E+00  0.00000000E+00
  0.00000000E+00  0.00000000E+00  0.00000000E+00  0.00000000E+00  0.00000000E+00
  0.00000000E+00  0.00000000E+00  0.00000000E+00  0.00000000E+00  0.00000000E+00
  0.00000000E+00  0.00000000E+00  0.00000000E+00  0.00000000E+00  0.00000000E+00
  0.00000000E+00  0.00000000E+00  0.00000000E+00  0.00000000E+00  0.00000000E+00
  0.00000000E+00  0.00000000E+00  0.00000000E+00  0.00000000E+00  0.00000000E+00
  0.00000000E+00  0.00000000E+00  0.00000000E+00  0.00000000E+00  0.00000000E+00
  0.00000000E+00  0.00000000E+00  0.00000000E+00  0.00000000E+00  0.00000000E+00
  0.00000000E+00  0.00000000E+00  0.00000000E+00  0.00000000E+00  0.00000000E+00
  0.00000000E+00  0.00000000E+00  0.00000000E+00  0.00000000E+00  0.00000000E+00
  0.00000000E+00  0.00000000E+00  0.00000000E+00  0.00000000E+00  0.00000000E+00
  0.00000000E+00  0.00000000E+00  0.00000000E+00  0.00000000E+00  0.00000000E+00
  0.00000000E+00  0.00000000E+00  0.00000000E+00  0.00000000E+00  0.00000000E+00
  0.00000000E+00  0.00000000E+00  0.00000000E+00  0.00000000E+00  0.00000000E+00
  0.00000000E+00  0.00000000E+00  0.00000000E+00  0.00000000E+00  0.00000000E+00
  0.00000000E+00  0.00000000E+00  0.00000000E+00  0.00000000E+00  0.00000000E+00
  0.00000000E+00  0.00000000E+00  0.00000000E+00  0.00000000E+00  0.00000000E+00
  0.00000000E+00  0.00000000E+00  0.00000000E+00  0.00000000E+00  0.00000000E+00
  0.00000000E+00  0.00000000E+00  0.00000000E+00  0.00000000E+00  0.00000000E+00
  0.00000000E+00  0.00000000E+00  0.00000000E+00  0.00000000E+00  0.00000000E+00
  0.00000000E+00  0.00000000E+00  0.00000000E+00  0.00000000E+00  0.00000000E+00
  0.00000000E+00  0.00000000E+00  0.00000000E+00  0.00000000E+00  0.00000000E+00
  0.00000000E+00  0.00000000E+00  0.00000000E+00  0.00000000E+00  0.00000000E+00
  0.00000000E+00  0.00000000E+00  0.00000000E+00  0.00000000E+00  0.00000000E+00
  0.00000000E+00  0.00000000E+00  0.00000000E+00  0.00000000E+00  0.00000000E+00
  0.00000000E+00  0.00000000E+00  0.00000000E+00  0.00000000E+00  0.00000000E+00
  0.00000000E+00  0.00000000E+00  0.00000000E+00  0.00000000E+00  0.00000000E+00
  0.00000000E+00  0.00000000E+00  0.00000000E+00  0.00000000E+00  0.00000000E+00
  0.00000000E+00  0.00000000E+00  0.00000000E+00  0.00000000E+00  0.00000000E+00
  0.00000000E+00  0.00000000E+00  0.00000000E+00  0.00000000E+00  0.00000000E+00
  0.00000000E+00  0.00000000E+00  0.00000000E+00  0.00000000E+00  0.00000000E+00
  0.00000000E+00  0.00000000E+00  0.00000000E+00  0.00000000E+00  0.00000000E+00
  0.00000000E+00  0.00000000E+00  0.00000000E+00  0.00000000E+00  0.00000000E+00
  0.00000000E+00  0.00000000E+00  0.00000000E+00  0.00000000E+00  0.00000000E+00
  0.00000000E+00  0.00000000E+00  0.00000000E+00  0.00000000E+00  0.00000000E+00
  0.00000000E+00  0.00000000E+00  0.00000000E+00  0.00000000E+00  0.00000000E+00
  0.00000000E+00  0.00000000E+00  0.00000000E+00  0.00000000E+00  0.00000000E+00
  0.00000000E+00  0.00000000E+00  0.00000000E+00  0.00000000E+00  0.00000000E+00
  0.00000000E+00  0.00000000E+00  0.00000000E+00  0.00000000E+00  0.00000000E+00
  0.00000000E+00  0.00000000E+00  0.00000000E+00  0.00000000E+00  0.00000000E+00
  0.00000000E+00  0.00000000E+00  0.00000000E+00  0.00000000E+00  0.00000000E+00
  0.00000000E+00  0.00000000E+00  0.00000000E+00  0.00000000E+00  0.00000000E+00
  0.00000000E+00  0.00000000E+00  0.00000000E+00  0.00000000E+00  0.00000000E+00
  0.00000000E+00  0.00000000E+00  0.00000000E+00  0.00000000E+00  0.00000000E+00
  0.00000000E+00  0.00000000E+00  0.00000000E+00  0.00000000E+00  0.00000000E+00
  0.00000000E+00  0.00000000E+00  0.00000000E+00  0.00000000E+00  0.00000000E+00
  0.00000000E+00  0.00000000E+00  0.00000000E+00  0.00000000E+00  0.00000000E+00
  0.00000000E+00  0.00000000E+00  0.00000000E+00  0.00000000E+00  0.00000000E+00
  0.00000000E+00  0.00000000E+00  0.00000000E+00  0.00000000E+00  0.00000000E+00
  0.00000000E+00  0.00000000E+00  0.00000000E+00  0.00000000E+00  0.00000000E+00
  0.00000000E+00  0.00000000E+00  0.00000000E+00  0.00000000E+00  0.00000000E+00
  0.00000000E+00  0.00000000E+00  0.00000000E+00  0.00000000E+00  0.00000000E+00
  0.00000000E+00  0.00000000E+00  0.00000000E+00  0.00000000E+00  0.00000000E+00
  0.00000000E+00  0.00000000E+00  0.00000000E+00  0.00000000E+00  0.00000000E+00
  0.00000000E+00  0.00000000E+00  0.00000000E+00  0.00000000E+00  0.00000000E+00
  0.00000000E+00  0.00000000E+00  0.00000000E+00  0.00000000E+00  0.00000000E+00
  0.00000000E+00  0.00000000E+00  0.00000000E+00  0.00000000E+00  0.00000000E+00
  0.00000000E+00  0.00000000E+00  0.00000000E+00  0.00000000E+00  0.00000000E+00
  0.00000000E+00  0.00000000E+00  0.00000000E+00  0.00000000E+00  0.00000000E+00
  0.00000000E+00  0.00000000E+00  0.00000000E+00  0.00000000E+00  0.00000000E+00
  0.00000000E+00  0.00000000E+00  0.00000000E+00  0.00000000E+00  0.00000000E+00
  0.00000000E+00  0.00000000E+00  0.00000000E+00  0.00000000E+00  0.00000000E+00
  0.00000000E+00  0.00000000E+00  0.00000000E+00  0.00000000E+00  0.00000000E+00
  0.00000000E+00  0.00000000E+00  0.00000000E+00  0.00000000E+00  0.00000000E+00
  0.00000000E+00  0.00000000E+00  0.00000000E+00  0.00000000E+00  0.00000000E+00
  0.00000000E+00  0.00000000E+00  0.00000000E+00  0.00000000E+00  0.00000000E+00
  0.00000000E+00  0.00000000E+00  0.00000000E+00  0.00000000E+00  0.00000000E+00
  0.00000000E+00  0.00000000E+00  0.00000000E+00  0.00000000E+00  0.00000000E+00
  0.00000000E+00  0.00000000E+00  0.00000000E+00  0.00000000E+00  0.00000000E+00
  0.00000000E+00  0.00000000E+00  0.00000000E+00  0.00000000E+00  0.00000000E+00
  0.00000000E+00  0.00000000E+00  0.00000000E+00  0.00000000E+00  0.00000000E+00
  0.00000000E+00  0.00000000E+00  0.00000000E+00  0.00000000E+00  0.00000000E+00
  0.00000000E+00  0.00000000E+00  0.00000000E+00  0.00000000E+00  0.00000000E+00
  0.00000000E+00  0.00000000E+00  0.00000000E+00  0.00000000E+00  0.00000000E+00
  0.00000000E+00  0.00000000E+00  0.00000000E+00  0.00000000E+00  0.00000000E+00
  0.00000000E+00  0.00000000E+00  0.00000000E+00  0.00000000E+00  0.00000000E+00
  0.00000000E+00  0.00000000E+00  0.00000000E+00  0.00000000E+00  0.00000000E+00
  0.00000000E+00  0.00000000E+00  0.00000000E+00  0.00000000E+00  0.00000000E+00
  0.00000000E+00  0.00000000E+00  0.00000000E+00  0.00000000E+00  0.00000000E+00
  0.00000000E+00  0.00000000E+00  0.00000000E+00  0.00000000E+00  0.00000000E+00
  0.00000000E+00  0.00000000E+00  0.00000000E+00  0.00000000E+00  0.00000000E+00
  0.00000000E+00  0.00000000E+00  0.00000000E+00  0.00000000E+00  0.00000000E+00
  0.00000000E+00  0.00000000E+00  0.00000000E+00  0.00000000E+00  0.00000000E+00
  0.00000000E+00  0.00000000E+00  0.00000000E+00  0.00000000E+00  0.00000000E+00
  0.00000000E+00  0.00000000E+00  0.00000000E+00  0.00000000E+00  0.00000000E+00
  0.00000000E+00  0.00000000E+00  0.00000000E+00  0.00000000E+00  0.00000000E+00
  0.00000000E+00  0.00000000E+00  0.00000000E+00  0.00000000E+00  0.00000000E+00
  0.00000000E+00  0.00000000E+00  0.00000000E+00  0.00000000E+00  0.00000000E+00
  0.00000000E+00  0.00000000E+00  0.00000000E+00  0.00000000E+00  0.00000000E+00
  0.00000000E+00  0.00000000E+00  0.00000000E+00  0.00000000E+00  0.00000000E+00
  0.00000000E+00  0.00000000E+00  0.00000000E+00  0.00000000E+00  0.00000000E+00
  0.00000000E+00  0.00000000E+00  0.00000000E+00  0.00000000E+00  0.00000000E+00
  0.00000000E+00  0.00000000E+00  0.00000000E+00  0.00000000E+00  0.00000000E+00
  0.00000000E+00  0.00000000E+00  0.00000000E+00  0.00000000E+00  0.00000000E+00
  0.00000000E+00  0.00000000E+00  0.00000000E+00  0.00000000E+00  0.00000000E+00
  0.00000000E+00  0.00000000E+00  0.00000000E+00  0.00000000E+00  0.00000000E+00
  0.00000000E+00  0.00000000E+00  0.00000000E+00  0.00000000E+00  0.00000000E+00
  0.00000000E+00  0.00000000E+00  0.00000000E+00  0.00000000E+00  0.00000000E+00
  0.00000000E+00  0.00000000E+00  0.00000000E+00  0.00000000E+00  0.00000000E+00
  0.00000000E+00  0.00000000E+00  0.00000000E+00  0.00000000E+00  0.00000000E+00
  0.00000000E+00  0.00000000E+00  0.00000000E+00  0.00000000E+00  0.00000000E+00
  0.00000000E+00  0.00000000E+00  0.00000000E+00  0.00000000E+00  0.00000000E+00
  0.00000000E+00  0.00000000E+00  0.00000000E+00  0.00000000E+00  0.00000000E+00
  0.00000000E+00  0.00000000E+00  0.00000000E+00  0.00000000E+00  0.00000000E+00
  0.00000000E+00  0.00000000E+00  0.00000000E+00  0.00000000E+00  0.00000000E+00
  0.00000000E+00  0.00000000E+00  0.00000000E+00  0.00000000E+00  0.00000000E+00
  0.00000000E+00  0.00000000E+00  0.00000000E+00  0.00000000E+00  0.00000000E+00
  0.00000000E+00  0.00000000E+00  0.00000000E+00  0.00000000E+00  0.00000000E+00
  0.00000000E+00  0.00000000E+00  0.00000000E+00  0.00000000E+00  0.00000000E+00
  0.00000000E+00  0.00000000E+00  0.00000000E+00  0.00000000E+00  0.00000000E+00
  0.00000000E+00  0.00000000E+00  0.00000000E+00  0.00000000E+00  0.00000000E+00
  0.00000000E+00  0.00000000E+00  0.00000000E+00  0.00000000E+00  0.00000000E+00
  0.00000000E+00  0.00000000E+00  0.00000000E+00  0.00000000E+00  0.00000000E+00
  0.00000000E+00  0.00000000E+00  0.00000000E+00  0.00000000E+00  0.00000000E+00
  0.00000000E+00  0.00000000E+00  0.00000000E+00  0.00000000E+00  0.00000000E+00
  0.00000000E+00  0.00000000E+00  0.00000000E+00  0.00000000E+00  0.00000000E+00
  0.00000000E+00  0.00000000E+00  0.00000000E+00  0.00000000E+00  0.00000000E+00
  0.00000000E+00  0.00000000E+00  0.00000000E+00  0.00000000E+00  0.00000000E+00
  0.00000000E+00  0.00000000E+00  0.00000000E+00  0.00000000E+00  0.00000000E+00
  0.00000000E+00  0.00000000E+00  0.00000000E+00  0.00000000E+00  0.00000000E+00
  0.00000000E+00  0.00000000E+00  0.00000000E+00  0.00000000E+00  0.00000000E+00
  0.00000000E+00  0.00000000E+00  0.00000000E+00  0.00000000E+00  0.00000000E+00
  0.00000000E+00  0.00000000E+00  0.00000000E+00  0.00000000E+00  0.00000000E+00
  0.00000000E+00  0.00000000E+00  0.00000000E+00  0.00000000E+00  0.00000000E+00
  0.00000000E+00  0.00000000E+00  0.00000000E+00  0.00000000E+00  0.00000000E+00
  0.00000000E+00  0.00000000E+00  0.00000000E+00  0.00000000E+00  0.00000000E+00
  0.00000000E+00  0.00000000E+00  0.00000000E+00  0.00000000E+00  0.00000000E+00
  0.00000000E+00  0.00000000E+00  0.00000000E+00  0.00000000E+00  0.00000000E+00
  0.00000000E+00  0.00000000E+00  0.00000000E+00  0.00000000E+00  0.00000000E+00
  0.00000000E+00  0.00000000E+00  0.00000000E+00  0.00000000E+00  0.00000000E+00
  0.00000000E+00  0.00000000E+00  0.00000000E+00  0.00000000E+00  0.00000000E+00
  0.00000000E+00  0.00000000E+00  0.00000000E+00  0.00000000E+00  0.00000000E+00
  0.00000000E+00  0.00000000E+00  0.00000000E+00  0.00000000E+00  0.00000000E+00
  0.00000000E+00  0.00000000E+00  0.00000000E+00  0.00000000E+00  0.00000000E+00
  0.00000000E+00  0.00000000E+00  0.00000000E+00  0.00000000E+00  0.00000000E+00
  0.00000000E+00  0.00000000E+00  0.00000000E+00  0.00000000E+00  0.00000000E+00
  0.00000000E+00  0.00000000E+00  0.00000000E+00  0.00000000E+00  0.00000000E+00
  0.00000000E+00  0.00000000E+00  0.00000000E+00  0.00000000E+00  0.00000000E+00
  0.00000000E+00  0.00000000E+00  0.00000000E+00  0.00000000E+00  0.00000000E+00
  0.00000000E+00  0.00000000E+00  0.00000000E+00  0.00000000E+00  0.00000000E+00
  0.00000000E+00  0.00000000E+00  0.00000000E+00  0.00000000E+00  0.00000000E+00
  0.00000000E+00  0.00000000E+00  0.00000000E+00  0.00000000E+00  0.00000000E+00
  0.00000000E+00  0.00000000E+00  0.00000000E+00  0.00000000E+00  0.00000000E+00
  0.00000000E+00  0.00000000E+00  0.00000000E+00  0.00000000E+00  0.00000000E+00
  0.00000000E+00  0.00000000E+00  0.00000000E+00  0.00000000E+00  0.00000000E+00
  0.00000000E+00  0.00000000E+00  0.00000000E+00  0.00000000E+00  0.00000000E+00
  0.00000000E+00  0.00000000E+00  0.00000000E+00  0.00000000E+00  0.00000000E+00
  0.00000000E+00  0.00000000E+00  0.00000000E+00  0.00000000E+00  0.00000000E+00
  0.00000000E+00  0.00000000E+00  0.00000000E+00  0.00000000E+00  0.00000000E+00
  0.00000000E+00  0.00000000E+00  0.00000000E+00  0.00000000E+00  0.00000000E+00
  0.00000000E+00  0.00000000E+00  0.00000000E+00  0.00000000E+00  0.00000000E+00
  0.00000000E+00  0.00000000E+00  0.00000000E+00  0.00000000E+00  0.00000000E+00
  0.00000000E+00  0.00000000E+00  0.00000000E+00  0.00000000E+00  0.00000000E+00
  0.00000000E+00  0.00000000E+00  0.00000000E+00  0.00000000E+00  0.00000000E+00
  0.00000000E+00  0.00000000E+00  0.00000000E+00  0.00000000E+00  0.00000000E+00
  0.00000000E+00  0.00000000E+00  0.00000000E+00  0.00000000E+00  0.00000000E+00
  0.00000000E+00  0.00000000E+00  0.00000000E+00  0.00000000E+00  0.00000000E+00
  0.00000000E+00  0.00000000E+00  0.00000000E+00  0.00000000E+00  0.00000000E+00
  0.00000000E+00  0.00000000E+00  0.00000000E+00  0.00000000E+00  0.00000000E+00
  0.00000000E+00  0.00000000E+00  0.00000000E+00  0.00000000E+00  0.00000000E+00
  0.00000000E+00  0.00000000E+00  0.00000000E+00  0.00000000E+00  0.00000000E+00
  0.00000000E+00  0.00000000E+00  0.00000000E+00  0.00000000E+00  0.00000000E+00
  0.00000000E+00  0.00000000E+00  0.00000000E+00  0.00000000E+00  0.00000000E+00
  0.00000000E+00  0.00000000E+00  0.00000000E+00  0.00000000E+00  0.00000000E+00
  0.00000000E+00  0.00000000E+00  0.00000000E+00  0.00000000E+00  0.00000000E+00
  0.00000000E+00  0.00000000E+00  0.00000000E+00  0.00000000E+00  0.00000000E+00
  0.00000000E+00  0.00000000E+00  0.00000000E+00  0.00000000E+00  0.00000000E+00
  0.00000000E+00  0.00000000E+00  0.00000000E+00  0.00000000E+00  0.00000000E+00
  0.00000000E+00  0.00000000E+00  0.00000000E+00  0.00000000E+00  0.00000000E+00
  0.00000000E+00  0.00000000E+00  0.00000000E+00  0.00000000E+00  0.00000000E+00
  0.00000000E+00  0.00000000E+00  0.00000000E+00  0.00000000E+00  0.00000000E+00
  0.00000000E+00  0.00000000E+00  0.00000000E+00  0.00000000E+00  0.00000000E+00
  0.00000000E+00  0.00000000E+00  0.00000000E+00  0.00000000E+00  0.00000000E+00
  0.00000000E+00  0.00000000E+00  0.00000000E+00  0.00000000E+00  0.00000000E+00
  0.00000000E+00  0.00000000E+00  0.00000000E+00  0.00000000E+00  0.00000000E+00
  0.00000000E+00  0.00000000E+00  0.00000000E+00  0.00000000E+00  0.00000000E+00
  0.00000000E+00  0.00000000E+00  0.00000000E+00  0.00000000E+00  0.00000000E+00
  0.00000000E+00  0.00000000E+00  0.00000000E+00  0.00000000E+00  0.00000000E+00
  0.00000000E+00  0.00000000E+00  0.00000000E+00  0.00000000E+00  0.00000000E+00
  0.00000000E+00  0.00000000E+00  0.00000000E+00  0.00000000E+00  0.00000000E+00
  0.00000000E+00  0.00000000E+00  0.00000000E+00  0.00000000E+00  0.00000000E+00
  0.00000000E+00  0.00000000E+00  0.00000000E+00  0.00000000E+00  0.00000000E+00
  0.00000000E+00  0.00000000E+00  0.00000000E+00  0.00000000E+00  0.00000000E+00
  0.00000000E+00  0.00000000E+00  0.00000000E+00  0.00000000E+00  0.00000000E+00
  0.00000000E+00  0.00000000E+00  0.00000000E+00  0.00000000E+00  0.00000000E+00
  0.00000000E+00  0.00000000E+00  0.00000000E+00  0.00000000E+00  0.00000000E+00
  0.00000000E+00  0.00000000E+00  0.00000000E+00  0.00000000E+00  0.00000000E+00
  0.00000000E+00  0.00000000E+00  0.00000000E+00  0.00000000E+00  0.00000000E+00
  0.00000000E+00  0.00000000E+00  0.00000000E+00  0.00000000E+00  0.00000000E+00
  0.00000000E+00  0.00000000E+00  0.00000000E+00  0.00000000E+00  0.00000000E+00
  0.00000000E+00  0.00000000E+00  0.00000000E+00  0.00000000E+00  0.00000000E+00
  0.00000000E+00  0.00000000E+00  0.00000000E+00  0.00000000E+00  0.00000000E+00
  0.00000000E+00  0.00000000E+00  0.00000000E+00  0.00000000E+00  0.00000000E+00
  0.00000000E+00  0.00000000E+00  0.00000000E+00  0.00000000E+00  0.00000000E+00
  0.00000000E+00  0.00000000E+00  0.00000000E+00  0.00000000E+00  0.00000000E+00
  0.00000000E+00  0.00000000E+00  0.00000000E+00  0.00000000E+00  0.00000000E+00
  0.00000000E+00  0.00000000E+00  0.00000000E+00  0.00000000E+00  0.00000000E+00
  0.00000000E+00  0.00000000E+00  0.00000000E+00  0.00000000E+00  0.00000000E+00
  0.00000000E+00  0.00000000E+00  0.00000000E+00  0.00000000E+00  0.00000000E+00
  0.00000000E+00  0.00000000E+00  0.00000000E+00  0.00000000E+00  0.00000000E+00
  0.00000000E+00  0.00000000E+00  0.00000000E+00  0.00000000E+00  0.00000000E+00
  0.00000000E+00  0.00000000E+00  0.00000000E+00  0.00000000E+00  0.00000000E+00
  0.00000000E+00  0.00000000E+00  0.00000000E+00  0.00000000E+00  0.00000000E+00
  0.00000000E+00  0.00000000E+00  0.00000000E+00  0.00000000E+00  0.00000000E+00
  0.00000000E+00  0.00000000E+00  0.00000000E+00  0.00000000E+00  0.00000000E+00
  0.00000000E+00  0.00000000E+00  0.00000000E+00  0.00000000E+00  0.00000000E+00
  0.00000000E+00  0.00000000E+00  0.00000000E+00  0.00000000E+00  0.00000000E+00
  0.00000000E+00  0.00000000E+00  0.00000000E+00  0.00000000E+00  0.00000000E+00
  0.00000000E+00  0.00000000E+00  0.00000000E+00  0.00000000E+00  0.00000000E+00
  0.00000000E+00  0.00000000E+00  0.00000000E+00  0.00000000E+00  0.00000000E+00
  0.00000000E+00  0.00000000E+00  0.00000000E+00  0.00000000E+00  0.00000000E+00
  0.00000000E+00  0.00000000E+00  0.00000000E+00  0.00000000E+00  0.00000000E+00
  0.00000000E+00  0.00000000E+00  0.00000000E+00  0.00000000E+00  0.00000000E+00
  0.00000000E+00  0.00000000E+00  0.00000000E+00  0.00000000E+00  0.00000000E+00
  0.00000000E+00  0.00000000E+00  0.00000000E+00  0.00000000E+00  0.00000000E+00
  0.00000000E+00  0.00000000E+00  0.00000000E+00  0.00000000E+00  0.00000000E+00
  0.00000000E+00  0.00000000E+00  0.00000000E+00  0.00000000E+00  0.00000000E+00
  0.00000000E+00  0.00000000E+00  0.00000000E+00  0.00000000E+00  0.00000000E+00
  0.00000000E+00  0.00000000E+00  0.00000000E+00  0.00000000E+00  0.00000000E+00
  0.00000000E+00  0.00000000E+00  0.00000000E+00  0.00000000E+00  0.00000000E+00
  0.00000000E+00  0.00000000E+00  0.00000000E+00  0.00000000E+00  0.00000000E+00
  0.00000000E+00  0.00000000E+00  0.00000000E+00  0.00000000E+00  0.00000000E+00
  0.00000000E+00  0.00000000E+00  0.00000000E+00  0.00000000E+00  0.00000000E+00
  0.00000000E+00  0.00000000E+00  0.00000000E+00  0.00000000E+00  0.00000000E+00
  0.00000000E+00  0.00000000E+00  0.00000000E+00  0.00000000E+00  0.00000000E+00
  0.00000000E+00  0.00000000E+00  0.00000000E+00  0.00000000E+00  0.00000000E+00
  0.00000000E+00  0.00000000E+00  0.00000000E+00  0.00000000E+00  0.00000000E+00
  0.00000000E+00  0.00000000E+00  0.00000000E+00  0.00000000E+00  0.00000000E+00
  0.00000000E+00  0.00000000E+00  0.00000000E+00  0.00000000E+00  0.00000000E+00
  0.00000000E+00  0.00000000E+00  0.00000000E+00  0.00000000E+00  0.00000000E+00
  0.00000000E+00  0.00000000E+00  0.00000000E+00  0.00000000E+00  0.00000000E+00
  0.00000000E+00  0.00000000E+00  0.00000000E+00  0.00000000E+00  0.00000000E+00
  0.00000000E+00  0.00000000E+00  0.00000000E+00  0.00000000E+00  0.00000000E+00
  0.00000000E+00  0.00000000E+00  0.00000000E+00  0.00000000E+00  0.00000000E+00
  0.00000000E+00  0.00000000E+00  0.00000000E+00  0.00000000E+00  0.00000000E+00
  0.00000000E+00  0.00000000E+00  0.00000000E+00  0.00000000E+00  0.00000000E+00
  0.00000000E+00  0.00000000E+00  0.00000000E+00  0.00000000E+00  0.00000000E+00
  0.00000000E+00  0.00000000E+00  0.00000000E+00  0.00000000E+00  0.00000000E+00
  0.00000000E+00  0.00000000E+00  0.00000000E+00  0.00000000E+00  0.00000000E+00
  0.00000000E+00  0.00000000E+00  0.00000000E+00  0.00000000E+00  0.00000000E+00
  0.00000000E+00  0.00000000E+00  0.00000000E+00  0.00000000E+00  0.00000000E+00
  0.00000000E+00  0.00000000E+00  0.00000000E+00  0.00000000E+00  0.00000000E+00
  0.00000000E+00  0.00000000E+00  0.00000000E+00  0.00000000E+00  0.00000000E+00
  0.00000000E+00  0.00000000E+00  0.00000000E+00  0.00000000E+00  0.00000000E+00
  0.00000000E+00  0.00000000E+00  0.00000000E+00  0.00000000E+00  0.00000000E+00
  0.00000000E+00  0.00000000E+00  0.00000000E+00  0.00000000E+00  0.00000000E+00
  0.00000000E+00  0.00000000E+00  0.00000000E+00  0.00000000E+00  0.00000000E+00
  0.00000000E+00  0.00000000E+00  0.00000000E+00  0.00000000E+00  0.00000000E+00
  0.00000000E+00  0.00000000E+00  0.00000000E+00  0.00000000E+00  0.00000000E+00
  0.00000000E+00  0.00000000E+00  0.00000000E+00  0.00000000E+00  0.00000000E+00
  0.00000000E+00  0.00000000E+00  0.00000000E+00  0.00000000E+00  0.00000000E+00
  0.00000000E+00  0.00000000E+00  0.00000000E+00  0.00000000E+00  0.00000000E+00
  0.00000000E+00  0.00000000E+00  0.00000000E+00  0.00000000E+00  0.00000000E+00
  0.00000000E+00  0.00000000E+00  0.00000000E+00  0.00000000E+00  0.00000000E+00
  0.00000000E+00  0.00000000E+00  0.00000000E+00  0.00000000E+00  0.00000000E+00
  0.00000000E+00  0.00000000E+00  0.00000000E+00  0.00000000E+00  0.00000000E+00
  0.00000000E+00  0.00000000E+00  0.00000000E+00  0.00000000E+00  0.00000000E+00
  0.00000000E+00  0.00000000E+00  0.00000000E+00  0.00000000E+00  0.00000000E+00
  0.00000000E+00  0.00000000E+00  0.00000000E+00  0.00000000E+00  0.00000000E+00
  0.00000000E+00  0.00000000E+00  0.00000000E+00  0.00000000E+00  0.00000000E+00
  0.00000000E+00  0.00000000E+00  0.00000000E+00  0.00000000E+00  0.00000000E+00
  0.00000000E+00  0.00000000E+00  0.00000000E+00  0.00000000E+00  0.00000000E+00
  0.00000000E+00  0.00000000E+00  0.00000000E+00  0.00000000E+00  0.00000000E+00
  0.00000000E+00  0.00000000E+00  0.00000000E+00  0.00000000E+00  0.00000000E+00
  0.00000000E+00  0.00000000E+00  0.00000000E+00  0.00000000E+00  0.00000000E+00
  0.00000000E+00  0.00000000E+00  0.00000000E+00  0.00000000E+00  0.00000000E+00
  0.00000000E+00  0.00000000E+00  0.00000000E+00  0.00000000E+00  0.00000000E+00
  0.00000000E+00  0.00000000E+00  0.00000000E+00  0.00000000E+00  0.00000000E+00
  0.00000000E+00  0.00000000E+00  0.00000000E+00  0.00000000E+00  0.00000000E+00
  0.00000000E+00  0.00000000E+00  0.00000000E+00  0.00000000E+00  0.00000000E+00
  0.00000000E+00  0.00000000E+00  0.00000000E+00  0.00000000E+00  0.00000000E+00
  0.00000000E+00  0.00000000E+00  0.00000000E+00  0.00000000E+00  0.00000000E+00
  0.00000000E+00  0.00000000E+00  0.00000000E+00  0.00000000E+00  0.00000000E+00
  0.00000000E+00  0.00000000E+00  0.00000000E+00  0.00000000E+00  0.00000000E+00
  0.00000000E+00  0.00000000E+00  0.00000000E+00  0.00000000E+00  0.00000000E+00
  0.00000000E+00  0.00000000E+00  0.00000000E+00  0.00000000E+00  0.00000000E+00
  0.00000000E+00  0.00000000E+00  0.00000000E+00  0.00000000E+00  0.00000000E+00
  0.00000000E+00  0.00000000E+00  0.00000000E+00  0.00000000E+00  0.00000000E+00
  0.00000000E+00  0.00000000E+00  0.00000000E+00  0.00000000E+00  0.00000000E+00
  0.00000000E+00  0.00000000E+00  0.00000000E+00  0.00000000E+00  0.00000000E+00
  0.00000000E+00  0.00000000E+00  0.00000000E+00  0.00000000E+00  0.00000000E+00
  0.00000000E+00  0.00000000E+00  0.00000000E+00  0.00000000E+00  0.00000000E+00
  0.00000000E+00  0.00000000E+00  0.00000000E+00  0.00000000E+00  0.00000000E+00
  0.00000000E+00  0.00000000E+00  0.00000000E+00  0.00000000E+00  0.00000000E+00
  0.00000000E+00  0.00000000E+00  0.00000000E+00  0.00000000E+00  0.00000000E+00
  0.00000000E+00  0.00000000E+00  0.00000000E+00  0.00000000E+00  0.00000000E+00
  0.00000000E+00  0.00000000E+00  0.00000000E+00  0.00000000E+00  0.00000000E+00
  0.00000000E+00  0.00000000E+00  0.00000000E+00  0.00000000E+00  0.00000000E+00
  0.00000000E+00  0.00000000E+00  0.00000000E+00  0.00000000E+00  0.00000000E+00
  0.00000000E+00  0.00000000E+00  0.00000000E+00  0.00000000E+00  0.00000000E+00
  0.00000000E+00  0.00000000E+00  0.00000000E+00  0.00000000E+00  0.00000000E+00
  0.00000000E+00  0.00000000E+00  0.00000000E+00  0.00000000E+00  0.00000000E+00
  0.00000000E+00  0.00000000E+00  0.00000000E+00  0.00000000E+00  0.00000000E+00
  0.00000000E+00  0.00000000E+00  0.00000000E+00  0.00000000E+00  0.00000000E+00
  0.00000000E+00  0.00000000E+00  0.00000000E+00  0.00000000E+00  0.00000000E+00
  0.00000000E+00  0.00000000E+00  0.00000000E+00  0.00000000E+00  0.00000000E+00
  0.00000000E+00  0.00000000E+00  0.00000000E+00  0.00000000E+00  0.00000000E+00
  0.00000000E+00  0.00000000E+00  0.00000000E+00  0.00000000E+00  0.00000000E+00
  0.00000000E+00  0.00000000E+00  0.00000000E+00  0.00000000E+00  0.00000000E+00
  0.00000000E+00  0.00000000E+00  0.00000000E+00  0.00000000E+00  0.00000000E+00
  0.00000000E+00  0.00000000E+00  0.00000000E+00  0.00000000E+00  0.00000000E+00
  0.00000000E+00  0.00000000E+00  0.00000000E+00  0.00000000E+00  0.00000000E+00
  0.00000000E+00  0.00000000E+00  0.00000000E+00  0.00000000E+00  0.00000000E+00
  0.00000000E+00  0.00000000E+00  0.00000000E+00  0.00000000E+00  0.00000000E+00
  0.00000000E+00  0.00000000E+00  0.00000000E+00  0.00000000E+00  0.00000000E+00
  0.00000000E+00  0.00000000E+00  0.00000000E+00  0.00000000E+00  0.00000000E+00
  0.00000000E+00  0.00000000E+00  0.00000000E+00  0.00000000E+00  0.00000000E+00
  0.00000000E+00  0.00000000E+00  0.00000000E+00  0.00000000E+00  0.00000000E+00
  0.00000000E+00  0.00000000E+00  0.00000000E+00  0.00000000E+00  0.00000000E+00
  0.00000000E+00  0.00000000E+00  0.00000000E+00  0.00000000E+00  0.00000000E+00
  0.00000000E+00  0.00000000E+00  0.00000000E+00  0.00000000E+00  0.00000000E+00
  0.00000000E+00  0.00000000E+00  0.00000000E+00  0.00000000E+00  0.00000000E+00
  0.00000000E+00  0.00000000E+00  0.00000000E+00  0.00000000E+00  0.00000000E+00
  0.00000000E+00  0.00000000E+00  0.00000000E+00  0.00000000E+00  0.00000000E+00
  0.00000000E+00  0.00000000E+00  0.00000000E+00  0.00000000E+00  0.00000000E+00
  0.00000000E+00  0.00000000E+00  0.00000000E+00  0.00000000E+00  0.00000000E+00
  0.00000000E+00  0.00000000E+00  0.00000000E+00  0.00000000E+00  0.00000000E+00
  0.00000000E+00  0.00000000E+00  0.00000000E+00  0.00000000E+00  0.00000000E+00
  0.00000000E+00  0.00000000E+00  0.00000000E+00  0.00000000E+00  0.00000000E+00
  0.00000000E+00  0.00000000E+00  0.00000000E+00  0.00000000E+00  0.00000000E+00
  0.00000000E+00  0.00000000E+00  0.00000000E+00  0.00000000E+00  0.00000000E+00
  0.00000000E+00  0.00000000E+00  0.00000000E+00  0.00000000E+00  0.00000000E+00
  0.00000000E+00  0.00000000E+00  0.00000000E+00  0.00000000E+00  0.00000000E+00
  0.00000000E+00  0.00000000E+00  0.00000000E+00  0.00000000E+00  0.00000000E+00
  0.00000000E+00  0.00000000E+00  0.00000000E+00  0.00000000E+00  0.00000000E+00
  0.00000000E+00  0.00000000E+00  0.00000000E+00  0.00000000E+00  0.00000000E+00
  0.00000000E+00  0.00000000E+00  0.00000000E+00  0.00000000E+00  0.00000000E+00
  0.00000000E+00  0.00000000E+00  0.00000000E+00  0.00000000E+00  0.00000000E+00
  0.00000000E+00  0.00000000E+00  0.00000000E+00  0.00000000E+00  0.00000000E+00
  0.00000000E+00  0.00000000E+00  0.00000000E+00  0.00000000E+00  0.00000000E+00
  0.00000000E+00  0.00000000E+00  0.00000000E+00  0.00000000E+00  0.00000000E+00
  0.00000000E+00  0.00000000E+00  0.00000000E+00  0.00000000E+00  0.00000000E+00
  0.00000000E+00  0.00000000E+00  0.00000000E+00  0.00000000E+00  0.00000000E+00
  0.00000000E+00  0.00000000E+00  0.00000000E+00  0.00000000E+00  0.00000000E+00
  0.00000000E+00  0.00000000E+00  0.00000000E+00  0.00000000E+00  0.00000000E+00
  0.00000000E+00  0.00000000E+00  0.00000000E+00  0.00000000E+00  0.00000000E+00
  0.00000000E+00  0.00000000E+00  0.00000000E+00  0.00000000E+00  0.00000000E+00
  0.00000000E+00  0.00000000E+00  0.00000000E+00  0.00000000E+00  0.00000000E+00
  0.00000000E+00  0.00000000E+00  0.00000000E+00  0.00000000E+00  0.00000000E+00
  0.00000000E+00  0.00000000E+00  0.00000000E+00  0.00000000E+00  0.00000000E+00
  0.00000000E+00  0.00000000E+00  0.00000000E+00  0.00000000E+00  0.00000000E+00
  0.00000000E+00  0.00000000E+00  0.00000000E+00  0.00000000E+00  0.00000000E+00
  0.00000000E+00  0.00000000E+00  0.00000000E+00  0.00000000E+00  0.00000000E+00
  0.00000000E+00  0.00000000E+00  0.00000000E+00  0.00000000E+00  0.00000000E+00
  0.00000000E+00  0.00000000E+00  0.00000000E+00  0.00000000E+00  0.00000000E+00
  0.00000000E+00  0.00000000E+00  0.00000000E+00  0.00000000E+00  0.00000000E+00
  0.00000000E+00  0.00000000E+00  0.00000000E+00  0.00000000E+00  0.00000000E+00
  0.00000000E+00  0.00000000E+00  0.00000000E+00  0.00000000E+00  0.00000000E+00
  0.00000000E+00  0.00000000E+00  0.00000000E+00  0.00000000E+00  0.00000000E+00
  0.00000000E+00  0.00000000E+00  0.00000000E+00  0.00000000E+00  0.00000000E+00
  0.00000000E+00  0.00000000E+00  0.00000000E+00  0.00000000E+00  0.00000000E+00
  0.00000000E+00  0.00000000E+00  0.00000000E+00  0.00000000E+00  0.00000000E+00
Gaussian Version                           C   N=           2
ES64L-G16RevC.01        
