 Entering Gaussian System, Link 0=/gaussian/g16.c01/intel64-sandybridge/g16/g16
 Input=C2H2ClBr_Cs.gjf
 Output=C2H2ClBr_Cs.log
 Initial command:
 /gaussian/g16.c01/intel64-sandybridge/g16/l1.exe "/home/barone/lcrisci_vb/ACTUAL_PROJECTS/MRCC_new_Interface_project/TestingOldVersion/Symmetry/Acetaldehyde_Cs/Gau-4150629.inp" -scrdir="/home/barone/lcrisci_vb/ACTUAL_PROJECTS/MRCC_new_Interface_project/TestingOldVersion/Symmetry/Acetaldehyde_Cs/"
 Entering Link 1 = /gaussian/g16.c01/intel64-sandybridge/g16/l1.exe PID=   4150630.
  
 Copyright (c) 1988-2019, Gaussian, Inc.  All Rights Reserved.
  
 This is part of the Gaussian(R) 16 program.  It is based on
 the Gaussian(R) 09 system (copyright 2009, Gaussian, Inc.),
 the Gaussian(R) 03 system (copyright 2003, Gaussian, Inc.),
 the Gaussian(R) 98 system (copyright 1998, Gaussian, Inc.),
 the Gaussian(R) 94 system (copyright 1995, Gaussian, Inc.),
 the Gaussian 92(TM) system (copyright 1992, Gaussian, Inc.),
 the Gaussian 90(TM) system (copyright 1990, Gaussian, Inc.),
 the Gaussian 88(TM) system (copyright 1988, Gaussian, Inc.),
 the Gaussian 86(TM) system (copyright 1986, Carnegie Mellon
 University), and the Gaussian 82(TM) system (copyright 1983,
 Carnegie Mellon University). Gaussian is a federally registered
 trademark of Gaussian, Inc.
  
 This software contains proprietary and confidential information,
 including trade secrets, belonging to Gaussian, Inc.
  
 This software is provided under written license and may be
 used, copied, transmitted, or stored only in accord with that
 written license.
  
 The following legend is applicable only to US Government
 contracts under FAR:
  
                    RESTRICTED RIGHTS LEGEND
  
 Use, reproduction and disclosure by the US Government is
 subject to restrictions as set forth in subparagraphs (a)
 and (c) of the Commercial Computer Software - Restricted
 Rights clause in FAR 52.227-19.
  
 Gaussian, Inc.
 340 Quinnipiac St., Bldg. 40, Wallingford CT 06492
  
  
 ---------------------------------------------------------------
 Warning -- This program may not be used in any manner that
 competes with the business of Gaussian, Inc. or will provide
 assistance to any competitor of Gaussian, Inc.  The licensee
 of this program is prohibited from giving any competitor of
 Gaussian, Inc. access to this program.  By using this program,
 the user acknowledges that Gaussian, Inc. is engaged in the
 business of creating and licensing software in the field of
 computational chemistry and represents and warrants to the
 licensee that it is not a competitor of Gaussian, Inc. and that
 it will not use this program in any manner prohibited above.
 ---------------------------------------------------------------
  

 Cite this work as:
 Gaussian 16, Revision C.01,
 M. J. Frisch, G. W. Trucks, H. B. Schlegel, G. E. Scuseria, 
 M. A. Robb, J. R. Cheeseman, G. Scalmani, V. Barone, 
 G. A. Petersson, H. Nakatsuji, X. Li, M. Caricato, A. V. Marenich, 
 J. Bloino, B. G. Janesko, R. Gomperts, B. Mennucci, H. P. Hratchian, 
 J. V. Ortiz, A. F. Izmaylov, J. L. Sonnenberg, D. Williams-Young, 
 F. Ding, F. Lipparini, F. Egidi, J. Goings, B. Peng, A. Petrone, 
 T. Henderson, D. Ranasinghe, V. G. Zakrzewski, J. Gao, N. Rega, 
 G. Zheng, W. Liang, M. Hada, M. Ehara, K. Toyota, R. Fukuda, 
 J. Hasegawa, M. Ishida, T. Nakajima, Y. Honda, O. Kitao, H. Nakai, 
 T. Vreven, K. Throssell, J. A. Montgomery, Jr., J. E. Peralta, 
 F. Ogliaro, M. J. Bearpark, J. J. Heyd, E. N. Brothers, K. N. Kudin, 
 V. N. Staroverov, T. A. Keith, R. Kobayashi, J. Normand, 
 K. Raghavachari, A. P. Rendell, J. C. Burant, S. S. Iyengar, 
 J. Tomasi, M. Cossi, J. M. Millam, M. Klene, C. Adamo, R. Cammi, 
 J. W. Ochterski, R. L. Martin, K. Morokuma, O. Farkas, 
 J. B. Foresman, and D. J. Fox, Gaussian, Inc., Wallingford CT, 2019.
 
 ******************************************
 Gaussian 16:  ES64L-G16RevC.01  3-Jul-2019
                19-Nov-2025 
 ******************************************
 %chk=test_parall.chk
 %nprocs=1
 Will use up to    1 processors via shared memory.
 ----------------------------------------------------------------------
 #p force output=pickett External="CentralExt gau $PGAU/test_pr.dat $EG
 AU/test_en.dat 7 55 read parall 2"
 ----------------------------------------------------------------------
 1/10=10,18=10,30=1,38=1,172=1/1;
 2/12=2,17=6,18=5,29=2,40=1/2;
 3/11=9,25=1,30=1,41=9900000,43=2,71=1/1;
 4/20=17,22=1,24=3,113=1,114=1/2;
 6/7=2,8=2,9=2,10=2/1;
 7/7=1,44=-1/16;
 99/10=1024,12=1/99;
 Leave Link    1 at Wed Nov 19 18:07:38 2025, MaxMem=           0 cpu:               0.0 elap:               0.1
 (Enter /gaussian/g16.c01/intel64-sandybridge/g16/l101.exe)
 -----
 title
 -----
 Symbolic Z-matrix:
 Charge =  0 Multiplicity = 1
 C                    -1.17334  -0.15076   0. 
 C                     0.2313    0.40235   0. 
 O                     1.24257  -0.27713   0. 
 H                    -1.7157    0.21777   0.88766 
 H                    -1.14951  -1.24995   0. 
 H                    -1.7157    0.21777  -0.88766 
 H                     0.29261   1.522     0. 
 
 ITRead=  0  0  0  0  0  0  0
 MicOpt= -1 -1 -1 -1 -1 -1 -1
 NAtoms=      7 NQM=        7 NQMF=       0 NMMI=      0 NMMIF=      0
                NMic=       0 NMicF=      0.
                    Isotopes and Nuclear Properties:
 (Nuclear quadrupole moments (NQMom) in fm**2, nuclear magnetic moments (NMagM)
  in nuclear magnetons)

  Atom         1           2           3           4           5           6           7
 IAtWgt=          12          12          16           1           1           1           1
 AtmWgt=  12.0000000  12.0000000  15.9949146   1.0078250   1.0078250   1.0078250   1.0078250
 NucSpn=           0           0           0           1           1           1           1
 AtZEff=  -0.0000000  -0.0000000  -0.0000000  -0.0000000  -0.0000000  -0.0000000  -0.0000000
 NQMom=    0.0000000   0.0000000   0.0000000   0.0000000   0.0000000   0.0000000   0.0000000
 NMagM=    0.0000000   0.0000000   0.0000000   2.7928460   2.7928460   2.7928460   2.7928460
 AtZNuc=   6.0000000   6.0000000   8.0000000   1.0000000   1.0000000   1.0000000   1.0000000
 Leave Link  101 at Wed Nov 19 18:07:38 2025, MaxMem=   104857600 cpu:               0.1 elap:               0.1
 (Enter /gaussian/g16.c01/intel64-sandybridge/g16/l202.exe)
 ---------------------------------------------------------------------------------------------------
                            Z-MATRIX (ANGSTROMS AND DEGREES)
   CD    Cent   Atom    N1       Length/X        N2       Alpha/Y        N3        Beta/Z          J
 ---------------------------------------------------------------------------------------------------
      1      1  C        0  -1.173339         -0.150763          0.000000
      2      2  C        0   0.231297          0.402351          0.000000
      3      3  O        0   1.242565         -0.277130          0.000000
      4      4  H        0  -1.715701          0.217768          0.887665
      5      5  H        0  -1.149510         -1.249953          0.000000
      6      6  H        0  -1.715701          0.217768         -0.887665
      7      7  H        0   0.292607          1.522005          0.000000
 ---------------------------------------------------------------------------------------------------
                         Z-Matrix orientation:                         
 ---------------------------------------------------------------------
 Center     Atomic      Atomic             Coordinates (Angstroms)
 Number     Number       Type             X           Y           Z
 ---------------------------------------------------------------------
      1          6           0       -1.173339   -0.150763    0.000000
      2          6           0        0.231297    0.402351    0.000000
      3          8           0        1.242565   -0.277130    0.000000
      4          1           0       -1.715701    0.217768    0.887665
      5          1           0       -1.149510   -1.249953    0.000000
      6          1           0       -1.715701    0.217768   -0.887665
      7          1           0        0.292607    1.522005    0.000000
 ---------------------------------------------------------------------
                    Distance matrix (angstroms):
                    1          2          3          4          5
     1  C    0.000000
     2  C    1.509615   0.000000
     3  O    2.419207   1.218342   0.000000
     4  H    1.103594   2.147748   3.127972   0.000000
     5  H    1.099448   2.153308   2.582326   1.806302   0.000000
     6  H    1.103594   2.147748   3.127972   1.775330   1.806302
     7  H    2.224219   1.121331   2.034529   2.553876   3.124652
                    6          7
     6  H    0.000000
     7  H    2.553876   0.000000
 Stoichiometry    C2H4O
 Framework group  CS[SG(C2H2O),X(H2)]
 Deg. of freedom    10
 Full point group                 CS      NOp   2
 Largest Abelian subgroup         CS      NOp   2
 Largest concise Abelian subgroup CS      NOp   2
                         Standard orientation:                         
 ---------------------------------------------------------------------
 Center     Atomic      Atomic             Coordinates (Angstroms)
 Number     Number       Type             X           Y           Z
 ---------------------------------------------------------------------
      1          6           0       -0.942090   -0.715484    0.000000
      2          6           0        0.000000    0.464094    0.000000
      3          8           0        1.215368    0.379018    0.000000
      4          1           0       -1.595964   -0.666292    0.887665
      5          1           0       -0.373608   -1.656556    0.000000
      6          1           0       -1.595964   -0.666292   -0.887665
      7          1           0       -0.504869    1.465338    0.000000
 ---------------------------------------------------------------------
 Rotational constants (GHZ):          56.1611495          10.0243963           8.9865642
 Leave Link  202 at Wed Nov 19 18:07:38 2025, MaxMem=   104857600 cpu:               0.0 elap:               0.1
 (Enter /gaussian/g16.c01/intel64-sandybridge/g16/l301.exe)
 Standard basis: STO-3G (5D, 7F)
 Ernie: Thresh=  0.10000D-02 Tol=  0.10000D-05 Strict=F.
 There are    15 symmetry adapted cartesian basis functions of A'  symmetry.
 There are     4 symmetry adapted cartesian basis functions of A"  symmetry.
 There are    15 symmetry adapted basis functions of A'  symmetry.
 There are     4 symmetry adapted basis functions of A"  symmetry.
    19 basis functions,    57 primitive gaussians,    19 cartesian basis functions
    12 alpha electrons       12 beta electrons
       nuclear repulsion energy        69.1941104257 Hartrees.
 IExCor=    0 DFT=F Ex=HF Corr=None ExCW=0 ScaHFX=  1.000000
 ScaDFX=  1.000000  1.000000  1.000000  1.000000 ScalE2=  1.000000  1.000000
 IRadAn=      5 IRanWt=     -1 IRanGd=            0 ICorTp=0 IEmpDi=  4
 NAtoms=    7 NActive=    7 NUniq=    6 SFac= 1.36D+00 NAtFMM=   60 NAOKFM=F Big=F
 Integral buffers will be    131072 words long.
 Raffenetti 1 integral format.
 Two-electron integral symmetry is turned on.
 Leave Link  301 at Wed Nov 19 18:07:38 2025, MaxMem=   104857600 cpu:               0.0 elap:               0.1
 (Enter /gaussian/g16.c01/intel64-sandybridge/g16/l402.exe)
 External calculation of energy and first derivatives.
 Running external command "CentralExt gau $PGAU/test_pr.dat $EGAU/test_en.dat 7 55 read parall 2 R"
         input file       "/home/barone/lcrisci_vb/ACTUAL_PROJECTS/MRCC_new_Interface_project/TestingOldVersion/Symmetry/Acetaldehyde_Cs/Gau-4150630.EIn"
         output file      "/home/barone/lcrisci_vb/ACTUAL_PROJECTS/MRCC_new_Interface_project/TestingOldVersion/Symmetry/Acetaldehyde_Cs/Gau-4150630.EOu"
         message file     "/home/barone/lcrisci_vb/ACTUAL_PROJECTS/MRCC_new_Interface_project/TestingOldVersion/Symmetry/Acetaldehyde_Cs/Gau-4150630.EMs"
         fchk file        "/home/barone/lcrisci_vb/ACTUAL_PROJECTS/MRCC_new_Interface_project/TestingOldVersion/Symmetry/Acetaldehyde_Cs/Gau-4150630.EFC"
         mat. el file     "/home/barone/lcrisci_vb/ACTUAL_PROJECTS/MRCC_new_Interface_project/TestingOldVersion/Symmetry/Acetaldehyde_Cs/Gau-4150630.EUF"

================================================================================
CHECKING FOR MIXED ANALYTICAL/NUMERICAL GRADIENT MODE
================================================================================
Analyzing sections in /home/barone/lcrisci_vb/MyScript/PreambleGau/test_pr.dat for gradient mode (comment='#')

--- Section Analysis Summary ---
  default: NUMERICAL (dens=0, lines=0)

Total sections: 1
Analytical sections (0): []
Numerical sections (1): ['default']
--------------------------------

Mode Detection Results:
  OptFlag (gradient requested): 1
  Has analytical sections: False
  Has numerical sections: True
  Mixed mode activated: False
  All analytical mode: False
  All numerical mode: True
================================================================================

FAKE_FREQ CONVERSION: C Bohr=['-1.780291833312', '-1.352069536017', '0.0'] -> Angstrom=[-0.9420898669454326, -0.7154843860163893, 0.0]
FAKE_FREQ CONVERSION: C Bohr=['0.0', '0.877009673435', '0.0'] -> Angstrom=[0.0, 0.46409353292328415, 0.0]
FAKE_FREQ CONVERSION: O Bohr=['2.296712830193', '0.716240613726', '0.0'] -> Angstrom=[1.215368089726667, 0.37901821030697763, 0.0]
FAKE_FREQ CONVERSION: H Bohr=['-3.015935112026', '-1.259108729003', '1.677443626978'] -> Angstrom=[-1.5959641308463453, -0.6662916454374288, 0.8876649399712303]
FAKE_FREQ CONVERSION: H Bohr=['-0.706017474231', '-3.130436637528', '0.0'] -> Angstrom=[-0.37360835786234126, -1.6565557287556325, 0.0]
FAKE_FREQ CONVERSION: H Bohr=['-3.015935112026', '-1.259108729003', '-1.677443626978'] -> Angstrom=[-1.5959641308463453, -0.6662916454374288, -0.8876649399712303]
FAKE_FREQ CONVERSION: H Bohr=['-0.954063943387', '2.769088361215', '0.0'] -> Angstrom=[-0.5048688965846503, 1.4653384557317126, 0.0]
Checking original directory for Gaussian input: /home/barone/lcrisci_vb/ACTUAL_PROJECTS/MRCC_new_Interface_project/TestingOldVersion/Symmetry/Acetaldehyde_Cs
Found Gaussian input file with External keyword: /home/barone/lcrisci_vb/ACTUAL_PROJECTS/MRCC_new_Interface_project/TestingOldVersion/Symmetry/Acetaldehyde_Cs/C2H2ClBr_Cs.gjf
GEOMETRY CONVERSION: Task 'central' - Converted from Bohr to Angstrom
  First atom coordinates: Bohr = [-1.78029183 -1.35206954  0.        ], Angstrom = [-0.94208987 -0.71548439  0.        ]
GEOMETRY CONVERSION: Task 'atom_1_ixyz_1_up' - Converted from Bohr to Angstrom
  First atom coordinates: Bohr = [-1.77840211 -1.35206954  0.        ], Angstrom = [-0.94108987 -0.71548439  0.        ]
GEOMETRY CONVERSION: Task 'atom_1_ixyz_1_down' - Converted from Bohr to Angstrom
  First atom coordinates: Bohr = [-1.78218156 -1.35206954  0.        ], Angstrom = [-0.94308987 -0.71548439  0.        ]
GEOMETRY CONVERSION: Task 'atom_1_ixyz_2_up' - Converted from Bohr to Angstrom
  First atom coordinates: Bohr = [-1.78029183 -1.35017981  0.        ], Angstrom = [-0.94208987 -0.71448439  0.        ]
GEOMETRY CONVERSION: Task 'atom_1_ixyz_2_down' - Converted from Bohr to Angstrom
  First atom coordinates: Bohr = [-1.78029183 -1.35395926  0.        ], Angstrom = [-0.94208987 -0.71648439  0.        ]
GEOMETRY CONVERSION: Task 'atom_1_ixyz_3_up' - Converted from Bohr to Angstrom
  First atom coordinates: Bohr = [-1.78029183 -1.35206954  0.00188973], Angstrom = [-0.94208987 -0.71548439  0.001     ]
GEOMETRY CONVERSION: Task 'atom_2_ixyz_1_up' - Converted from Bohr to Angstrom
  First atom coordinates: Bohr = [-1.78029183 -1.35206954  0.        ], Angstrom = [-0.94208987 -0.71548439  0.        ]
GEOMETRY CONVERSION: Task 'atom_2_ixyz_1_down' - Converted from Bohr to Angstrom
  First atom coordinates: Bohr = [-1.78029183 -1.35206954  0.        ], Angstrom = [-0.94208987 -0.71548439  0.        ]
GEOMETRY CONVERSION: Task 'atom_2_ixyz_2_up' - Converted from Bohr to Angstrom
  First atom coordinates: Bohr = [-1.78029183 -1.35206954  0.        ], Angstrom = [-0.94208987 -0.71548439  0.        ]
GEOMETRY CONVERSION: Task 'atom_2_ixyz_2_down' - Converted from Bohr to Angstrom
  First atom coordinates: Bohr = [-1.78029183 -1.35206954  0.        ], Angstrom = [-0.94208987 -0.71548439  0.        ]
GEOMETRY CONVERSION: Task 'atom_2_ixyz_3_up' - Converted from Bohr to Angstrom
  First atom coordinates: Bohr = [-1.78029183 -1.35206954  0.        ], Angstrom = [-0.94208987 -0.71548439  0.        ]
GEOMETRY CONVERSION: Task 'atom_3_ixyz_1_up' - Converted from Bohr to Angstrom
  First atom coordinates: Bohr = [-1.78029183 -1.35206954  0.        ], Angstrom = [-0.94208987 -0.71548439  0.        ]
GEOMETRY CONVERSION: Task 'atom_3_ixyz_1_down' - Converted from Bohr to Angstrom
  First atom coordinates: Bohr = [-1.78029183 -1.35206954  0.        ], Angstrom = [-0.94208987 -0.71548439  0.        ]
GEOMETRY CONVERSION: Task 'atom_3_ixyz_2_up' - Converted from Bohr to Angstrom
  First atom coordinates: Bohr = [-1.78029183 -1.35206954  0.        ], Angstrom = [-0.94208987 -0.71548439  0.        ]
GEOMETRY CONVERSION: Task 'atom_3_ixyz_2_down' - Converted from Bohr to Angstrom
  First atom coordinates: Bohr = [-1.78029183 -1.35206954  0.        ], Angstrom = [-0.94208987 -0.71548439  0.        ]
GEOMETRY CONVERSION: Task 'atom_3_ixyz_3_up' - Converted from Bohr to Angstrom
  First atom coordinates: Bohr = [-1.78029183 -1.35206954  0.        ], Angstrom = [-0.94208987 -0.71548439  0.        ]
GEOMETRY CONVERSION: Task 'atom_4_ixyz_1_up' - Converted from Bohr to Angstrom
  First atom coordinates: Bohr = [-1.78029183 -1.35206954  0.        ], Angstrom = [-0.94208987 -0.71548439  0.        ]
GEOMETRY CONVERSION: Task 'atom_4_ixyz_1_down' - Converted from Bohr to Angstrom
  First atom coordinates: Bohr = [-1.78029183 -1.35206954  0.        ], Angstrom = [-0.94208987 -0.71548439  0.        ]
GEOMETRY CONVERSION: Task 'atom_4_ixyz_2_up' - Converted from Bohr to Angstrom
  First atom coordinates: Bohr = [-1.78029183 -1.35206954  0.        ], Angstrom = [-0.94208987 -0.71548439  0.        ]
GEOMETRY CONVERSION: Task 'atom_4_ixyz_2_down' - Converted from Bohr to Angstrom
  First atom coordinates: Bohr = [-1.78029183 -1.35206954  0.        ], Angstrom = [-0.94208987 -0.71548439  0.        ]
GEOMETRY CONVERSION: Task 'atom_4_ixyz_3_up' - Converted from Bohr to Angstrom
  First atom coordinates: Bohr = [-1.78029183 -1.35206954  0.        ], Angstrom = [-0.94208987 -0.71548439  0.        ]
GEOMETRY CONVERSION: Task 'atom_4_ixyz_3_down' - Converted from Bohr to Angstrom
  First atom coordinates: Bohr = [-1.78029183 -1.35206954  0.        ], Angstrom = [-0.94208987 -0.71548439  0.        ]
GEOMETRY CONVERSION: Task 'atom_5_ixyz_1_up' - Converted from Bohr to Angstrom
  First atom coordinates: Bohr = [-1.78029183 -1.35206954  0.        ], Angstrom = [-0.94208987 -0.71548439  0.        ]
GEOMETRY CONVERSION: Task 'atom_5_ixyz_1_down' - Converted from Bohr to Angstrom
  First atom coordinates: Bohr = [-1.78029183 -1.35206954  0.        ], Angstrom = [-0.94208987 -0.71548439  0.        ]
GEOMETRY CONVERSION: Task 'atom_5_ixyz_2_up' - Converted from Bohr to Angstrom
  First atom coordinates: Bohr = [-1.78029183 -1.35206954  0.        ], Angstrom = [-0.94208987 -0.71548439  0.        ]
GEOMETRY CONVERSION: Task 'atom_5_ixyz_2_down' - Converted from Bohr to Angstrom
  First atom coordinates: Bohr = [-1.78029183 -1.35206954  0.        ], Angstrom = [-0.94208987 -0.71548439  0.        ]
GEOMETRY CONVERSION: Task 'atom_5_ixyz_3_up' - Converted from Bohr to Angstrom
  First atom coordinates: Bohr = [-1.78029183 -1.35206954  0.        ], Angstrom = [-0.94208987 -0.71548439  0.        ]
GEOMETRY CONVERSION: Task 'atom_7_ixyz_1_up' - Converted from Bohr to Angstrom
  First atom coordinates: Bohr = [-1.78029183 -1.35206954  0.        ], Angstrom = [-0.94208987 -0.71548439  0.        ]
GEOMETRY CONVERSION: Task 'atom_7_ixyz_1_down' - Converted from Bohr to Angstrom
  First atom coordinates: Bohr = [-1.78029183 -1.35206954  0.        ], Angstrom = [-0.94208987 -0.71548439  0.        ]
GEOMETRY CONVERSION: Task 'atom_7_ixyz_2_up' - Converted from Bohr to Angstrom
  First atom coordinates: Bohr = [-1.78029183 -1.35206954  0.        ], Angstrom = [-0.94208987 -0.71548439  0.        ]
GEOMETRY CONVERSION: Task 'atom_7_ixyz_2_down' - Converted from Bohr to Angstrom
  First atom coordinates: Bohr = [-1.78029183 -1.35206954  0.        ], Angstrom = [-0.94208987 -0.71548439  0.        ]
GEOMETRY CONVERSION: Task 'atom_7_ixyz_3_up' - Converted from Bohr to Angstrom
  First atom coordinates: Bohr = [-1.78029183 -1.35206954  0.        ], Angstrom = [-0.94208987 -0.71548439  0.        ]
✓ Extracted Input orientation (7 atoms)
✓ Extracted Original coordinates (7 atoms)
DEBUG: Preserved fake frequency log as FAKE_FREQ/fake_freq_1.log
DEBUG: Expected atoms: 7
DEBUG: Task central: 7 atoms
DEBUG: Task atom_1_ixyz_1_up: 7 atoms
DEBUG: Task atom_1_ixyz_1_down: 7 atoms
DEBUG: Task atom_1_ixyz_2_up: 7 atoms
DEBUG: Task atom_1_ixyz_2_down: 7 atoms
DEBUG: Task atom_2_ixyz_1_up: 7 atoms
DEBUG: Task atom_2_ixyz_1_down: 7 atoms
DEBUG: Task atom_2_ixyz_2_up: 7 atoms
DEBUG: Task atom_2_ixyz_2_down: 7 atoms
DEBUG: Task atom_3_ixyz_1_up: 7 atoms
DEBUG: Task atom_3_ixyz_1_down: 7 atoms
DEBUG: Task atom_3_ixyz_2_up: 7 atoms
DEBUG: Task atom_3_ixyz_2_down: 7 atoms
DEBUG: Task atom_4_ixyz_1_up: 7 atoms
DEBUG: Task atom_4_ixyz_1_down: 7 atoms
DEBUG: Task atom_4_ixyz_2_up: 7 atoms
DEBUG: Task atom_4_ixyz_2_down: 7 atoms
DEBUG: Task atom_4_ixyz_3_up: 7 atoms
DEBUG: Task atom_4_ixyz_3_down: 7 atoms
DEBUG: Task atom_5_ixyz_1_up: 7 atoms
DEBUG: Task atom_5_ixyz_1_down: 7 atoms
DEBUG: Task atom_5_ixyz_2_up: 7 atoms
DEBUG: Task atom_5_ixyz_2_down: 7 atoms
DEBUG: Task atom_7_ixyz_1_up: 7 atoms
DEBUG: Task atom_7_ixyz_1_down: 7 atoms
DEBUG: Task atom_7_ixyz_2_up: 7 atoms
DEBUG: Task atom_7_ixyz_2_down: 7 atoms
DEBUG: All geometries have correct atom count (7)

================================================================================
STANDARD NUMERICAL GRADIENT MODE (no dens=2 detected)
================================================================================
Created iteration directory: /home/barone/lcrisci_vb/ACTUAL_PROJECTS/MRCC_new_Interface_project/TestingOldVersion/Symmetry/Acetaldehyde_Cs/Iterations/Iteration_1
INFO: This is iteration number 1
INFO: Running numerical gradient calculation in iteration 1
Running parallel energy calculations with 2 threads
TASK SUBMISSION: Submitting 27 tasks
  - Task: central
  - Task: atom_1_ixyz_1_up
  - Task: atom_1_ixyz_1_down
  - Task: atom_1_ixyz_2_up
  - Task: atom_1_ixyz_2_down
  - Task: atom_2_ixyz_1_up
  - Task: atom_2_ixyz_1_down
  - Task: atom_2_ixyz_2_up
  - Task: atom_2_ixyz_2_down
  - Task: atom_3_ixyz_1_up
  - Task: atom_3_ixyz_1_down
  - Task: atom_3_ixyz_2_up
  - Task: atom_3_ixyz_2_down
  - Task: atom_4_ixyz_1_up
  - Task: atom_4_ixyz_1_down
  - Task: atom_4_ixyz_2_up
  - Task: atom_4_ixyz_2_down
  - Task: atom_4_ixyz_3_up
  - Task: atom_4_ixyz_3_down
  - Task: atom_5_ixyz_1_up
  - Task: atom_5_ixyz_1_down
  - Task: atom_5_ixyz_2_up
  - Task: atom_5_ixyz_2_down
  - Task: atom_7_ixyz_1_up
  - Task: atom_7_ixyz_1_down
  - Task: atom_7_ixyz_2_up
  - Task: atom_7_ixyz_2_down
PARALLEL EXECUTION: Starting with 2 workers
PARALLEL EXECUTION: Total tasks to execute: 27
PARALLEL EXECUTION: Submitted tasks: ['atom_1_ixyz_1_down', 'atom_1_ixyz_1_up', 'atom_1_ixyz_2_down', 'atom_1_ixyz_2_up', 'atom_2_ixyz_1_down', 'atom_2_ixyz_1_up', 'atom_2_ixyz_2_down', 'atom_2_ixyz_2_up', 'atom_3_ixyz_1_down', 'atom_3_ixyz_1_up', 'atom_3_ixyz_2_down', 'atom_3_ixyz_2_up', 'atom_4_ixyz_1_down', 'atom_4_ixyz_1_up', 'atom_4_ixyz_2_down', 'atom_4_ixyz_2_up', 'atom_4_ixyz_3_down', 'atom_4_ixyz_3_up', 'atom_5_ixyz_1_down', 'atom_5_ixyz_1_up', 'atom_5_ixyz_2_down', 'atom_5_ixyz_2_up', 'atom_7_ixyz_1_down', 'atom_7_ixyz_1_up', 'atom_7_ixyz_2_down', 'atom_7_ixyz_2_up', 'central']
PARALLEL EXECUTION: Submitted 27 futures to executor
UNIT CONVERSION: Task 'central' - Wrote .EIn file in BohrUNIT CONVERSION: Task 'atom_1_ixyz_1_up' - Wrote .EIn file in Bohr

  First atom: Angstrom = [-0.94208987 -0.71548439  0.        ], Bohr = [-1.78029183 -1.35206954  0.        ]  First atom: Angstrom = [-0.94108987 -0.71548439  0.        ], Bohr = [-1.77840211 -1.35206954  0.        ]

THREAD-23204502464256: Starting execution for task 'central'THREAD-23204498876160: Starting execution for task 'atom_1_ixyz_1_up'

THREAD-23204502464256: Task directory: /home/barone/lcrisci_vb/ACTUAL_PROJECTS/MRCC_new_Interface_project/TestingOldVersion/Symmetry/Acetaldehyde_Cs/Iterations/Iteration_1/task_centralTHREAD-23204498876160: Task directory: /home/barone/lcrisci_vb/ACTUAL_PROJECTS/MRCC_new_Interface_project/TestingOldVersion/Symmetry/Acetaldehyde_Cs/Iterations/Iteration_1/task_atom_1_ixyz_1_up

THREAD-23204502464256: Input file: /home/barone/lcrisci_vb/ACTUAL_PROJECTS/MRCC_new_Interface_project/TestingOldVersion/Symmetry/Acetaldehyde_Cs/Iterations/Iteration_1/task_central/Gau-central.EIn
THREAD-23204498876160: Input file: /home/barone/lcrisci_vb/ACTUAL_PROJECTS/MRCC_new_Interface_project/TestingOldVersion/Symmetry/Acetaldehyde_Cs/Iterations/Iteration_1/task_atom_1_ixyz_1_up/Gau-atom_1_ixyz_1_up.EIn
THREAD-23204502464256: Original working directory: /home/barone/lcrisci_vb/ACTUAL_PROJECTS/MRCC_new_Interface_project/TestingOldVersion/Symmetry/Acetaldehyde_Cs
THREAD-23204502464256: Test mode: FalseTHREAD-23204498876160: Original working directory: /home/barone/lcrisci_vb/ACTUAL_PROJECTS/MRCC_new_Interface_project/TestingOldVersion/Symmetry/Acetaldehyde_Cs

THREAD-23204502464256: Executing command: /home/barone/lcrisci_vb/python3.9/bin/python3.9 /home/barone/lcrisci_vb/ACTUAL_PROJECTS/MRCC_new_Interface_project/TestingOldVersion/OldVersion/Executables/GauExt test_pr.dat test_en.dat 7 55 READ R Gau-central.EIn energy_output.datTHREAD-23204498876160: Test mode: False

THREAD-23204502464256: Working directory for subprocess: /home/barone/lcrisci_vb/ACTUAL_PROJECTS/MRCC_new_Interface_project/TestingOldVersion/Symmetry/Acetaldehyde_Cs/Iterations/Iteration_1/task_central
THREAD-23204498876160: Executing command: /home/barone/lcrisci_vb/python3.9/bin/python3.9 /home/barone/lcrisci_vb/ACTUAL_PROJECTS/MRCC_new_Interface_project/TestingOldVersion/OldVersion/Executables/GauExt test_pr.dat test_en.dat 7 55 READ R Gau-atom_1_ixyz_1_up.EIn energy_output.dat
THREAD-23204498876160: Working directory for subprocess: /home/barone/lcrisci_vb/ACTUAL_PROJECTS/MRCC_new_Interface_project/TestingOldVersion/Symmetry/Acetaldehyde_Cs/Iterations/Iteration_1/task_atom_1_ixyz_1_up
THREAD-23204502464256: Subprocess completed successfullyTHREAD-23204498876160: Subprocess completed successfully

THREAD-23204502464256: Subprocess stdout (last 200 chars): d !scheme section at line 1.
    Line 2: Found coefficient: 1.0
  Found !formula marker at line 3
    Found formula at line 4: e=c1*e1
Finished parsing scheme: [('coeff', 1.0)]
Found formula: e=c1*e1

THREAD-23204498876160: Subprocess stdout (last 200 chars): d !scheme section at line 1.
    Line 2: Found coefficient: 1.0
  Found !formula marker at line 3
    Found formula at line 4: e=c1*e1
Finished parsing scheme: [('coeff', 1.0)]
Found formula: e=c1*e1

THREAD-23204502464256: Output file path: /home/barone/lcrisci_vb/ACTUAL_PROJECTS/MRCC_new_Interface_project/TestingOldVersion/Symmetry/Acetaldehyde_Cs/Iterations/Iteration_1/task_central/energy_output.datTHREAD-23204498876160: Output file path: /home/barone/lcrisci_vb/ACTUAL_PROJECTS/MRCC_new_Interface_project/TestingOldVersion/Symmetry/Acetaldehyde_Cs/Iterations/Iteration_1/task_atom_1_ixyz_1_up/energy_output.dat

THREAD-23204498876160: Already in original directory /home/barone/lcrisci_vb/ACTUAL_PROJECTS/MRCC_new_Interface_project/TestingOldVersion/Symmetry/Acetaldehyde_Cs
THREAD-23204502464256: Already in original directory /home/barone/lcrisci_vb/ACTUAL_PROJECTS/MRCC_new_Interface_project/TestingOldVersion/Symmetry/Acetaldehyde_Cs
PARALLEL EXECUTION: Task 'atom_1_ixyz_1_up' completed successfully with energy -150.944487916697
PARALLEL EXECUTION: Task 'central' completed successfully with energy -150.944532122054
UNIT CONVERSION: Task 'atom_1_ixyz_1_down' - Wrote .EIn file in Bohr
UNIT CONVERSION: Task 'atom_1_ixyz_2_up' - Wrote .EIn file in Bohr  First atom: Angstrom = [-0.94308987 -0.71548439  0.        ], Bohr = [-1.78218156 -1.35206954  0.        ]

  First atom: Angstrom = [-0.94208987 -0.71448439  0.        ], Bohr = [-1.78029183 -1.35017981  0.        ]THREAD-23204498876160: Starting execution for task 'atom_1_ixyz_1_down'

THREAD-23204498876160: Task directory: /home/barone/lcrisci_vb/ACTUAL_PROJECTS/MRCC_new_Interface_project/TestingOldVersion/Symmetry/Acetaldehyde_Cs/Iterations/Iteration_1/task_atom_1_ixyz_1_down
THREAD-23204502464256: Starting execution for task 'atom_1_ixyz_2_up'
THREAD-23204498876160: Input file: /home/barone/lcrisci_vb/ACTUAL_PROJECTS/MRCC_new_Interface_project/TestingOldVersion/Symmetry/Acetaldehyde_Cs/Iterations/Iteration_1/task_atom_1_ixyz_1_down/Gau-atom_1_ixyz_1_down.EInTHREAD-23204502464256: Task directory: /home/barone/lcrisci_vb/ACTUAL_PROJECTS/MRCC_new_Interface_project/TestingOldVersion/Symmetry/Acetaldehyde_Cs/Iterations/Iteration_1/task_atom_1_ixyz_2_up

THREAD-23204502464256: Input file: /home/barone/lcrisci_vb/ACTUAL_PROJECTS/MRCC_new_Interface_project/TestingOldVersion/Symmetry/Acetaldehyde_Cs/Iterations/Iteration_1/task_atom_1_ixyz_2_up/Gau-atom_1_ixyz_2_up.EIn
THREAD-23204498876160: Original working directory: /home/barone/lcrisci_vb/ACTUAL_PROJECTS/MRCC_new_Interface_project/TestingOldVersion/Symmetry/Acetaldehyde_Cs
THREAD-23204502464256: Original working directory: /home/barone/lcrisci_vb/ACTUAL_PROJECTS/MRCC_new_Interface_project/TestingOldVersion/Symmetry/Acetaldehyde_Cs
THREAD-23204498876160: Test mode: False
THREAD-23204502464256: Test mode: False
THREAD-23204498876160: Executing command: /home/barone/lcrisci_vb/python3.9/bin/python3.9 /home/barone/lcrisci_vb/ACTUAL_PROJECTS/MRCC_new_Interface_project/TestingOldVersion/OldVersion/Executables/GauExt test_pr.dat test_en.dat 7 55 READ R Gau-atom_1_ixyz_1_down.EIn energy_output.dat
THREAD-23204502464256: Executing command: /home/barone/lcrisci_vb/python3.9/bin/python3.9 /home/barone/lcrisci_vb/ACTUAL_PROJECTS/MRCC_new_Interface_project/TestingOldVersion/OldVersion/Executables/GauExt test_pr.dat test_en.dat 7 55 READ R Gau-atom_1_ixyz_2_up.EIn energy_output.dat
THREAD-23204498876160: Working directory for subprocess: /home/barone/lcrisci_vb/ACTUAL_PROJECTS/MRCC_new_Interface_project/TestingOldVersion/Symmetry/Acetaldehyde_Cs/Iterations/Iteration_1/task_atom_1_ixyz_1_down
THREAD-23204502464256: Working directory for subprocess: /home/barone/lcrisci_vb/ACTUAL_PROJECTS/MRCC_new_Interface_project/TestingOldVersion/Symmetry/Acetaldehyde_Cs/Iterations/Iteration_1/task_atom_1_ixyz_2_up
THREAD-23204502464256: Subprocess completed successfully
THREAD-23204502464256: Subprocess stdout (last 200 chars): d !scheme section at line 1.
    Line 2: Found coefficient: 1.0
  Found !formula marker at line 3
    Found formula at line 4: e=c1*e1
Finished parsing scheme: [('coeff', 1.0)]
Found formula: e=c1*e1

THREAD-23204502464256: Output file path: /home/barone/lcrisci_vb/ACTUAL_PROJECTS/MRCC_new_Interface_project/TestingOldVersion/Symmetry/Acetaldehyde_Cs/Iterations/Iteration_1/task_atom_1_ixyz_2_up/energy_output.dat
THREAD-23204502464256: Already in original directory /home/barone/lcrisci_vb/ACTUAL_PROJECTS/MRCC_new_Interface_project/TestingOldVersion/Symmetry/Acetaldehyde_Cs
THREAD-23204498876160: Subprocess completed successfully
THREAD-23204498876160: Subprocess stdout (last 200 chars): d !scheme section at line 1.
    Line 2: Found coefficient: 1.0
  Found !formula marker at line 3
    Found formula at line 4: e=c1*e1
Finished parsing scheme: [('coeff', 1.0)]
Found formula: e=c1*e1

THREAD-23204498876160: Output file path: /home/barone/lcrisci_vb/ACTUAL_PROJECTS/MRCC_new_Interface_project/TestingOldVersion/Symmetry/Acetaldehyde_Cs/Iterations/Iteration_1/task_atom_1_ixyz_1_down/energy_output.dat
THREAD-23204498876160: Already in original directory /home/barone/lcrisci_vb/ACTUAL_PROJECTS/MRCC_new_Interface_project/TestingOldVersion/Symmetry/Acetaldehyde_Cs
PARALLEL EXECUTION: Task 'atom_1_ixyz_2_up' completed successfully with energy -150.94449511424
PARALLEL EXECUTION: Task 'atom_1_ixyz_1_down' completed successfully with energy -150.944573491068
UNIT CONVERSION: Task 'atom_1_ixyz_2_down' - Wrote .EIn file in Bohr
  First atom: Angstrom = [-0.94208987 -0.71648439  0.        ], Bohr = [-1.78029183 -1.35395926  0.        ]
THREAD-23204502464256: Starting execution for task 'atom_1_ixyz_2_down'
THREAD-23204502464256: Task directory: /home/barone/lcrisci_vb/ACTUAL_PROJECTS/MRCC_new_Interface_project/TestingOldVersion/Symmetry/Acetaldehyde_Cs/Iterations/Iteration_1/task_atom_1_ixyz_2_down
THREAD-23204502464256: Input file: /home/barone/lcrisci_vb/ACTUAL_PROJECTS/MRCC_new_Interface_project/TestingOldVersion/Symmetry/Acetaldehyde_Cs/Iterations/Iteration_1/task_atom_1_ixyz_2_down/Gau-atom_1_ixyz_2_down.EIn
UNIT CONVERSION: Task 'atom_2_ixyz_1_up' - Wrote .EIn file in Bohr
  First atom: Angstrom = [-0.94208987 -0.71548439  0.        ], Bohr = [-1.78029183 -1.35206954  0.        ]
THREAD-23204498876160: Starting execution for task 'atom_2_ixyz_1_up'
THREAD-23204498876160: Task directory: /home/barone/lcrisci_vb/ACTUAL_PROJECTS/MRCC_new_Interface_project/TestingOldVersion/Symmetry/Acetaldehyde_Cs/Iterations/Iteration_1/task_atom_2_ixyz_1_up
THREAD-23204498876160: Input file: /home/barone/lcrisci_vb/ACTUAL_PROJECTS/MRCC_new_Interface_project/TestingOldVersion/Symmetry/Acetaldehyde_Cs/Iterations/Iteration_1/task_atom_2_ixyz_1_up/Gau-atom_2_ixyz_1_up.EIn
THREAD-23204502464256: Original working directory: /home/barone/lcrisci_vb/ACTUAL_PROJECTS/MRCC_new_Interface_project/TestingOldVersion/Symmetry/Acetaldehyde_Cs
THREAD-23204502464256: Test mode: False
THREAD-23204502464256: Executing command: /home/barone/lcrisci_vb/python3.9/bin/python3.9 /home/barone/lcrisci_vb/ACTUAL_PROJECTS/MRCC_new_Interface_project/TestingOldVersion/OldVersion/Executables/GauExt test_pr.dat test_en.dat 7 55 READ R Gau-atom_1_ixyz_2_down.EIn energy_output.dat
THREAD-23204502464256: Working directory for subprocess: /home/barone/lcrisci_vb/ACTUAL_PROJECTS/MRCC_new_Interface_project/TestingOldVersion/Symmetry/Acetaldehyde_Cs/Iterations/Iteration_1/task_atom_1_ixyz_2_down
THREAD-23204498876160: Original working directory: /home/barone/lcrisci_vb/ACTUAL_PROJECTS/MRCC_new_Interface_project/TestingOldVersion/Symmetry/Acetaldehyde_Cs
THREAD-23204498876160: Test mode: False
THREAD-23204498876160: Executing command: /home/barone/lcrisci_vb/python3.9/bin/python3.9 /home/barone/lcrisci_vb/ACTUAL_PROJECTS/MRCC_new_Interface_project/TestingOldVersion/OldVersion/Executables/GauExt test_pr.dat test_en.dat 7 55 READ R Gau-atom_2_ixyz_1_up.EIn energy_output.dat
THREAD-23204498876160: Working directory for subprocess: /home/barone/lcrisci_vb/ACTUAL_PROJECTS/MRCC_new_Interface_project/TestingOldVersion/Symmetry/Acetaldehyde_Cs/Iterations/Iteration_1/task_atom_2_ixyz_1_up
THREAD-23204498876160: Subprocess completed successfully
THREAD-23204498876160: Subprocess stdout (last 200 chars): d !scheme section at line 1.
    Line 2: Found coefficient: 1.0
  Found !formula marker at line 3
    Found formula at line 4: e=c1*e1
Finished parsing scheme: [('coeff', 1.0)]
Found formula: e=c1*e1

THREAD-23204498876160: Output file path: /home/barone/lcrisci_vb/ACTUAL_PROJECTS/MRCC_new_Interface_project/TestingOldVersion/Symmetry/Acetaldehyde_Cs/Iterations/Iteration_1/task_atom_2_ixyz_1_up/energy_output.dat
THREAD-23204498876160: Already in original directory /home/barone/lcrisci_vb/ACTUAL_PROJECTS/MRCC_new_Interface_project/TestingOldVersion/Symmetry/Acetaldehyde_Cs
THREAD-23204502464256: Subprocess completed successfully
THREAD-23204502464256: Subprocess stdout (last 200 chars): d !scheme section at line 1.
    Line 2: Found coefficient: 1.0
  Found !formula marker at line 3
    Found formula at line 4: e=c1*e1
Finished parsing scheme: [('coeff', 1.0)]
Found formula: e=c1*e1

THREAD-23204502464256: Output file path: /home/barone/lcrisci_vb/ACTUAL_PROJECTS/MRCC_new_Interface_project/TestingOldVersion/Symmetry/Acetaldehyde_Cs/Iterations/Iteration_1/task_atom_1_ixyz_2_down/energy_output.dat
THREAD-23204502464256: Already in original directory /home/barone/lcrisci_vb/ACTUAL_PROJECTS/MRCC_new_Interface_project/TestingOldVersion/Symmetry/Acetaldehyde_Cs
PARALLEL EXECUTION: Task 'atom_2_ixyz_1_up' completed successfully with energy -150.944545801715
PARALLEL EXECUTION: Task 'atom_1_ixyz_2_down' completed successfully with energy -150.944566338979
UNIT CONVERSION: Task 'atom_2_ixyz_1_down' - Wrote .EIn file in Bohr
  First atom: Angstrom = [-0.94208987 -0.71548439  0.        ], Bohr = [-1.78029183 -1.35206954  0.        ]
THREAD-23204498876160: Starting execution for task 'atom_2_ixyz_1_down'
THREAD-23204498876160: Task directory: /home/barone/lcrisci_vb/ACTUAL_PROJECTS/MRCC_new_Interface_project/TestingOldVersion/Symmetry/Acetaldehyde_Cs/Iterations/Iteration_1/task_atom_2_ixyz_1_down
THREAD-23204498876160: Input file: /home/barone/lcrisci_vb/ACTUAL_PROJECTS/MRCC_new_Interface_project/TestingOldVersion/Symmetry/Acetaldehyde_Cs/Iterations/Iteration_1/task_atom_2_ixyz_1_down/Gau-atom_2_ixyz_1_down.EIn
UNIT CONVERSION: Task 'atom_2_ixyz_2_up' - Wrote .EIn file in Bohr
  First atom: Angstrom = [-0.94208987 -0.71548439  0.        ], Bohr = [-1.78029183 -1.35206954  0.        ]
THREAD-23204502464256: Starting execution for task 'atom_2_ixyz_2_up'
THREAD-23204502464256: Task directory: /home/barone/lcrisci_vb/ACTUAL_PROJECTS/MRCC_new_Interface_project/TestingOldVersion/Symmetry/Acetaldehyde_Cs/Iterations/Iteration_1/task_atom_2_ixyz_2_up
THREAD-23204498876160: Original working directory: /home/barone/lcrisci_vb/ACTUAL_PROJECTS/MRCC_new_Interface_project/TestingOldVersion/Symmetry/Acetaldehyde_Cs
THREAD-23204502464256: Input file: /home/barone/lcrisci_vb/ACTUAL_PROJECTS/MRCC_new_Interface_project/TestingOldVersion/Symmetry/Acetaldehyde_Cs/Iterations/Iteration_1/task_atom_2_ixyz_2_up/Gau-atom_2_ixyz_2_up.EIn
THREAD-23204498876160: Test mode: False
THREAD-23204498876160: Executing command: /home/barone/lcrisci_vb/python3.9/bin/python3.9 /home/barone/lcrisci_vb/ACTUAL_PROJECTS/MRCC_new_Interface_project/TestingOldVersion/OldVersion/Executables/GauExt test_pr.dat test_en.dat 7 55 READ R Gau-atom_2_ixyz_1_down.EIn energy_output.dat
THREAD-23204498876160: Working directory for subprocess: /home/barone/lcrisci_vb/ACTUAL_PROJECTS/MRCC_new_Interface_project/TestingOldVersion/Symmetry/Acetaldehyde_Cs/Iterations/Iteration_1/task_atom_2_ixyz_1_down
THREAD-23204502464256: Original working directory: /home/barone/lcrisci_vb/ACTUAL_PROJECTS/MRCC_new_Interface_project/TestingOldVersion/Symmetry/Acetaldehyde_Cs
THREAD-23204502464256: Test mode: False
THREAD-23204502464256: Executing command: /home/barone/lcrisci_vb/python3.9/bin/python3.9 /home/barone/lcrisci_vb/ACTUAL_PROJECTS/MRCC_new_Interface_project/TestingOldVersion/OldVersion/Executables/GauExt test_pr.dat test_en.dat 7 55 READ R Gau-atom_2_ixyz_2_up.EIn energy_output.dat
THREAD-23204502464256: Working directory for subprocess: /home/barone/lcrisci_vb/ACTUAL_PROJECTS/MRCC_new_Interface_project/TestingOldVersion/Symmetry/Acetaldehyde_Cs/Iterations/Iteration_1/task_atom_2_ixyz_2_up
THREAD-23204502464256: Subprocess completed successfully
THREAD-23204502464256: Subprocess stdout (last 200 chars): d !scheme section at line 1.
    Line 2: Found coefficient: 1.0
  Found !formula marker at line 3
    Found formula at line 4: e=c1*e1
Finished parsing scheme: [('coeff', 1.0)]
Found formula: e=c1*e1

THREAD-23204502464256: Output file path: /home/barone/lcrisci_vb/ACTUAL_PROJECTS/MRCC_new_Interface_project/TestingOldVersion/Symmetry/Acetaldehyde_Cs/Iterations/Iteration_1/task_atom_2_ixyz_2_up/energy_output.dat
THREAD-23204502464256: Already in original directory /home/barone/lcrisci_vb/ACTUAL_PROJECTS/MRCC_new_Interface_project/TestingOldVersion/Symmetry/Acetaldehyde_Cs
PARALLEL EXECUTION: Task 'atom_2_ixyz_2_up' completed successfully with energy -150.944584858406
UNIT CONVERSION: Task 'atom_2_ixyz_2_down' - Wrote .EIn file in Bohr
THREAD-23204498876160: Subprocess completed successfully  First atom: Angstrom = [-0.94208987 -0.71548439  0.        ], Bohr = [-1.78029183 -1.35206954  0.        ]

THREAD-23204498876160: Subprocess stdout (last 200 chars): d !scheme section at line 1.
    Line 2: Found coefficient: 1.0
  Found !formula marker at line 3
    Found formula at line 4: e=c1*e1
Finished parsing scheme: [('coeff', 1.0)]
Found formula: e=c1*e1

THREAD-23204502464256: Starting execution for task 'atom_2_ixyz_2_down'
THREAD-23204498876160: Output file path: /home/barone/lcrisci_vb/ACTUAL_PROJECTS/MRCC_new_Interface_project/TestingOldVersion/Symmetry/Acetaldehyde_Cs/Iterations/Iteration_1/task_atom_2_ixyz_1_down/energy_output.datTHREAD-23204502464256: Task directory: /home/barone/lcrisci_vb/ACTUAL_PROJECTS/MRCC_new_Interface_project/TestingOldVersion/Symmetry/Acetaldehyde_Cs/Iterations/Iteration_1/task_atom_2_ixyz_2_down

THREAD-23204502464256: Input file: /home/barone/lcrisci_vb/ACTUAL_PROJECTS/MRCC_new_Interface_project/TestingOldVersion/Symmetry/Acetaldehyde_Cs/Iterations/Iteration_1/task_atom_2_ixyz_2_down/Gau-atom_2_ixyz_2_down.EIn
THREAD-23204498876160: Already in original directory /home/barone/lcrisci_vb/ACTUAL_PROJECTS/MRCC_new_Interface_project/TestingOldVersion/Symmetry/Acetaldehyde_Cs
THREAD-23204502464256: Original working directory: /home/barone/lcrisci_vb/ACTUAL_PROJECTS/MRCC_new_Interface_project/TestingOldVersion/Symmetry/Acetaldehyde_Cs
THREAD-23204502464256: Test mode: False
THREAD-23204502464256: Executing command: /home/barone/lcrisci_vb/python3.9/bin/python3.9 /home/barone/lcrisci_vb/ACTUAL_PROJECTS/MRCC_new_Interface_project/TestingOldVersion/OldVersion/Executables/GauExt test_pr.dat test_en.dat 7 55 READ R Gau-atom_2_ixyz_2_down.EIn energy_output.dat
THREAD-23204502464256: Working directory for subprocess: /home/barone/lcrisci_vb/ACTUAL_PROJECTS/MRCC_new_Interface_project/TestingOldVersion/Symmetry/Acetaldehyde_Cs/Iterations/Iteration_1/task_atom_2_ixyz_2_down
PARALLEL EXECUTION: Task 'atom_2_ixyz_1_down' completed successfully with energy -150.944513539609
UNIT CONVERSION: Task 'atom_3_ixyz_1_up' - Wrote .EIn file in Bohr
  First atom: Angstrom = [-0.94208987 -0.71548439  0.        ], Bohr = [-1.78029183 -1.35206954  0.        ]
THREAD-23204498876160: Starting execution for task 'atom_3_ixyz_1_up'
THREAD-23204498876160: Task directory: /home/barone/lcrisci_vb/ACTUAL_PROJECTS/MRCC_new_Interface_project/TestingOldVersion/Symmetry/Acetaldehyde_Cs/Iterations/Iteration_1/task_atom_3_ixyz_1_up
THREAD-23204498876160: Input file: /home/barone/lcrisci_vb/ACTUAL_PROJECTS/MRCC_new_Interface_project/TestingOldVersion/Symmetry/Acetaldehyde_Cs/Iterations/Iteration_1/task_atom_3_ixyz_1_up/Gau-atom_3_ixyz_1_up.EIn
THREAD-23204498876160: Original working directory: /home/barone/lcrisci_vb/ACTUAL_PROJECTS/MRCC_new_Interface_project/TestingOldVersion/Symmetry/Acetaldehyde_Cs
THREAD-23204498876160: Test mode: False
THREAD-23204498876160: Executing command: /home/barone/lcrisci_vb/python3.9/bin/python3.9 /home/barone/lcrisci_vb/ACTUAL_PROJECTS/MRCC_new_Interface_project/TestingOldVersion/OldVersion/Executables/GauExt test_pr.dat test_en.dat 7 55 READ R Gau-atom_3_ixyz_1_up.EIn energy_output.dat
THREAD-23204498876160: Working directory for subprocess: /home/barone/lcrisci_vb/ACTUAL_PROJECTS/MRCC_new_Interface_project/TestingOldVersion/Symmetry/Acetaldehyde_Cs/Iterations/Iteration_1/task_atom_3_ixyz_1_up
THREAD-23204502464256: Subprocess completed successfully
THREAD-23204502464256: Subprocess stdout (last 200 chars): d !scheme section at line 1.
    Line 2: Found coefficient: 1.0
  Found !formula marker at line 3
    Found formula at line 4: e=c1*e1
Finished parsing scheme: [('coeff', 1.0)]
Found formula: e=c1*e1

THREAD-23204502464256: Output file path: /home/barone/lcrisci_vb/ACTUAL_PROJECTS/MRCC_new_Interface_project/TestingOldVersion/Symmetry/Acetaldehyde_Cs/Iterations/Iteration_1/task_atom_2_ixyz_2_down/energy_output.dat
THREAD-23204502464256: Already in original directory /home/barone/lcrisci_vb/ACTUAL_PROJECTS/MRCC_new_Interface_project/TestingOldVersion/Symmetry/Acetaldehyde_Cs
PARALLEL EXECUTION: Task 'atom_2_ixyz_2_down' completed successfully with energy -150.944476700683THREAD-23204498876160: Subprocess completed successfully

THREAD-23204498876160: Subprocess stdout (last 200 chars): d !scheme section at line 1.
    Line 2: Found coefficient: 1.0
  Found !formula marker at line 3
    Found formula at line 4: e=c1*e1
Finished parsing scheme: [('coeff', 1.0)]
Found formula: e=c1*e1

THREAD-23204498876160: Output file path: /home/barone/lcrisci_vb/ACTUAL_PROJECTS/MRCC_new_Interface_project/TestingOldVersion/Symmetry/Acetaldehyde_Cs/Iterations/Iteration_1/task_atom_3_ixyz_1_up/energy_output.dat
THREAD-23204498876160: Already in original directory /home/barone/lcrisci_vb/ACTUAL_PROJECTS/MRCC_new_Interface_project/TestingOldVersion/Symmetry/Acetaldehyde_Cs
PARALLEL EXECUTION: Task 'atom_3_ixyz_1_up' completed successfully with energy -150.944528316871
UNIT CONVERSION: Task 'atom_3_ixyz_1_down' - Wrote .EIn file in Bohr
  First atom: Angstrom = [-0.94208987 -0.71548439  0.        ], Bohr = [-1.78029183 -1.35206954  0.        ]
THREAD-23204502464256: Starting execution for task 'atom_3_ixyz_1_down'
THREAD-23204502464256: Task directory: /home/barone/lcrisci_vb/ACTUAL_PROJECTS/MRCC_new_Interface_project/TestingOldVersion/Symmetry/Acetaldehyde_Cs/Iterations/Iteration_1/task_atom_3_ixyz_1_down
THREAD-23204502464256: Input file: /home/barone/lcrisci_vb/ACTUAL_PROJECTS/MRCC_new_Interface_project/TestingOldVersion/Symmetry/Acetaldehyde_Cs/Iterations/Iteration_1/task_atom_3_ixyz_1_down/Gau-atom_3_ixyz_1_down.EIn
THREAD-23204502464256: Original working directory: /home/barone/lcrisci_vb/ACTUAL_PROJECTS/MRCC_new_Interface_project/TestingOldVersion/Symmetry/Acetaldehyde_Cs
THREAD-23204502464256: Test mode: False
THREAD-23204502464256: Executing command: /home/barone/lcrisci_vb/python3.9/bin/python3.9 /home/barone/lcrisci_vb/ACTUAL_PROJECTS/MRCC_new_Interface_project/TestingOldVersion/OldVersion/Executables/GauExt test_pr.dat test_en.dat 7 55 READ R Gau-atom_3_ixyz_1_down.EIn energy_output.dat
THREAD-23204502464256: Working directory for subprocess: /home/barone/lcrisci_vb/ACTUAL_PROJECTS/MRCC_new_Interface_project/TestingOldVersion/Symmetry/Acetaldehyde_Cs/Iterations/Iteration_1/task_atom_3_ixyz_1_down
UNIT CONVERSION: Task 'atom_3_ixyz_2_up' - Wrote .EIn file in Bohr
  First atom: Angstrom = [-0.94208987 -0.71548439  0.        ], Bohr = [-1.78029183 -1.35206954  0.        ]
THREAD-23204498876160: Starting execution for task 'atom_3_ixyz_2_up'
THREAD-23204498876160: Task directory: /home/barone/lcrisci_vb/ACTUAL_PROJECTS/MRCC_new_Interface_project/TestingOldVersion/Symmetry/Acetaldehyde_Cs/Iterations/Iteration_1/task_atom_3_ixyz_2_up
THREAD-23204498876160: Input file: /home/barone/lcrisci_vb/ACTUAL_PROJECTS/MRCC_new_Interface_project/TestingOldVersion/Symmetry/Acetaldehyde_Cs/Iterations/Iteration_1/task_atom_3_ixyz_2_up/Gau-atom_3_ixyz_2_up.EIn
THREAD-23204498876160: Original working directory: /home/barone/lcrisci_vb/ACTUAL_PROJECTS/MRCC_new_Interface_project/TestingOldVersion/Symmetry/Acetaldehyde_Cs
THREAD-23204498876160: Test mode: False
THREAD-23204498876160: Executing command: /home/barone/lcrisci_vb/python3.9/bin/python3.9 /home/barone/lcrisci_vb/ACTUAL_PROJECTS/MRCC_new_Interface_project/TestingOldVersion/OldVersion/Executables/GauExt test_pr.dat test_en.dat 7 55 READ R Gau-atom_3_ixyz_2_up.EIn energy_output.dat
THREAD-23204498876160: Working directory for subprocess: /home/barone/lcrisci_vb/ACTUAL_PROJECTS/MRCC_new_Interface_project/TestingOldVersion/Symmetry/Acetaldehyde_Cs/Iterations/Iteration_1/task_atom_3_ixyz_2_up
THREAD-23204502464256: Subprocess completed successfully
THREAD-23204502464256: Subprocess stdout (last 200 chars): d !scheme section at line 1.
    Line 2: Found coefficient: 1.0
  Found !formula marker at line 3
    Found formula at line 4: e=c1*e1
Finished parsing scheme: [('coeff', 1.0)]
Found formula: e=c1*e1

THREAD-23204502464256: Output file path: /home/barone/lcrisci_vb/ACTUAL_PROJECTS/MRCC_new_Interface_project/TestingOldVersion/Symmetry/Acetaldehyde_Cs/Iterations/Iteration_1/task_atom_3_ixyz_1_down/energy_output.dat
THREAD-23204502464256: Already in original directory /home/barone/lcrisci_vb/ACTUAL_PROJECTS/MRCC_new_Interface_project/TestingOldVersion/Symmetry/Acetaldehyde_Cs
PARALLEL EXECUTION: Task 'atom_3_ixyz_1_down' completed successfully with energy -150.944531928363
UNIT CONVERSION: Task 'atom_3_ixyz_2_down' - Wrote .EIn file in Bohr
  First atom: Angstrom = [-0.94208987 -0.71548439  0.        ], Bohr = [-1.78029183 -1.35206954  0.        ]
THREAD-23204502464256: Starting execution for task 'atom_3_ixyz_2_down'
THREAD-23204502464256: Task directory: /home/barone/lcrisci_vb/ACTUAL_PROJECTS/MRCC_new_Interface_project/TestingOldVersion/Symmetry/Acetaldehyde_Cs/Iterations/Iteration_1/task_atom_3_ixyz_2_down
THREAD-23204502464256: Input file: /home/barone/lcrisci_vb/ACTUAL_PROJECTS/MRCC_new_Interface_project/TestingOldVersion/Symmetry/Acetaldehyde_Cs/Iterations/Iteration_1/task_atom_3_ixyz_2_down/Gau-atom_3_ixyz_2_down.EIn
THREAD-23204502464256: Original working directory: /home/barone/lcrisci_vb/ACTUAL_PROJECTS/MRCC_new_Interface_project/TestingOldVersion/Symmetry/Acetaldehyde_Cs
THREAD-23204502464256: Test mode: False
THREAD-23204502464256: Executing command: /home/barone/lcrisci_vb/python3.9/bin/python3.9 /home/barone/lcrisci_vb/ACTUAL_PROJECTS/MRCC_new_Interface_project/TestingOldVersion/OldVersion/Executables/GauExt test_pr.dat test_en.dat 7 55 READ R Gau-atom_3_ixyz_2_down.EIn energy_output.dat
THREAD-23204502464256: Working directory for subprocess: /home/barone/lcrisci_vb/ACTUAL_PROJECTS/MRCC_new_Interface_project/TestingOldVersion/Symmetry/Acetaldehyde_Cs/Iterations/Iteration_1/task_atom_3_ixyz_2_down
THREAD-23204498876160: Subprocess completed successfully
THREAD-23204498876160: Subprocess stdout (last 200 chars): d !scheme section at line 1.
    Line 2: Found coefficient: 1.0
  Found !formula marker at line 3
    Found formula at line 4: e=c1*e1
Finished parsing scheme: [('coeff', 1.0)]
Found formula: e=c1*e1

THREAD-23204498876160: Output file path: /home/barone/lcrisci_vb/ACTUAL_PROJECTS/MRCC_new_Interface_project/TestingOldVersion/Symmetry/Acetaldehyde_Cs/Iterations/Iteration_1/task_atom_3_ixyz_2_up/energy_output.dat
THREAD-23204498876160: Already in original directory /home/barone/lcrisci_vb/ACTUAL_PROJECTS/MRCC_new_Interface_project/TestingOldVersion/Symmetry/Acetaldehyde_Cs
PARALLEL EXECUTION: Task 'atom_3_ixyz_2_up' completed successfully with energy -150.944531108614
UNIT CONVERSION: Task 'atom_4_ixyz_1_up' - Wrote .EIn file in Bohr
  First atom: Angstrom = [-0.94208987 -0.71548439  0.        ], Bohr = [-1.78029183 -1.35206954  0.        ]
THREAD-23204498876160: Starting execution for task 'atom_4_ixyz_1_up'
THREAD-23204498876160: Task directory: /home/barone/lcrisci_vb/ACTUAL_PROJECTS/MRCC_new_Interface_project/TestingOldVersion/Symmetry/Acetaldehyde_Cs/Iterations/Iteration_1/task_atom_4_ixyz_1_up
THREAD-23204498876160: Input file: /home/barone/lcrisci_vb/ACTUAL_PROJECTS/MRCC_new_Interface_project/TestingOldVersion/Symmetry/Acetaldehyde_Cs/Iterations/Iteration_1/task_atom_4_ixyz_1_up/Gau-atom_4_ixyz_1_up.EIn
THREAD-23204498876160: Original working directory: /home/barone/lcrisci_vb/ACTUAL_PROJECTS/MRCC_new_Interface_project/TestingOldVersion/Symmetry/Acetaldehyde_Cs
THREAD-23204498876160: Test mode: False
THREAD-23204498876160: Executing command: /home/barone/lcrisci_vb/python3.9/bin/python3.9 /home/barone/lcrisci_vb/ACTUAL_PROJECTS/MRCC_new_Interface_project/TestingOldVersion/OldVersion/Executables/GauExt test_pr.dat test_en.dat 7 55 READ R Gau-atom_4_ixyz_1_up.EIn energy_output.dat
THREAD-23204498876160: Working directory for subprocess: /home/barone/lcrisci_vb/ACTUAL_PROJECTS/MRCC_new_Interface_project/TestingOldVersion/Symmetry/Acetaldehyde_Cs/Iterations/Iteration_1/task_atom_4_ixyz_1_up
THREAD-23204502464256: Subprocess completed successfully
THREAD-23204502464256: Subprocess stdout (last 200 chars): d !scheme section at line 1.
    Line 2: Found coefficient: 1.0
  Found !formula marker at line 3
    Found formula at line 4: e=c1*e1
Finished parsing scheme: [('coeff', 1.0)]
Found formula: e=c1*e1

THREAD-23204502464256: Output file path: /home/barone/lcrisci_vb/ACTUAL_PROJECTS/MRCC_new_Interface_project/TestingOldVersion/Symmetry/Acetaldehyde_Cs/Iterations/Iteration_1/task_atom_3_ixyz_2_down/energy_output.dat
THREAD-23204502464256: Already in original directory /home/barone/lcrisci_vb/ACTUAL_PROJECTS/MRCC_new_Interface_project/TestingOldVersion/Symmetry/Acetaldehyde_Cs
PARALLEL EXECUTION: Task 'atom_3_ixyz_2_down' completed successfully with energy -150.94453277911
UNIT CONVERSION: Task 'atom_4_ixyz_1_down' - Wrote .EIn file in Bohr
  First atom: Angstrom = [-0.94208987 -0.71548439  0.        ], Bohr = [-1.78029183 -1.35206954  0.        ]
THREAD-23204502464256: Starting execution for task 'atom_4_ixyz_1_down'
THREAD-23204502464256: Task directory: /home/barone/lcrisci_vb/ACTUAL_PROJECTS/MRCC_new_Interface_project/TestingOldVersion/Symmetry/Acetaldehyde_Cs/Iterations/Iteration_1/task_atom_4_ixyz_1_down
THREAD-23204502464256: Input file: /home/barone/lcrisci_vb/ACTUAL_PROJECTS/MRCC_new_Interface_project/TestingOldVersion/Symmetry/Acetaldehyde_Cs/Iterations/Iteration_1/task_atom_4_ixyz_1_down/Gau-atom_4_ixyz_1_down.EIn
THREAD-23204502464256: Original working directory: /home/barone/lcrisci_vb/ACTUAL_PROJECTS/MRCC_new_Interface_project/TestingOldVersion/Symmetry/Acetaldehyde_Cs
THREAD-23204502464256: Test mode: False
THREAD-23204502464256: Executing command: /home/barone/lcrisci_vb/python3.9/bin/python3.9 /home/barone/lcrisci_vb/ACTUAL_PROJECTS/MRCC_new_Interface_project/TestingOldVersion/OldVersion/Executables/GauExt test_pr.dat test_en.dat 7 55 READ R Gau-atom_4_ixyz_1_down.EIn energy_output.dat
THREAD-23204502464256: Working directory for subprocess: /home/barone/lcrisci_vb/ACTUAL_PROJECTS/MRCC_new_Interface_project/TestingOldVersion/Symmetry/Acetaldehyde_Cs/Iterations/Iteration_1/task_atom_4_ixyz_1_down
THREAD-23204498876160: Subprocess completed successfully
THREAD-23204498876160: Subprocess stdout (last 200 chars): d !scheme section at line 1.
    Line 2: Found coefficient: 1.0
  Found !formula marker at line 3
    Found formula at line 4: e=c1*e1
Finished parsing scheme: [('coeff', 1.0)]
Found formula: e=c1*e1

THREAD-23204498876160: Output file path: /home/barone/lcrisci_vb/ACTUAL_PROJECTS/MRCC_new_Interface_project/TestingOldVersion/Symmetry/Acetaldehyde_Cs/Iterations/Iteration_1/task_atom_4_ixyz_1_up/energy_output.dat
THREAD-23204498876160: Already in original directory /home/barone/lcrisci_vb/ACTUAL_PROJECTS/MRCC_new_Interface_project/TestingOldVersion/Symmetry/Acetaldehyde_Cs
PARALLEL EXECUTION: Task 'atom_4_ixyz_1_up' completed successfully with energy -150.944549367273
UNIT CONVERSION: Task 'atom_4_ixyz_2_up' - Wrote .EIn file in Bohr
  First atom: Angstrom = [-0.94208987 -0.71548439  0.        ], Bohr = [-1.78029183 -1.35206954  0.        ]
THREAD-23204498876160: Starting execution for task 'atom_4_ixyz_2_up'
THREAD-23204498876160: Task directory: /home/barone/lcrisci_vb/ACTUAL_PROJECTS/MRCC_new_Interface_project/TestingOldVersion/Symmetry/Acetaldehyde_Cs/Iterations/Iteration_1/task_atom_4_ixyz_2_up
THREAD-23204498876160: Input file: /home/barone/lcrisci_vb/ACTUAL_PROJECTS/MRCC_new_Interface_project/TestingOldVersion/Symmetry/Acetaldehyde_Cs/Iterations/Iteration_1/task_atom_4_ixyz_2_up/Gau-atom_4_ixyz_2_up.EIn
THREAD-23204498876160: Original working directory: /home/barone/lcrisci_vb/ACTUAL_PROJECTS/MRCC_new_Interface_project/TestingOldVersion/Symmetry/Acetaldehyde_Cs
THREAD-23204498876160: Test mode: False
THREAD-23204498876160: Executing command: /home/barone/lcrisci_vb/python3.9/bin/python3.9 /home/barone/lcrisci_vb/ACTUAL_PROJECTS/MRCC_new_Interface_project/TestingOldVersion/OldVersion/Executables/GauExt test_pr.dat test_en.dat 7 55 READ R Gau-atom_4_ixyz_2_up.EIn energy_output.dat
THREAD-23204498876160: Working directory for subprocess: /home/barone/lcrisci_vb/ACTUAL_PROJECTS/MRCC_new_Interface_project/TestingOldVersion/Symmetry/Acetaldehyde_Cs/Iterations/Iteration_1/task_atom_4_ixyz_2_up
THREAD-23204502464256: Subprocess completed successfully
THREAD-23204502464256: Subprocess stdout (last 200 chars): d !scheme section at line 1.
    Line 2: Found coefficient: 1.0
  Found !formula marker at line 3
    Found formula at line 4: e=c1*e1
Finished parsing scheme: [('coeff', 1.0)]
Found formula: e=c1*e1

THREAD-23204502464256: Output file path: /home/barone/lcrisci_vb/ACTUAL_PROJECTS/MRCC_new_Interface_project/TestingOldVersion/Symmetry/Acetaldehyde_Cs/Iterations/Iteration_1/task_atom_4_ixyz_1_down/energy_output.dat
THREAD-23204502464256: Already in original directory /home/barone/lcrisci_vb/ACTUAL_PROJECTS/MRCC_new_Interface_project/TestingOldVersion/Symmetry/Acetaldehyde_Cs
PARALLEL EXECUTION: Task 'atom_4_ixyz_1_down' completed successfully with energy -150.944514159004
UNIT CONVERSION: Task 'atom_4_ixyz_2_down' - Wrote .EIn file in Bohr
  First atom: Angstrom = [-0.94208987 -0.71548439  0.        ], Bohr = [-1.78029183 -1.35206954  0.        ]
THREAD-23204502464256: Starting execution for task 'atom_4_ixyz_2_down'
THREAD-23204502464256: Task directory: /home/barone/lcrisci_vb/ACTUAL_PROJECTS/MRCC_new_Interface_project/TestingOldVersion/Symmetry/Acetaldehyde_Cs/Iterations/Iteration_1/task_atom_4_ixyz_2_down
THREAD-23204502464256: Input file: /home/barone/lcrisci_vb/ACTUAL_PROJECTS/MRCC_new_Interface_project/TestingOldVersion/Symmetry/Acetaldehyde_Cs/Iterations/Iteration_1/task_atom_4_ixyz_2_down/Gau-atom_4_ixyz_2_down.EIn
THREAD-23204502464256: Original working directory: /home/barone/lcrisci_vb/ACTUAL_PROJECTS/MRCC_new_Interface_project/TestingOldVersion/Symmetry/Acetaldehyde_Cs
THREAD-23204502464256: Test mode: False
THREAD-23204502464256: Executing command: /home/barone/lcrisci_vb/python3.9/bin/python3.9 /home/barone/lcrisci_vb/ACTUAL_PROJECTS/MRCC_new_Interface_project/TestingOldVersion/OldVersion/Executables/GauExt test_pr.dat test_en.dat 7 55 READ R Gau-atom_4_ixyz_2_down.EIn energy_output.dat
THREAD-23204502464256: Working directory for subprocess: /home/barone/lcrisci_vb/ACTUAL_PROJECTS/MRCC_new_Interface_project/TestingOldVersion/Symmetry/Acetaldehyde_Cs/Iterations/Iteration_1/task_atom_4_ixyz_2_down
THREAD-23204498876160: Subprocess completed successfully
THREAD-23204498876160: Subprocess stdout (last 200 chars): d !scheme section at line 1.
    Line 2: Found coefficient: 1.0
  Found !formula marker at line 3
    Found formula at line 4: e=c1*e1
Finished parsing scheme: [('coeff', 1.0)]
Found formula: e=c1*e1

THREAD-23204498876160: Output file path: /home/barone/lcrisci_vb/ACTUAL_PROJECTS/MRCC_new_Interface_project/TestingOldVersion/Symmetry/Acetaldehyde_Cs/Iterations/Iteration_1/task_atom_4_ixyz_2_up/energy_output.dat
THREAD-23204498876160: Already in original directory /home/barone/lcrisci_vb/ACTUAL_PROJECTS/MRCC_new_Interface_project/TestingOldVersion/Symmetry/Acetaldehyde_Cs
PARALLEL EXECUTION: Task 'atom_4_ixyz_2_up' completed successfully with energy -150.94452601483
UNIT CONVERSION: Task 'atom_4_ixyz_3_up' - Wrote .EIn file in Bohr
  First atom: Angstrom = [-0.94208987 -0.71548439  0.        ], Bohr = [-1.78029183 -1.35206954  0.        ]
THREAD-23204498876160: Starting execution for task 'atom_4_ixyz_3_up'
THREAD-23204498876160: Task directory: /home/barone/lcrisci_vb/ACTUAL_PROJECTS/MRCC_new_Interface_project/TestingOldVersion/Symmetry/Acetaldehyde_Cs/Iterations/Iteration_1/task_atom_4_ixyz_3_up
THREAD-23204498876160: Input file: /home/barone/lcrisci_vb/ACTUAL_PROJECTS/MRCC_new_Interface_project/TestingOldVersion/Symmetry/Acetaldehyde_Cs/Iterations/Iteration_1/task_atom_4_ixyz_3_up/Gau-atom_4_ixyz_3_up.EIn
THREAD-23204498876160: Original working directory: /home/barone/lcrisci_vb/ACTUAL_PROJECTS/MRCC_new_Interface_project/TestingOldVersion/Symmetry/Acetaldehyde_Cs
THREAD-23204498876160: Test mode: False
THREAD-23204498876160: Executing command: /home/barone/lcrisci_vb/python3.9/bin/python3.9 /home/barone/lcrisci_vb/ACTUAL_PROJECTS/MRCC_new_Interface_project/TestingOldVersion/OldVersion/Executables/GauExt test_pr.dat test_en.dat 7 55 READ R Gau-atom_4_ixyz_3_up.EIn energy_output.dat
THREAD-23204498876160: Working directory for subprocess: /home/barone/lcrisci_vb/ACTUAL_PROJECTS/MRCC_new_Interface_project/TestingOldVersion/Symmetry/Acetaldehyde_Cs/Iterations/Iteration_1/task_atom_4_ixyz_3_up
THREAD-23204502464256: Subprocess completed successfully
THREAD-23204502464256: Subprocess stdout (last 200 chars): d !scheme section at line 1.
    Line 2: Found coefficient: 1.0
  Found !formula marker at line 3
    Found formula at line 4: e=c1*e1
Finished parsing scheme: [('coeff', 1.0)]
Found formula: e=c1*e1

THREAD-23204502464256: Output file path: /home/barone/lcrisci_vb/ACTUAL_PROJECTS/MRCC_new_Interface_project/TestingOldVersion/Symmetry/Acetaldehyde_Cs/Iterations/Iteration_1/task_atom_4_ixyz_2_down/energy_output.dat
THREAD-23204502464256: Already in original directory /home/barone/lcrisci_vb/ACTUAL_PROJECTS/MRCC_new_Interface_project/TestingOldVersion/Symmetry/Acetaldehyde_Cs
PARALLEL EXECUTION: Task 'atom_4_ixyz_2_down' completed successfully with energy -150.944537967515
UNIT CONVERSION: Task 'atom_4_ixyz_3_down' - Wrote .EIn file in Bohr
  First atom: Angstrom = [-0.94208987 -0.71548439  0.        ], Bohr = [-1.78029183 -1.35206954  0.        ]
THREAD-23204502464256: Starting execution for task 'atom_4_ixyz_3_down'
THREAD-23204502464256: Task directory: /home/barone/lcrisci_vb/ACTUAL_PROJECTS/MRCC_new_Interface_project/TestingOldVersion/Symmetry/Acetaldehyde_Cs/Iterations/Iteration_1/task_atom_4_ixyz_3_down
THREAD-23204502464256: Input file: /home/barone/lcrisci_vb/ACTUAL_PROJECTS/MRCC_new_Interface_project/TestingOldVersion/Symmetry/Acetaldehyde_Cs/Iterations/Iteration_1/task_atom_4_ixyz_3_down/Gau-atom_4_ixyz_3_down.EIn
THREAD-23204502464256: Original working directory: /home/barone/lcrisci_vb/ACTUAL_PROJECTS/MRCC_new_Interface_project/TestingOldVersion/Symmetry/Acetaldehyde_Cs
THREAD-23204502464256: Test mode: False
THREAD-23204502464256: Executing command: /home/barone/lcrisci_vb/python3.9/bin/python3.9 /home/barone/lcrisci_vb/ACTUAL_PROJECTS/MRCC_new_Interface_project/TestingOldVersion/OldVersion/Executables/GauExt test_pr.dat test_en.dat 7 55 READ R Gau-atom_4_ixyz_3_down.EIn energy_output.dat
THREAD-23204502464256: Working directory for subprocess: /home/barone/lcrisci_vb/ACTUAL_PROJECTS/MRCC_new_Interface_project/TestingOldVersion/Symmetry/Acetaldehyde_Cs/Iterations/Iteration_1/task_atom_4_ixyz_3_down
THREAD-23204498876160: Subprocess completed successfully
THREAD-23204498876160: Subprocess stdout (last 200 chars): d !scheme section at line 1.
    Line 2: Found coefficient: 1.0
  Found !formula marker at line 3
    Found formula at line 4: e=c1*e1
Finished parsing scheme: [('coeff', 1.0)]
Found formula: e=c1*e1

THREAD-23204498876160: Output file path: /home/barone/lcrisci_vb/ACTUAL_PROJECTS/MRCC_new_Interface_project/TestingOldVersion/Symmetry/Acetaldehyde_Cs/Iterations/Iteration_1/task_atom_4_ixyz_3_up/energy_output.dat
THREAD-23204498876160: Already in original directory /home/barone/lcrisci_vb/ACTUAL_PROJECTS/MRCC_new_Interface_project/TestingOldVersion/Symmetry/Acetaldehyde_Cs
PARALLEL EXECUTION: Task 'atom_4_ixyz_3_up' completed successfully with energy -150.944511925095
UNIT CONVERSION: Task 'atom_5_ixyz_1_up' - Wrote .EIn file in Bohr
  First atom: Angstrom = [-0.94208987 -0.71548439  0.        ], Bohr = [-1.78029183 -1.35206954  0.        ]
THREAD-23204498876160: Starting execution for task 'atom_5_ixyz_1_up'
THREAD-23204498876160: Task directory: /home/barone/lcrisci_vb/ACTUAL_PROJECTS/MRCC_new_Interface_project/TestingOldVersion/Symmetry/Acetaldehyde_Cs/Iterations/Iteration_1/task_atom_5_ixyz_1_up
THREAD-23204498876160: Input file: /home/barone/lcrisci_vb/ACTUAL_PROJECTS/MRCC_new_Interface_project/TestingOldVersion/Symmetry/Acetaldehyde_Cs/Iterations/Iteration_1/task_atom_5_ixyz_1_up/Gau-atom_5_ixyz_1_up.EIn
THREAD-23204498876160: Original working directory: /home/barone/lcrisci_vb/ACTUAL_PROJECTS/MRCC_new_Interface_project/TestingOldVersion/Symmetry/Acetaldehyde_Cs
THREAD-23204498876160: Test mode: False
THREAD-23204498876160: Executing command: /home/barone/lcrisci_vb/python3.9/bin/python3.9 /home/barone/lcrisci_vb/ACTUAL_PROJECTS/MRCC_new_Interface_project/TestingOldVersion/OldVersion/Executables/GauExt test_pr.dat test_en.dat 7 55 READ R Gau-atom_5_ixyz_1_up.EIn energy_output.dat
THREAD-23204498876160: Working directory for subprocess: /home/barone/lcrisci_vb/ACTUAL_PROJECTS/MRCC_new_Interface_project/TestingOldVersion/Symmetry/Acetaldehyde_Cs/Iterations/Iteration_1/task_atom_5_ixyz_1_up
THREAD-23204502464256: Subprocess completed successfully
THREAD-23204502464256: Subprocess stdout (last 200 chars): d !scheme section at line 1.
    Line 2: Found coefficient: 1.0
  Found !formula marker at line 3
    Found formula at line 4: e=c1*e1
Finished parsing scheme: [('coeff', 1.0)]
Found formula: e=c1*e1

THREAD-23204502464256: Output file path: /home/barone/lcrisci_vb/ACTUAL_PROJECTS/MRCC_new_Interface_project/TestingOldVersion/Symmetry/Acetaldehyde_Cs/Iterations/Iteration_1/task_atom_4_ixyz_3_down/energy_output.dat
THREAD-23204502464256: Already in original directory /home/barone/lcrisci_vb/ACTUAL_PROJECTS/MRCC_new_Interface_project/TestingOldVersion/Symmetry/Acetaldehyde_Cs
PARALLEL EXECUTION: Task 'atom_4_ixyz_3_down' completed successfully with energy -150.944551205602
UNIT CONVERSION: Task 'atom_5_ixyz_1_down' - Wrote .EIn file in Bohr
  First atom: Angstrom = [-0.94208987 -0.71548439  0.        ], Bohr = [-1.78029183 -1.35206954  0.        ]
THREAD-23204502464256: Starting execution for task 'atom_5_ixyz_1_down'
THREAD-23204502464256: Task directory: /home/barone/lcrisci_vb/ACTUAL_PROJECTS/MRCC_new_Interface_project/TestingOldVersion/Symmetry/Acetaldehyde_Cs/Iterations/Iteration_1/task_atom_5_ixyz_1_down
THREAD-23204502464256: Input file: /home/barone/lcrisci_vb/ACTUAL_PROJECTS/MRCC_new_Interface_project/TestingOldVersion/Symmetry/Acetaldehyde_Cs/Iterations/Iteration_1/task_atom_5_ixyz_1_down/Gau-atom_5_ixyz_1_down.EIn
THREAD-23204502464256: Original working directory: /home/barone/lcrisci_vb/ACTUAL_PROJECTS/MRCC_new_Interface_project/TestingOldVersion/Symmetry/Acetaldehyde_Cs
THREAD-23204502464256: Test mode: False
THREAD-23204502464256: Executing command: /home/barone/lcrisci_vb/python3.9/bin/python3.9 /home/barone/lcrisci_vb/ACTUAL_PROJECTS/MRCC_new_Interface_project/TestingOldVersion/OldVersion/Executables/GauExt test_pr.dat test_en.dat 7 55 READ R Gau-atom_5_ixyz_1_down.EIn energy_output.dat
THREAD-23204502464256: Working directory for subprocess: /home/barone/lcrisci_vb/ACTUAL_PROJECTS/MRCC_new_Interface_project/TestingOldVersion/Symmetry/Acetaldehyde_Cs/Iterations/Iteration_1/task_atom_5_ixyz_1_down
THREAD-23204498876160: Subprocess completed successfully
THREAD-23204498876160: Subprocess stdout (last 200 chars): d !scheme section at line 1.
    Line 2: Found coefficient: 1.0
  Found !formula marker at line 3
    Found formula at line 4: e=c1*e1
Finished parsing scheme: [('coeff', 1.0)]
Found formula: e=c1*e1

THREAD-23204498876160: Output file path: /home/barone/lcrisci_vb/ACTUAL_PROJECTS/MRCC_new_Interface_project/TestingOldVersion/Symmetry/Acetaldehyde_Cs/Iterations/Iteration_1/task_atom_5_ixyz_1_up/energy_output.dat
THREAD-23204498876160: Already in original directory /home/barone/lcrisci_vb/ACTUAL_PROJECTS/MRCC_new_Interface_project/TestingOldVersion/Symmetry/Acetaldehyde_Cs
PARALLEL EXECUTION: Task 'atom_5_ixyz_1_up' completed successfully with energy -150.944514911652
UNIT CONVERSION: Task 'atom_5_ixyz_2_up' - Wrote .EIn file in Bohr
  First atom: Angstrom = [-0.94208987 -0.71548439  0.        ], Bohr = [-1.78029183 -1.35206954  0.        ]
THREAD-23204498876160: Starting execution for task 'atom_5_ixyz_2_up'
THREAD-23204498876160: Task directory: /home/barone/lcrisci_vb/ACTUAL_PROJECTS/MRCC_new_Interface_project/TestingOldVersion/Symmetry/Acetaldehyde_Cs/Iterations/Iteration_1/task_atom_5_ixyz_2_up
THREAD-23204498876160: Input file: /home/barone/lcrisci_vb/ACTUAL_PROJECTS/MRCC_new_Interface_project/TestingOldVersion/Symmetry/Acetaldehyde_Cs/Iterations/Iteration_1/task_atom_5_ixyz_2_up/Gau-atom_5_ixyz_2_up.EIn
THREAD-23204498876160: Original working directory: /home/barone/lcrisci_vb/ACTUAL_PROJECTS/MRCC_new_Interface_project/TestingOldVersion/Symmetry/Acetaldehyde_Cs
THREAD-23204498876160: Test mode: False
THREAD-23204498876160: Executing command: /home/barone/lcrisci_vb/python3.9/bin/python3.9 /home/barone/lcrisci_vb/ACTUAL_PROJECTS/MRCC_new_Interface_project/TestingOldVersion/OldVersion/Executables/GauExt test_pr.dat test_en.dat 7 55 READ R Gau-atom_5_ixyz_2_up.EIn energy_output.dat
THREAD-23204498876160: Working directory for subprocess: /home/barone/lcrisci_vb/ACTUAL_PROJECTS/MRCC_new_Interface_project/TestingOldVersion/Symmetry/Acetaldehyde_Cs/Iterations/Iteration_1/task_atom_5_ixyz_2_up
THREAD-23204502464256: Subprocess completed successfully
THREAD-23204502464256: Subprocess stdout (last 200 chars): d !scheme section at line 1.
    Line 2: Found coefficient: 1.0
  Found !formula marker at line 3
    Found formula at line 4: e=c1*e1
Finished parsing scheme: [('coeff', 1.0)]
Found formula: e=c1*e1

THREAD-23204502464256: Output file path: /home/barone/lcrisci_vb/ACTUAL_PROJECTS/MRCC_new_Interface_project/TestingOldVersion/Symmetry/Acetaldehyde_Cs/Iterations/Iteration_1/task_atom_5_ixyz_1_down/energy_output.dat
THREAD-23204502464256: Already in original directory /home/barone/lcrisci_vb/ACTUAL_PROJECTS/MRCC_new_Interface_project/TestingOldVersion/Symmetry/Acetaldehyde_Cs
PARALLEL EXECUTION: Task 'atom_5_ixyz_1_down' completed successfully with energy -150.944548711699
UNIT CONVERSION: Task 'atom_5_ixyz_2_down' - Wrote .EIn file in Bohr
  First atom: Angstrom = [-0.94208987 -0.71548439  0.        ], Bohr = [-1.78029183 -1.35206954  0.        ]
THREAD-23204502464256: Starting execution for task 'atom_5_ixyz_2_down'
THREAD-23204502464256: Task directory: /home/barone/lcrisci_vb/ACTUAL_PROJECTS/MRCC_new_Interface_project/TestingOldVersion/Symmetry/Acetaldehyde_Cs/Iterations/Iteration_1/task_atom_5_ixyz_2_down
THREAD-23204502464256: Input file: /home/barone/lcrisci_vb/ACTUAL_PROJECTS/MRCC_new_Interface_project/TestingOldVersion/Symmetry/Acetaldehyde_Cs/Iterations/Iteration_1/task_atom_5_ixyz_2_down/Gau-atom_5_ixyz_2_down.EIn
THREAD-23204502464256: Original working directory: /home/barone/lcrisci_vb/ACTUAL_PROJECTS/MRCC_new_Interface_project/TestingOldVersion/Symmetry/Acetaldehyde_Cs
THREAD-23204502464256: Test mode: False
THREAD-23204502464256: Executing command: /home/barone/lcrisci_vb/python3.9/bin/python3.9 /home/barone/lcrisci_vb/ACTUAL_PROJECTS/MRCC_new_Interface_project/TestingOldVersion/OldVersion/Executables/GauExt test_pr.dat test_en.dat 7 55 READ R Gau-atom_5_ixyz_2_down.EIn energy_output.dat
THREAD-23204502464256: Working directory for subprocess: /home/barone/lcrisci_vb/ACTUAL_PROJECTS/MRCC_new_Interface_project/TestingOldVersion/Symmetry/Acetaldehyde_Cs/Iterations/Iteration_1/task_atom_5_ixyz_2_down
THREAD-23204498876160: Subprocess completed successfully
THREAD-23204498876160: Subprocess stdout (last 200 chars): d !scheme section at line 1.
    Line 2: Found coefficient: 1.0
  Found !formula marker at line 3
    Found formula at line 4: e=c1*e1
Finished parsing scheme: [('coeff', 1.0)]
Found formula: e=c1*e1

THREAD-23204498876160: Output file path: /home/barone/lcrisci_vb/ACTUAL_PROJECTS/MRCC_new_Interface_project/TestingOldVersion/Symmetry/Acetaldehyde_Cs/Iterations/Iteration_1/task_atom_5_ixyz_2_up/energy_output.dat
THREAD-23204498876160: Already in original directory /home/barone/lcrisci_vb/ACTUAL_PROJECTS/MRCC_new_Interface_project/TestingOldVersion/Symmetry/Acetaldehyde_Cs
PARALLEL EXECUTION: Task 'atom_5_ixyz_2_up' completed successfully with energy -150.944549418982
UNIT CONVERSION: Task 'atom_7_ixyz_1_up' - Wrote .EIn file in Bohr
  First atom: Angstrom = [-0.94208987 -0.71548439  0.        ], Bohr = [-1.78029183 -1.35206954  0.        ]
THREAD-23204498876160: Starting execution for task 'atom_7_ixyz_1_up'
THREAD-23204498876160: Task directory: /home/barone/lcrisci_vb/ACTUAL_PROJECTS/MRCC_new_Interface_project/TestingOldVersion/Symmetry/Acetaldehyde_Cs/Iterations/Iteration_1/task_atom_7_ixyz_1_up
THREAD-23204498876160: Input file: /home/barone/lcrisci_vb/ACTUAL_PROJECTS/MRCC_new_Interface_project/TestingOldVersion/Symmetry/Acetaldehyde_Cs/Iterations/Iteration_1/task_atom_7_ixyz_1_up/Gau-atom_7_ixyz_1_up.EIn
THREAD-23204498876160: Original working directory: /home/barone/lcrisci_vb/ACTUAL_PROJECTS/MRCC_new_Interface_project/TestingOldVersion/Symmetry/Acetaldehyde_Cs
THREAD-23204498876160: Test mode: False
THREAD-23204498876160: Executing command: /home/barone/lcrisci_vb/python3.9/bin/python3.9 /home/barone/lcrisci_vb/ACTUAL_PROJECTS/MRCC_new_Interface_project/TestingOldVersion/OldVersion/Executables/GauExt test_pr.dat test_en.dat 7 55 READ R Gau-atom_7_ixyz_1_up.EIn energy_output.dat
THREAD-23204498876160: Working directory for subprocess: /home/barone/lcrisci_vb/ACTUAL_PROJECTS/MRCC_new_Interface_project/TestingOldVersion/Symmetry/Acetaldehyde_Cs/Iterations/Iteration_1/task_atom_7_ixyz_1_up
THREAD-23204502464256: Subprocess completed successfully
THREAD-23204502464256: Subprocess stdout (last 200 chars): d !scheme section at line 1.
    Line 2: Found coefficient: 1.0
  Found !formula marker at line 3
    Found formula at line 4: e=c1*e1
Finished parsing scheme: [('coeff', 1.0)]
Found formula: e=c1*e1

THREAD-23204502464256: Output file path: /home/barone/lcrisci_vb/ACTUAL_PROJECTS/MRCC_new_Interface_project/TestingOldVersion/Symmetry/Acetaldehyde_Cs/Iterations/Iteration_1/task_atom_5_ixyz_2_down/energy_output.dat
THREAD-23204502464256: Already in original directory /home/barone/lcrisci_vb/ACTUAL_PROJECTS/MRCC_new_Interface_project/TestingOldVersion/Symmetry/Acetaldehyde_Cs
PARALLEL EXECUTION: Task 'atom_5_ixyz_2_down' completed successfully with energy -150.944513567203
UNIT CONVERSION: Task 'atom_7_ixyz_1_down' - Wrote .EIn file in Bohr
  First atom: Angstrom = [-0.94208987 -0.71548439  0.        ], Bohr = [-1.78029183 -1.35206954  0.        ]
THREAD-23204502464256: Starting execution for task 'atom_7_ixyz_1_down'
THREAD-23204502464256: Task directory: /home/barone/lcrisci_vb/ACTUAL_PROJECTS/MRCC_new_Interface_project/TestingOldVersion/Symmetry/Acetaldehyde_Cs/Iterations/Iteration_1/task_atom_7_ixyz_1_down
THREAD-23204502464256: Input file: /home/barone/lcrisci_vb/ACTUAL_PROJECTS/MRCC_new_Interface_project/TestingOldVersion/Symmetry/Acetaldehyde_Cs/Iterations/Iteration_1/task_atom_7_ixyz_1_down/Gau-atom_7_ixyz_1_down.EIn
THREAD-23204502464256: Original working directory: /home/barone/lcrisci_vb/ACTUAL_PROJECTS/MRCC_new_Interface_project/TestingOldVersion/Symmetry/Acetaldehyde_Cs
THREAD-23204502464256: Test mode: False
THREAD-23204502464256: Executing command: /home/barone/lcrisci_vb/python3.9/bin/python3.9 /home/barone/lcrisci_vb/ACTUAL_PROJECTS/MRCC_new_Interface_project/TestingOldVersion/OldVersion/Executables/GauExt test_pr.dat test_en.dat 7 55 READ R Gau-atom_7_ixyz_1_down.EIn energy_output.dat
THREAD-23204502464256: Working directory for subprocess: /home/barone/lcrisci_vb/ACTUAL_PROJECTS/MRCC_new_Interface_project/TestingOldVersion/Symmetry/Acetaldehyde_Cs/Iterations/Iteration_1/task_atom_7_ixyz_1_down
THREAD-23204498876160: Subprocess completed successfully
THREAD-23204498876160: Subprocess stdout (last 200 chars): d !scheme section at line 1.
    Line 2: Found coefficient: 1.0
  Found !formula marker at line 3
    Found formula at line 4: e=c1*e1
Finished parsing scheme: [('coeff', 1.0)]
Found formula: e=c1*e1

THREAD-23204498876160: Output file path: /home/barone/lcrisci_vb/ACTUAL_PROJECTS/MRCC_new_Interface_project/TestingOldVersion/Symmetry/Acetaldehyde_Cs/Iterations/Iteration_1/task_atom_7_ixyz_1_up/energy_output.dat
THREAD-23204498876160: Already in original directory /home/barone/lcrisci_vb/ACTUAL_PROJECTS/MRCC_new_Interface_project/TestingOldVersion/Symmetry/Acetaldehyde_Cs
PARALLEL EXECUTION: Task 'atom_7_ixyz_1_up' completed successfully with energy -150.944541990475
UNIT CONVERSION: Task 'atom_7_ixyz_2_up' - Wrote .EIn file in Bohr
  First atom: Angstrom = [-0.94208987 -0.71548439  0.        ], Bohr = [-1.78029183 -1.35206954  0.        ]
THREAD-23204498876160: Starting execution for task 'atom_7_ixyz_2_up'
THREAD-23204498876160: Task directory: /home/barone/lcrisci_vb/ACTUAL_PROJECTS/MRCC_new_Interface_project/TestingOldVersion/Symmetry/Acetaldehyde_Cs/Iterations/Iteration_1/task_atom_7_ixyz_2_up
THREAD-23204498876160: Input file: /home/barone/lcrisci_vb/ACTUAL_PROJECTS/MRCC_new_Interface_project/TestingOldVersion/Symmetry/Acetaldehyde_Cs/Iterations/Iteration_1/task_atom_7_ixyz_2_up/Gau-atom_7_ixyz_2_up.EIn
THREAD-23204498876160: Original working directory: /home/barone/lcrisci_vb/ACTUAL_PROJECTS/MRCC_new_Interface_project/TestingOldVersion/Symmetry/Acetaldehyde_Cs
THREAD-23204498876160: Test mode: False
THREAD-23204498876160: Executing command: /home/barone/lcrisci_vb/python3.9/bin/python3.9 /home/barone/lcrisci_vb/ACTUAL_PROJECTS/MRCC_new_Interface_project/TestingOldVersion/OldVersion/Executables/GauExt test_pr.dat test_en.dat 7 55 READ R Gau-atom_7_ixyz_2_up.EIn energy_output.dat
THREAD-23204498876160: Working directory for subprocess: /home/barone/lcrisci_vb/ACTUAL_PROJECTS/MRCC_new_Interface_project/TestingOldVersion/Symmetry/Acetaldehyde_Cs/Iterations/Iteration_1/task_atom_7_ixyz_2_up
THREAD-23204502464256: Subprocess completed successfully
THREAD-23204502464256: Subprocess stdout (last 200 chars): d !scheme section at line 1.
    Line 2: Found coefficient: 1.0
  Found !formula marker at line 3
    Found formula at line 4: e=c1*e1
Finished parsing scheme: [('coeff', 1.0)]
Found formula: e=c1*e1

THREAD-23204502464256: Output file path: /home/barone/lcrisci_vb/ACTUAL_PROJECTS/MRCC_new_Interface_project/TestingOldVersion/Symmetry/Acetaldehyde_Cs/Iterations/Iteration_1/task_atom_7_ixyz_1_down/energy_output.dat
THREAD-23204502464256: Already in original directory /home/barone/lcrisci_vb/ACTUAL_PROJECTS/MRCC_new_Interface_project/TestingOldVersion/Symmetry/Acetaldehyde_Cs
PARALLEL EXECUTION: Task 'atom_7_ixyz_1_down' completed successfully with energy -150.944521682797
UNIT CONVERSION: Task 'atom_7_ixyz_2_down' - Wrote .EIn file in Bohr
  First atom: Angstrom = [-0.94208987 -0.71548439  0.        ], Bohr = [-1.78029183 -1.35206954  0.        ]
THREAD-23204502464256: Starting execution for task 'atom_7_ixyz_2_down'
THREAD-23204502464256: Task directory: /home/barone/lcrisci_vb/ACTUAL_PROJECTS/MRCC_new_Interface_project/TestingOldVersion/Symmetry/Acetaldehyde_Cs/Iterations/Iteration_1/task_atom_7_ixyz_2_down
THREAD-23204502464256: Input file: /home/barone/lcrisci_vb/ACTUAL_PROJECTS/MRCC_new_Interface_project/TestingOldVersion/Symmetry/Acetaldehyde_Cs/Iterations/Iteration_1/task_atom_7_ixyz_2_down/Gau-atom_7_ixyz_2_down.EIn
THREAD-23204502464256: Original working directory: /home/barone/lcrisci_vb/ACTUAL_PROJECTS/MRCC_new_Interface_project/TestingOldVersion/Symmetry/Acetaldehyde_Cs
THREAD-23204502464256: Test mode: False
THREAD-23204502464256: Executing command: /home/barone/lcrisci_vb/python3.9/bin/python3.9 /home/barone/lcrisci_vb/ACTUAL_PROJECTS/MRCC_new_Interface_project/TestingOldVersion/OldVersion/Executables/GauExt test_pr.dat test_en.dat 7 55 READ R Gau-atom_7_ixyz_2_down.EIn energy_output.dat
THREAD-23204502464256: Working directory for subprocess: /home/barone/lcrisci_vb/ACTUAL_PROJECTS/MRCC_new_Interface_project/TestingOldVersion/Symmetry/Acetaldehyde_Cs/Iterations/Iteration_1/task_atom_7_ixyz_2_down
THREAD-23204498876160: Subprocess completed successfully
THREAD-23204498876160: Subprocess stdout (last 200 chars): d !scheme section at line 1.
    Line 2: Found coefficient: 1.0
  Found !formula marker at line 3
    Found formula at line 4: e=c1*e1
Finished parsing scheme: [('coeff', 1.0)]
Found formula: e=c1*e1

THREAD-23204498876160: Output file path: /home/barone/lcrisci_vb/ACTUAL_PROJECTS/MRCC_new_Interface_project/TestingOldVersion/Symmetry/Acetaldehyde_Cs/Iterations/Iteration_1/task_atom_7_ixyz_2_up/energy_output.dat
THREAD-23204498876160: Already in original directory /home/barone/lcrisci_vb/ACTUAL_PROJECTS/MRCC_new_Interface_project/TestingOldVersion/Symmetry/Acetaldehyde_Cs
PARALLEL EXECUTION: Task 'atom_7_ixyz_2_up' completed successfully with energy -150.944507908997
THREAD-23204502464256: Subprocess completed successfully
THREAD-23204502464256: Subprocess stdout (last 200 chars): d !scheme section at line 1.
    Line 2: Found coefficient: 1.0
  Found !formula marker at line 3
    Found formula at line 4: e=c1*e1
Finished parsing scheme: [('coeff', 1.0)]
Found formula: e=c1*e1

THREAD-23204502464256: Output file path: /home/barone/lcrisci_vb/ACTUAL_PROJECTS/MRCC_new_Interface_project/TestingOldVersion/Symmetry/Acetaldehyde_Cs/Iterations/Iteration_1/task_atom_7_ixyz_2_down/energy_output.dat
THREAD-23204502464256: Already in original directory /home/barone/lcrisci_vb/ACTUAL_PROJECTS/MRCC_new_Interface_project/TestingOldVersion/Symmetry/Acetaldehyde_Cs
PARALLEL EXECUTION: Task 'atom_7_ixyz_2_down' completed successfully with energy -150.944555117851
PARALLEL EXECUTION: Completed tasks: ['atom_1_ixyz_1_down', 'atom_1_ixyz_1_up', 'atom_1_ixyz_2_down', 'atom_1_ixyz_2_up', 'atom_2_ixyz_1_down', 'atom_2_ixyz_1_up', 'atom_2_ixyz_2_down', 'atom_2_ixyz_2_up', 'atom_3_ixyz_1_down', 'atom_3_ixyz_1_up', 'atom_3_ixyz_2_down', 'atom_3_ixyz_2_up', 'atom_4_ixyz_1_down', 'atom_4_ixyz_1_up', 'atom_4_ixyz_2_down', 'atom_4_ixyz_2_up', 'atom_4_ixyz_3_down', 'atom_4_ixyz_3_up', 'atom_5_ixyz_1_down', 'atom_5_ixyz_1_up', 'atom_5_ixyz_2_down', 'atom_5_ixyz_2_up', 'atom_7_ixyz_1_down', 'atom_7_ixyz_1_up', 'atom_7_ixyz_2_down', 'atom_7_ixyz_2_up', 'central']
PARALLEL EXECUTION: Failed tasks: []
PARALLEL EXECUTION: All 27 tasks completed successfully
TASK COMPLETION: Received 27 results
  - Task atom_1_ixyz_1_up: Energy = -150.944487916697
  - Task central: Energy = -150.944532122054
  - Task atom_1_ixyz_2_up: Energy = -150.94449511424
  - Task atom_1_ixyz_1_down: Energy = -150.944573491068
  - Task atom_2_ixyz_1_up: Energy = -150.944545801715
  - Task atom_1_ixyz_2_down: Energy = -150.944566338979
  - Task atom_2_ixyz_2_up: Energy = -150.944584858406
  - Task atom_2_ixyz_1_down: Energy = -150.944513539609
  - Task atom_2_ixyz_2_down: Energy = -150.944476700683
  - Task atom_3_ixyz_1_up: Energy = -150.944528316871
  - Task atom_3_ixyz_1_down: Energy = -150.944531928363
  - Task atom_3_ixyz_2_up: Energy = -150.944531108614
  - Task atom_3_ixyz_2_down: Energy = -150.94453277911
  - Task atom_4_ixyz_1_up: Energy = -150.944549367273
  - Task atom_4_ixyz_1_down: Energy = -150.944514159004
  - Task atom_4_ixyz_2_up: Energy = -150.94452601483
  - Task atom_4_ixyz_2_down: Energy = -150.944537967515
  - Task atom_4_ixyz_3_up: Energy = -150.944511925095
  - Task atom_4_ixyz_3_down: Energy = -150.944551205602
  - Task atom_5_ixyz_1_up: Energy = -150.944514911652
  - Task atom_5_ixyz_1_down: Energy = -150.944548711699
  - Task atom_5_ixyz_2_up: Energy = -150.944549418982
  - Task atom_5_ixyz_2_down: Energy = -150.944513567203
  - Task atom_7_ixyz_1_up: Energy = -150.944541990475
  - Task atom_7_ixyz_1_down: Energy = -150.944521682797
  - Task atom_7_ixyz_2_up: Energy = -150.944507908997
  - Task atom_7_ixyz_2_down: Energy = -150.944555117851
WARNING: Could not find point group information in log file
Returning minimal PointGroupInfo with empty operations (will use fallback)
ADVANCED SYMMETRY: Using Unknown point group
ADVANCED SYMMETRY: 0 operations found in log
ADVANCED SYMMETRY: Applying symmetry-aware gradient assembly
  (with automatic inference from forces if needed)
AUTO-DETECT: Found R_coords with RMSD = 1.15e-12 Bohr
Gradient transformation matrix R^T (original → central):
  [1. 0. 0.]
  [0. 1. 0.]
  [0. 0. 1.]

⚠ No explicit symmetry operations found in log
Attempting to infer operations from forces...

=== INFERRING SYMMETRY OPERATIONS FROM FORCES ===
Atoms with displacements: [0, 1, 2, 3, 4, 6]
Atoms to infer: [5]
Testing 60 transformation matrices...
Operation 2: Atom 3→5, RMSD=0.00e+00, Abelian
  Transformation matrix:
    [1. 0. 0.]
    [0. 1. 0.]
    [ 0.  0. -1.]
  Nuclear permutation: [0, 1, 2, 5, 4, 3, 6]
✓ Inferred 2 operations (including identity)
✓ Successfully inferred 2 operations from forces

=== MOLECULAR SYMMETRY CONSTRAINTS ===
SYMMETRY CONSTRAINT: Atom 1, Axis 3 = 0.000000000 (missing displacement)
SYMMETRY CONSTRAINT: Atom 2, Axis 3 = 0.000000000 (missing displacement)
SYMMETRY CONSTRAINT: Atom 3, Axis 3 = 0.000000000 (missing displacement)
SYMMETRY CONSTRAINT: Atom 5, Axis 3 = 0.000000000 (missing displacement)
SYMMETRY CONSTRAINT: Atom 6, Axis 3 = 0.000000000 (symmetry element)
SYMMETRY CONSTRAINT: Atom 6, Axis 3 = 0.000000000 (symmetry element)
SYMMETRY CONSTRAINT: Atom 6, Axis 3 = 0.000000000 (symmetry element)
SYMMETRY CONSTRAINT: Atom 6, Axis 3 = 0.000000000 (symmetry element)
SYMMETRY CONSTRAINT: Atom 6, Axis 3 = 0.000000000 (symmetry element)
SYMMETRY CONSTRAINT: Atom 7, Axis 3 = 0.000000000 (missing displacement)

=== DIRECT CALCULATIONS ===
DIRECT CALCULATION: Atom 1, Axis 1 = 0.02264200
DIRECT CALCULATION: Atom 1, Axis 2 = 0.01884525
DIRECT CALCULATION: Atom 2, Axis 1 = -0.00853619
DIRECT CALCULATION: Atom 2, Axis 2 = -0.02861730
DIRECT CALCULATION: Atom 3, Axis 1 = 0.00095556
DIRECT CALCULATION: Atom 3, Axis 2 = 0.00044199
DIRECT CALCULATION: Atom 4, Axis 1 = -0.00931571
DIRECT CALCULATION: Atom 4, Axis 2 = 0.00316254
DIRECT CALCULATION: Atom 4, Axis 3 = 0.01039317
DIRECT CALCULATION: Atom 5, Axis 1 = 0.00894311
DIRECT CALCULATION: Atom 5, Axis 2 = -0.00948597
DIRECT CALCULATION: Atom 7, Axis 1 = -0.00537318
DIRECT CALCULATION: Atom 7, Axis 2 = 0.01249092
SYMMETRY PROPAGATION: Atom 6 from Atom 4 via operation 2
  Source gradient: [-0.00931571  0.00316254  0.01039317]
  Transformation matrix:
    [1. 0. 0.]
    [0. 1. 0.]
    [ 0.  0. -1.]
  Result gradient: [-0.00931571  0.00316254 -0.01039317]

=== VALIDATION ===
CONSTRAINT VERIFIED: Atom 1, Axis 3 = 0.000000000
CONSTRAINT VERIFIED: Atom 2, Axis 3 = 0.000000000
CONSTRAINT VERIFIED: Atom 3, Axis 3 = 0.000000000
CONSTRAINT VERIFIED: Atom 5, Axis 3 = 0.000000000
CONSTRAINT VERIFIED: Atom 7, Axis 3 = 0.000000000
SYMMETRY EFFICIENCY: 14.3% computational reduction
SYMMETRY EFFICIENCY: 18/21 components calculated
NUMERICAL WORKFLOW: Gradient shape: (7, 3)
NUMERICAL WORKFLOW: Central energy: -150.944532122054

DEBUG: Writing output to /home/barone/lcrisci_vb/ACTUAL_PROJECTS/MRCC_new_Interface_project/TestingOldVersion/Symmetry/Acetaldehyde_Cs/Gau-4150630.EOu
DEBUG: Current directory: /home/barone/lcrisci_vb/ACTUAL_PROJECTS/MRCC_new_Interface_project/TestingOldVersion/Symmetry/Acetaldehyde_Cs
DEBUG: Central energy: -150.944532122054
DEBUG: Gradient shape: (7, 3)
DEBUG: Output written successfully
DEBUG: File exists: True
SUCCESS: Parallel gradient calculation completed using iteration 1
Task directories preserved in: /home/barone/lcrisci_vb/ACTUAL_PROJECTS/MRCC_new_Interface_project/TestingOldVersion/Symmetry/Acetaldehyde_Cs/Iterations/Iteration_1
 Recovered energy= -150.944532122     dipole=      0.000000000000      0.000000000000      0.000000000000
 Energy=    -150.944532     NIter=   0.
 Dipole moment=       0.000000       0.000000       0.000000
 Leave Link  402 at Wed Nov 19 18:09:39 2025, MaxMem=   104857600 cpu:               0.0 elap:             120.7
 (Enter /gaussian/g16.c01/intel64-sandybridge/g16/l601.exe)
 Leave Link  601 at Wed Nov 19 18:09:39 2025, MaxMem=   104857600 cpu:               0.0 elap:               0.0
 (Enter /gaussian/g16.c01/intel64-sandybridge/g16/l716.exe)
 Dipole        = 0.00000000D+00 0.00000000D+00 0.00000000D+00
 ***** Axes restored to original set *****
 -------------------------------------------------------------------
 Center     Atomic                   Forces (Hartrees/Bohr)
 Number     Number              X              Y              Z
 -------------------------------------------------------------------
      1        6          -0.029021825   -0.005053475   -0.000000000
      2        6           0.021662995    0.020555559   -0.000000000
      3        8          -0.001048711    0.000093051   -0.000000000
      4        1           0.006500118   -0.007384616   -0.010393175
      5        1          -0.003025572    0.012681039   -0.000000000
      6        1           0.006500118   -0.007384616    0.010393175
      7        1          -0.001567023   -0.013506987   -0.000000000
 -------------------------------------------------------------------
 Cartesian Forces:  Max     0.029021825 RMS     0.010965726
 Leave Link  716 at Wed Nov 19 18:09:39 2025, MaxMem=   104857600 cpu:               0.0 elap:               0.0
 (Enter /gaussian/g16.c01/intel64-sandybridge/g16/l9999.exe)
 Unable to Open any file for archive entry.
 1\1\GINC-THIOTIMOLINE-LARGE01\Force\External='CentralExt gau $PGAU/tes
 t_pr.dat $EGAU/test_en.dat 7 55 read parall 2'\ZDO\C2H4O1\LCRISCI_VB\1
 9-Nov-2025\0\\#p force output=pickett External="CentralExt gau $PGAU/t
 est_pr.dat $EGAU/test_en.dat 7 55 read parall 2"\\title\\0,1\C,-1.1733
 3896,-0.15076314,0.\C,0.23129705,0.40235083,0.\O,1.24256504,-0.2771301
 9,0.\H,-1.71570095,0.21776766,0.88766494\H,-1.14950998,-1.24995315,0.\
 H,-1.71570095,0.21776766,-0.88766494\H,0.29260707,1.52200483,0.\\Versi
 on=ES64L-G16RevC.01\HF=-150.9445321\RMSD=0.000e+00\RMSF=1.097e-02\Dipo
 le=0.,0.,0.\PG=CS [SG(C2H2O1),X(H2)]\\@
 The archive entry for this job was punched.
 DoSRE=F DoSRN=F DoDH=F DoFC=F DoNQ=F DoQCD=F DoSCD=F
 Inertia tensor (amu-bohr**2): 
                 1             2             3 
      1   0.322314D+02  0.377450D+01  0.000000D+00
      2   0.377450D+01  0.179939D+03  0.000000D+00
      3   0.000000D+00  0.000000D+00  0.200827D+03
 Principal inertia moments (amu-bohr**2):
 Iaa = 0.321350D+02 Ibb= 0.180035D+03 Icc= 0.200827D+03
 Rotation matrix to Principal Axis frame: 
                 1             2             3 
      1   0.999674D+00  0.255290D-01  0.000000D+00
      2  -0.255290D-01  0.999674D+00  0.000000D+00
      3   0.000000D+00  0.000000D+00  0.100000D+01
                Principal axis orientation:                
 ---------------------------------------------------------------------
 Center     Atomic                     Coordinates (Angstroms)
 Number     Number                        X           Y           Z
 ---------------------------------------------------------------------
      1          6                   -1.265979   -0.167226    0.000000
      2          6                    0.124079    0.421567    0.000000
      3          8                    1.152364   -0.231876    0.000000
      4          1                   -1.817572    0.187339    0.887665
      5          1                   -1.214096   -1.265449    0.000000
      6          1                   -1.817572    0.187339   -0.887665
      7          1                    0.156786    1.542421    0.000000
 ---------------------------------------------------------------------
 Rotational constants (MHZ):
  56161.1495241  10024.3962937   8986.5641899
 Dipole moment (Debye):
      0.0000000      0.0000000      0.0000000  Tot=      0.0000000

 Atoms with significant hyperfine tensors: 

--------------------------------------------------------------------------------
 title                                                   
   99  1000  50  0.1760E-11  0.1000E+07  0.1000E+01 1.0000000000
a   1  0  0  0  1  1   1  0  1  0
     10000   0.56161150E+05    0.0000E+00   /  A  /
     20000   0.10024396E+05    0.0000E+00   /  B  /
     30000   0.89865642E+04    0.0000E+00   /  C  /
--------------------------------------------------------------------------------

 Punch of MOs requested, but none found.


      LET US REMEMBER, PLEASE, THAT THE SEARCH FOR THE CONSTITUTION
      OF THE WORLD IS ONE OF THE GREATEST AND NOBLEST PROBLEMS PRESENTED 
      BY NATURE.

                                                  -- GALILEO
 Job cpu time:       0 days  0 hours  0 minutes  0.3 seconds.
 Elapsed time:       0 days  0 hours  2 minutes  1.4 seconds.
 File lengths (MBytes):  RWF=      5 Int=      0 D2E=      0 Chk=      1 Scr=      1
 Normal termination of Gaussian 16 at Wed Nov 19 18:09:39 2025.
 Initial command:
 /gaussian/g16.c01/intel64-sandybridge/g16/l1.exe "/home/barone/lcrisci_vb/ACTUAL_PROJECTS/MRCC_new_Interface_project/TestingOldVersion/Symmetry/Acetaldehyde_Cs/Gau-4150629.inp" -scrdir="/home/barone/lcrisci_vb/ACTUAL_PROJECTS/MRCC_new_Interface_project/TestingOldVersion/Symmetry/Acetaldehyde_Cs/"
 Entering Link 1 = /gaussian/g16.c01/intel64-sandybridge/g16/l1.exe PID=   4152531.
  
 Copyright (c) 1988-2019, Gaussian, Inc.  All Rights Reserved.
  
 This is part of the Gaussian(R) 16 program.  It is based on
 the Gaussian(R) 09 system (copyright 2009, Gaussian, Inc.),
 the Gaussian(R) 03 system (copyright 2003, Gaussian, Inc.),
 the Gaussian(R) 98 system (copyright 1998, Gaussian, Inc.),
 the Gaussian(R) 94 system (copyright 1995, Gaussian, Inc.),
 the Gaussian 92(TM) system (copyright 1992, Gaussian, Inc.),
 the Gaussian 90(TM) system (copyright 1990, Gaussian, Inc.),
 the Gaussian 88(TM) system (copyright 1988, Gaussian, Inc.),
 the Gaussian 86(TM) system (copyright 1986, Carnegie Mellon
 University), and the Gaussian 82(TM) system (copyright 1983,
 Carnegie Mellon University). Gaussian is a federally registered
 trademark of Gaussian, Inc.
  
 This software contains proprietary and confidential information,
 including trade secrets, belonging to Gaussian, Inc.
  
 This software is provided under written license and may be
 used, copied, transmitted, or stored only in accord with that
 written license.
  
 The following legend is applicable only to US Government
 contracts under FAR:
  
                    RESTRICTED RIGHTS LEGEND
  
 Use, reproduction and disclosure by the US Government is
 subject to restrictions as set forth in subparagraphs (a)
 and (c) of the Commercial Computer Software - Restricted
 Rights clause in FAR 52.227-19.
  
 Gaussian, Inc.
 340 Quinnipiac St., Bldg. 40, Wallingford CT 06492
  
  
 ---------------------------------------------------------------
 Warning -- This program may not be used in any manner that
 competes with the business of Gaussian, Inc. or will provide
 assistance to any competitor of Gaussian, Inc.  The licensee
 of this program is prohibited from giving any competitor of
 Gaussian, Inc. access to this program.  By using this program,
 the user acknowledges that Gaussian, Inc. is engaged in the
 business of creating and licensing software in the field of
 computational chemistry and represents and warrants to the
 licensee that it is not a competitor of Gaussian, Inc. and that
 it will not use this program in any manner prohibited above.
 ---------------------------------------------------------------
  

 Cite this work as:
 Gaussian 16, Revision C.01,
 M. J. Frisch, G. W. Trucks, H. B. Schlegel, G. E. Scuseria, 
 M. A. Robb, J. R. Cheeseman, G. Scalmani, V. Barone, 
 G. A. Petersson, H. Nakatsuji, X. Li, M. Caricato, A. V. Marenich, 
 J. Bloino, B. G. Janesko, R. Gomperts, B. Mennucci, H. P. Hratchian, 
 J. V. Ortiz, A. F. Izmaylov, J. L. Sonnenberg, D. Williams-Young, 
 F. Ding, F. Lipparini, F. Egidi, J. Goings, B. Peng, A. Petrone, 
 T. Henderson, D. Ranasinghe, V. G. Zakrzewski, J. Gao, N. Rega, 
 G. Zheng, W. Liang, M. Hada, M. Ehara, K. Toyota, R. Fukuda, 
 J. Hasegawa, M. Ishida, T. Nakajima, Y. Honda, O. Kitao, H. Nakai, 
 T. Vreven, K. Throssell, J. A. Montgomery, Jr., J. E. Peralta, 
 F. Ogliaro, M. J. Bearpark, J. J. Heyd, E. N. Brothers, K. N. Kudin, 
 V. N. Staroverov, T. A. Keith, R. Kobayashi, J. Normand, 
 K. Raghavachari, A. P. Rendell, J. C. Burant, S. S. Iyengar, 
 J. Tomasi, M. Cossi, J. M. Millam, M. Klene, C. Adamo, R. Cammi, 
 J. W. Ochterski, R. L. Martin, K. Morokuma, O. Farkas, 
 J. B. Foresman, and D. J. Fox, Gaussian, Inc., Wallingford CT, 2019.
 
 ******************************************
 Gaussian 16:  ES64L-G16RevC.01  3-Jul-2019
                19-Nov-2025 
 ******************************************
 %chk=test_parall.chk
 %nprocs=1
 Will use up to    1 processors via shared memory.
 ------------------
 #p force hf/sto-3g
 ------------------
 1/10=7,30=1,38=1/1,3;
 2/12=2,17=6,18=5,40=1/2;
 3/6=3,11=9,25=1,30=1,71=1/1,2,3;
 4//1;
 5/5=2,38=5/2;
 6/7=2,8=2,9=2,10=2,28=1/1;
 7/29=1/1,2,3,16;
 1/10=7,30=1/3;
 99//99;
 Leave Link    1 at Wed Nov 19 18:09:40 2025, MaxMem=           0 cpu:               0.0 elap:               0.1
 (Enter /gaussian/g16.c01/intel64-sandybridge/g16/l101.exe)
 -----
 title
 -----
 Symbolic Z-matrix:
 Charge =  0 Multiplicity = 1
 C                    -1.17334  -0.15076   0. 
 C                     0.2313    0.40235   0. 
 O                     1.24257  -0.27713   0. 
 H                    -1.7157    0.21777   0.88766 
 H                    -1.14951  -1.24995   0. 
 H                    -1.7157    0.21777  -0.88766 
 H                     0.29261   1.522     0. 
 
 ITRead=  0  0  0  0  0  0  0
 MicOpt= -1 -1 -1 -1 -1 -1 -1
 NAtoms=      7 NQM=        7 NQMF=       0 NMMI=      0 NMMIF=      0
                NMic=       0 NMicF=      0.
                    Isotopes and Nuclear Properties:
 (Nuclear quadrupole moments (NQMom) in fm**2, nuclear magnetic moments (NMagM)
  in nuclear magnetons)

  Atom         1           2           3           4           5           6           7
 IAtWgt=          12          12          16           1           1           1           1
 AtmWgt=  12.0000000  12.0000000  15.9949146   1.0078250   1.0078250   1.0078250   1.0078250
 NucSpn=           0           0           0           1           1           1           1
 AtZEff=  -0.0000000  -0.0000000  -0.0000000  -0.0000000  -0.0000000  -0.0000000  -0.0000000
 NQMom=    0.0000000   0.0000000   0.0000000   0.0000000   0.0000000   0.0000000   0.0000000
 NMagM=    0.0000000   0.0000000   0.0000000   2.7928460   2.7928460   2.7928460   2.7928460
 AtZNuc=   6.0000000   6.0000000   8.0000000   1.0000000   1.0000000   1.0000000   1.0000000
 Leave Link  101 at Wed Nov 19 18:09:40 2025, MaxMem=   104857600 cpu:               0.1 elap:               0.1
 (Enter /gaussian/g16.c01/intel64-sandybridge/g16/l103.exe)

 GradGradGradGradGradGradGradGradGradGradGradGradGradGradGradGradGradGrad
 Berny optimization.
 Initialization pass.
 Trust Radius=3.00D-01 FncErr=1.00D-07 GrdErr=1.00D-07 EigMax=2.50D+02 EigMin=1.00D-04
 Number of steps in this run=      2 maximum allowed number of steps=      2.
 GradGradGradGradGradGradGradGradGradGradGradGradGradGradGradGradGradGrad

 Leave Link  103 at Wed Nov 19 18:09:40 2025, MaxMem=   104857600 cpu:               0.0 elap:               0.0
 (Enter /gaussian/g16.c01/intel64-sandybridge/g16/l202.exe)
                          Input orientation:                          
 ---------------------------------------------------------------------
 Center     Atomic      Atomic             Coordinates (Angstroms)
 Number     Number       Type             X           Y           Z
 ---------------------------------------------------------------------
      1          6           0       -1.173339   -0.150763    0.000000
      2          6           0        0.231297    0.402351    0.000000
      3          8           0        1.242565   -0.277130    0.000000
      4          1           0       -1.715701    0.217768    0.887665
      5          1           0       -1.149510   -1.249953    0.000000
      6          1           0       -1.715701    0.217768   -0.887665
      7          1           0        0.292607    1.522005    0.000000
 ---------------------------------------------------------------------
                    Distance matrix (angstroms):
                    1          2          3          4          5
     1  C    0.000000
     2  C    1.509615   0.000000
     3  O    2.419207   1.218342   0.000000
     4  H    1.103594   2.147748   3.127972   0.000000
     5  H    1.099448   2.153308   2.582326   1.806302   0.000000
     6  H    1.103594   2.147748   3.127972   1.775330   1.806302
     7  H    2.224219   1.121331   2.034529   2.553876   3.124652
                    6          7
     6  H    0.000000
     7  H    2.553876   0.000000
 Stoichiometry    C2H4O
 Framework group  CS[SG(C2H2O),X(H2)]
 Deg. of freedom    10
 Full point group                 CS      NOp   2
 Largest Abelian subgroup         CS      NOp   2
 Largest concise Abelian subgroup CS      NOp   2
                         Standard orientation:                         
 ---------------------------------------------------------------------
 Center     Atomic      Atomic             Coordinates (Angstroms)
 Number     Number       Type             X           Y           Z
 ---------------------------------------------------------------------
      1          6           0       -0.942090   -0.715484    0.000000
      2          6           0        0.000000    0.464094    0.000000
      3          8           0        1.215368    0.379018    0.000000
      4          1           0       -1.595964   -0.666292    0.887665
      5          1           0       -0.373608   -1.656556    0.000000
      6          1           0       -1.595964   -0.666292   -0.887665
      7          1           0       -0.504869    1.465338    0.000000
 ---------------------------------------------------------------------
 Rotational constants (GHZ):          56.1611495          10.0243963           8.9865642
 Leave Link  202 at Wed Nov 19 18:09:40 2025, MaxMem=   104857600 cpu:               0.0 elap:               0.0
 (Enter /gaussian/g16.c01/intel64-sandybridge/g16/l301.exe)
 Standard basis: STO-3G (5D, 7F)
 Ernie: Thresh=  0.10000D-02 Tol=  0.10000D-05 Strict=F.
 There are    15 symmetry adapted cartesian basis functions of A'  symmetry.
 There are     4 symmetry adapted cartesian basis functions of A"  symmetry.
 There are    15 symmetry adapted basis functions of A'  symmetry.
 There are     4 symmetry adapted basis functions of A"  symmetry.
    19 basis functions,    57 primitive gaussians,    19 cartesian basis functions
    12 alpha electrons       12 beta electrons
       nuclear repulsion energy        69.1941104257 Hartrees.
 IExCor=    0 DFT=F Ex=HF Corr=None ExCW=0 ScaHFX=  1.000000
 ScaDFX=  1.000000  1.000000  1.000000  1.000000 ScalE2=  1.000000  1.000000
 IRadAn=      5 IRanWt=     -1 IRanGd=            0 ICorTp=0 IEmpDi=  4
 NAtoms=    7 NActive=    7 NUniq=    6 SFac= 1.36D+00 NAtFMM=   60 NAOKFM=F Big=F
 Integral buffers will be    131072 words long.
 Raffenetti 1 integral format.
 Two-electron integral symmetry is turned on.
 Leave Link  301 at Wed Nov 19 18:09:40 2025, MaxMem=   104857600 cpu:               0.0 elap:               0.1
 (Enter /gaussian/g16.c01/intel64-sandybridge/g16/l302.exe)
 NPDir=0 NMtPBC=     1 NCelOv=     1 NCel=       1 NClECP=     1 NCelD=      1
         NCelK=      1 NCelE2=     1 NClLst=     1 CellRange=     0.0.
 One-electron integrals computed using PRISM.
 One-electron integral symmetry used in STVInt
 NBasis=    19 RedAO= T EigKep=  2.20D-01  NBF=    15     4
 NBsUse=    19 1.00D-06 EigRej= -1.00D+00 NBFU=    15     4
 Leave Link  302 at Wed Nov 19 18:09:40 2025, MaxMem=   104857600 cpu:               0.0 elap:               0.1
 (Enter /gaussian/g16.c01/intel64-sandybridge/g16/l303.exe)
 DipDrv:  MaxL=1.
 Leave Link  303 at Wed Nov 19 18:09:40 2025, MaxMem=   104857600 cpu:               0.0 elap:               0.0
 (Enter /gaussian/g16.c01/intel64-sandybridge/g16/l401.exe)
 ExpMin= 1.69D-01 ExpMax= 1.31D+02 ExpMxC= 1.31D+02 IAcc=3 IRadAn=         5 AccDes= 0.00D+00
 Harris functional with IExCor=  205 and IRadAn=       5 diagonalized for initial guess.
 HarFok:  IExCor=  205 AccDes= 0.00D+00 IRadAn=         5 IDoV= 1 UseB2=F ITyADJ=14
 ICtDFT=  3500011 ScaDFX=  1.000000  1.000000  1.000000  1.000000
 FoFCou: FMM=F IPFlag=           0 FMFlag=      100000 FMFlg1=           0
         NFxFlg=           0 DoJE=T BraDBF=F KetDBF=T FulRan=T
         wScrn=  0.000000 ICntrl=       500 IOpCl=  0 I1Cent=   200000004 NGrid=           0
         NMat0=    1 NMatS0=      1 NMatT0=    0 NMatD0=    1 NMtDS0=    0 NMtDT0=    0
 Petite list used in FoFCou.
 Harris En= -151.088800774384    
 JPrj=0 DoOrth=F DoCkMO=F.
 Initial guess orbital symmetries:
       Occupied  (A') (A') (A') (A') (A') (A') (A') (A") (A') (A')
                 (A") (A')
       Virtual   (A") (A') (A') (A") (A') (A') (A')
 The electronic state of the initial guess is 1-A'.
 Leave Link  401 at Wed Nov 19 18:09:41 2025, MaxMem=   104857600 cpu:               0.2 elap:               0.2
 (Enter /gaussian/g16.c01/intel64-sandybridge/g16/l502.exe)
 Keep R1 ints in memory in symmetry-blocked form, NReq=827598.
 FoFCou: FMM=F IPFlag=           0 FMFlag=           0 FMFlg1=           0
         NFxFlg=           0 DoJE=F BraDBF=F KetDBF=F FulRan=T
         wScrn=  0.000000 ICntrl=       600 IOpCl=  0 I1Cent=           0 NGrid=           0
         NMat0=    1 NMatS0=    190 NMatT0=    0 NMatD0=    1 NMtDS0=    0 NMtDT0=    0
 Petite list used in FoFCou.
 Closed shell SCF:
 Using DIIS extrapolation, IDIIS=  1040.
 NGot=   104857600 LenX=   104844885 LenY=   104844003
 Requested convergence on RMS density matrix=1.00D-08 within 128 cycles.
 Requested convergence on MAX density matrix=1.00D-06.
 Requested convergence on             energy=1.00D-06.
 No special actions if energy rises.

 Cycle   1  Pass 1  IDiag  1:
 E= -150.884480908819    
 DIIS: error= 4.57D-02 at cycle   1 NSaved=   1.
 NSaved= 1 IEnMin= 1 EnMin= -150.884480908819     IErMin= 1 ErrMin= 4.57D-02
 ErrMax= 4.57D-02  0.00D+00 EMaxC= 1.00D-01 BMatC= 5.67D-02 BMatP= 5.67D-02
 IDIUse=3 WtCom= 5.43D-01 WtEn= 4.57D-01
 Coeff-Com:  0.100D+01
 Coeff-En:   0.100D+01
 Coeff:      0.100D+01
 Gap=     0.580 Goal=   None    Shift=    0.000
 GapD=    0.580 DampG=2.000 DampE=0.500 DampFc=1.0000 IDamp=-1.
 RMSDP=1.74D-02 MaxDP=1.01D-01              OVMax= 0.00D+00

 Cycle   2  Pass 1  IDiag  1:
 E= -150.941036451118     Delta-E=       -0.056555542299 Rises=F Damp=F
 DIIS: error= 8.39D-03 at cycle   2 NSaved=   2.
 NSaved= 2 IEnMin= 2 EnMin= -150.941036451118     IErMin= 2 ErrMin= 8.39D-03
 ErrMax= 8.39D-03  0.00D+00 EMaxC= 1.00D-01 BMatC= 2.86D-03 BMatP= 5.67D-02
 IDIUse=3 WtCom= 9.16D-01 WtEn= 8.39D-02
 Coeff-Com:  0.100D+00 0.900D+00
 Coeff-En:   0.000D+00 0.100D+01
 Coeff:      0.920D-01 0.908D+00
 Gap=     0.629 Goal=   None    Shift=    0.000
 RMSDP=3.75D-03 MaxDP=1.94D-02 DE=-5.66D-02 OVMax= 0.00D+00

 Cycle   3  Pass 1  IDiag  1:
 E= -150.944065794818     Delta-E=       -0.003029343700 Rises=F Damp=F
 DIIS: error= 5.61D-03 at cycle   3 NSaved=   3.
 NSaved= 3 IEnMin= 3 EnMin= -150.944065794818     IErMin= 3 ErrMin= 5.61D-03
 ErrMax= 5.61D-03  0.00D+00 EMaxC= 1.00D-01 BMatC= 2.02D-04 BMatP= 2.86D-03
 IDIUse=3 WtCom= 9.44D-01 WtEn= 5.61D-02
 Coeff-Com: -0.131D-01 0.117D+00 0.896D+00
 Coeff-En:   0.000D+00 0.000D+00 0.100D+01
 Coeff:     -0.123D-01 0.110D+00 0.902D+00
 Gap=     0.621 Goal=   None    Shift=    0.000
 RMSDP=1.30D-03 MaxDP=1.48D-02 DE=-3.03D-03 OVMax= 0.00D+00

 Cycle   4  Pass 1  IDiag  1:
 E= -150.944436469373     Delta-E=       -0.000370674555 Rises=F Damp=F
 DIIS: error= 1.21D-03 at cycle   4 NSaved=   4.
 NSaved= 4 IEnMin= 4 EnMin= -150.944436469373     IErMin= 4 ErrMin= 1.21D-03
 ErrMax= 1.21D-03  0.00D+00 EMaxC= 1.00D-01 BMatC= 5.56D-05 BMatP= 2.02D-04
 IDIUse=3 WtCom= 9.88D-01 WtEn= 1.21D-02
 Coeff-Com: -0.892D-02-0.479D-01 0.257D+00 0.800D+00
 Coeff-En:   0.000D+00 0.000D+00 0.000D+00 0.100D+01
 Coeff:     -0.881D-02-0.473D-01 0.253D+00 0.803D+00
 Gap=     0.625 Goal=   None    Shift=    0.000
 RMSDP=5.25D-04 MaxDP=3.49D-03 DE=-3.71D-04 OVMax= 0.00D+00

 Cycle   5  Pass 1  IDiag  1:
 E= -150.944512610326     Delta-E=       -0.000076140953 Rises=F Damp=F
 DIIS: error= 5.80D-04 at cycle   5 NSaved=   5.
 NSaved= 5 IEnMin= 5 EnMin= -150.944512610326     IErMin= 5 ErrMin= 5.80D-04
 ErrMax= 5.80D-04  0.00D+00 EMaxC= 1.00D-01 BMatC= 5.15D-06 BMatP= 5.56D-05
 IDIUse=3 WtCom= 9.94D-01 WtEn= 5.80D-03
 Coeff-Com:  0.380D-02-0.140D-01-0.137D+00-0.342D+00 0.149D+01
 Coeff-En:   0.000D+00 0.000D+00 0.000D+00 0.000D+00 0.100D+01
 Coeff:      0.378D-02-0.140D-01-0.136D+00-0.340D+00 0.149D+01
 Gap=     0.627 Goal=   None    Shift=    0.000
 RMSDP=3.66D-04 MaxDP=3.06D-03 DE=-7.61D-05 OVMax= 0.00D+00

 Cycle   6  Pass 1  IDiag  1:
 E= -150.944530817579     Delta-E=       -0.000018207253 Rises=F Damp=F
 DIIS: error= 1.77D-04 at cycle   6 NSaved=   6.
 NSaved= 6 IEnMin= 6 EnMin= -150.944530817579     IErMin= 6 ErrMin= 1.77D-04
 ErrMax= 1.77D-04  0.00D+00 EMaxC= 1.00D-01 BMatC= 4.96D-07 BMatP= 5.15D-06
 IDIUse=3 WtCom= 9.98D-01 WtEn= 1.77D-03
 Coeff-Com: -0.209D-02 0.125D-01 0.104D+00 0.114D+00-0.973D+00 0.174D+01
 Coeff-En:   0.000D+00 0.000D+00 0.000D+00 0.000D+00 0.000D+00 0.100D+01
 Coeff:     -0.208D-02 0.125D-01 0.104D+00 0.114D+00-0.971D+00 0.174D+01
 Gap=     0.627 Goal=   None    Shift=    0.000
 RMSDP=1.18D-04 MaxDP=9.86D-04 DE=-1.82D-05 OVMax= 0.00D+00

 Cycle   7  Pass 1  IDiag  1:
 E= -150.944532116328     Delta-E=       -0.000001298748 Rises=F Damp=F
 DIIS: error= 8.65D-06 at cycle   7 NSaved=   7.
 NSaved= 7 IEnMin= 7 EnMin= -150.944532116328     IErMin= 7 ErrMin= 8.65D-06
 ErrMax= 8.65D-06  0.00D+00 EMaxC= 1.00D-01 BMatC= 2.09D-09 BMatP= 4.96D-07
 IDIUse=1 WtCom= 1.00D+00 WtEn= 0.00D+00
 Coeff-Com:  0.436D-03-0.270D-02-0.222D-01-0.215D-01 0.206D+00-0.420D+00
 Coeff-Com:  0.126D+01
 Coeff:      0.436D-03-0.270D-02-0.222D-01-0.215D-01 0.206D+00-0.420D+00
 Coeff:      0.126D+01
 Gap=     0.627 Goal=   None    Shift=    0.000
 RMSDP=7.24D-06 MaxDP=5.18D-05 DE=-1.30D-06 OVMax= 0.00D+00

 Cycle   8  Pass 1  IDiag  1:
 E= -150.944532121972     Delta-E=       -0.000000005644 Rises=F Damp=F
 DIIS: error= 1.21D-06 at cycle   8 NSaved=   8.
 NSaved= 8 IEnMin= 8 EnMin= -150.944532121972     IErMin= 8 ErrMin= 1.21D-06
 ErrMax= 1.21D-06  0.00D+00 EMaxC= 1.00D-01 BMatC= 4.12D-11 BMatP= 2.09D-09
 IDIUse=1 WtCom= 1.00D+00 WtEn= 0.00D+00
 Coeff-Com: -0.294D-04 0.175D-03 0.166D-02 0.736D-03-0.131D-01 0.331D-01
 Coeff-Com: -0.216D+00 0.119D+01
 Coeff:     -0.294D-04 0.175D-03 0.166D-02 0.736D-03-0.131D-01 0.331D-01
 Coeff:     -0.216D+00 0.119D+01
 Gap=     0.627 Goal=   None    Shift=    0.000
 RMSDP=7.38D-07 MaxDP=4.02D-06 DE=-5.64D-09 OVMax= 0.00D+00

 Cycle   9  Pass 1  IDiag  1:
 E= -150.944532122050     Delta-E=       -0.000000000078 Rises=F Damp=F
 DIIS: error= 8.88D-08 at cycle   9 NSaved=   9.
 NSaved= 9 IEnMin= 9 EnMin= -150.944532122050     IErMin= 9 ErrMin= 8.88D-08
 ErrMax= 8.88D-08  0.00D+00 EMaxC= 1.00D-01 BMatC= 2.68D-13 BMatP= 4.12D-11
 IDIUse=1 WtCom= 1.00D+00 WtEn= 0.00D+00
 Coeff-Com:  0.473D-05-0.264D-04-0.279D-03-0.477D-04 0.197D-02-0.547D-02
 Coeff-Com:  0.449D-01-0.288D+00 0.125D+01
 Coeff:      0.473D-05-0.264D-04-0.279D-03-0.477D-04 0.197D-02-0.547D-02
 Coeff:      0.449D-01-0.288D+00 0.125D+01
 Gap=     0.627 Goal=   None    Shift=    0.000
 RMSDP=6.67D-08 MaxDP=3.64D-07 DE=-7.76D-11 OVMax= 0.00D+00

 Cycle  10  Pass 1  IDiag  1:
 E= -150.944532122050     Delta-E=       -0.000000000000 Rises=F Damp=F
 DIIS: error= 2.55D-08 at cycle  10 NSaved=  10.
 NSaved=10 IEnMin=10 EnMin= -150.944532122050     IErMin=10 ErrMin= 2.55D-08
 ErrMax= 2.55D-08  0.00D+00 EMaxC= 1.00D-01 BMatC= 9.09D-15 BMatP= 2.68D-13
 IDIUse=1 WtCom= 1.00D+00 WtEn= 0.00D+00
 Coeff-Com: -0.154D-05 0.848D-05 0.944D-04 0.403D-06-0.617D-03 0.183D-02
 Coeff-Com: -0.167D-01 0.110D+00-0.557D+00 0.146D+01
 Coeff:     -0.154D-05 0.848D-05 0.944D-04 0.403D-06-0.617D-03 0.183D-02
 Coeff:     -0.167D-01 0.110D+00-0.557D+00 0.146D+01
 Gap=     0.627 Goal=   None    Shift=    0.000
 RMSDP=1.61D-08 MaxDP=1.04D-07 DE=-3.41D-13 OVMax= 0.00D+00

 Cycle  11  Pass 1  IDiag  1:
 E= -150.944532122050     Delta-E=        0.000000000000 Rises=F Damp=F
 DIIS: error= 2.67D-09 at cycle  11 NSaved=  11.
 NSaved=11 IEnMin=10 EnMin= -150.944532122050     IErMin=11 ErrMin= 2.67D-09
 ErrMax= 2.67D-09  0.00D+00 EMaxC= 1.00D-01 BMatC= 1.58D-16 BMatP= 9.09D-15
 IDIUse=1 WtCom= 1.00D+00 WtEn= 0.00D+00
 Coeff-Com:  0.158D-06-0.840D-06-0.107D-04 0.393D-05 0.573D-04-0.204D-03
 Coeff-Com:  0.228D-02-0.153D-01 0.881D-01-0.320D+00 0.124D+01
 Coeff:      0.158D-06-0.840D-06-0.107D-04 0.393D-05 0.573D-04-0.204D-03
 Coeff:      0.228D-02-0.153D-01 0.881D-01-0.320D+00 0.124D+01
 Gap=     0.627 Goal=   None    Shift=    0.000
 RMSDP=1.86D-09 MaxDP=1.05D-08 DE= 2.84D-14 OVMax= 0.00D+00

 SCF Done:  E(RHF) =  -150.944532122     A.U. after   11 cycles
            NFock= 11  Conv=0.19D-08     -V/T= 2.0089
 KE= 1.496089956114D+02 PE=-4.929944755144D+02 EE= 1.232468373552D+02
 Leave Link  502 at Wed Nov 19 18:09:41 2025, MaxMem=   104857600 cpu:               0.1 elap:               0.3
 (Enter /gaussian/g16.c01/intel64-sandybridge/g16/l601.exe)
 Copying SCF densities to generalized density rwf, IOpCl= 0 IROHF=0.

 **********************************************************************

            Population analysis using the SCF Density.

 **********************************************************************

 Orbital symmetries:
       Occupied  (A') (A') (A') (A') (A') (A') (A') (A") (A') (A')
                 (A") (A')
       Virtual   (A") (A') (A') (A") (A') (A') (A')
 The electronic state is 1-A'.
 Alpha  occ. eigenvalues --  -20.28801 -11.12128 -11.05704  -1.32663  -0.96109
 Alpha  occ. eigenvalues --   -0.73912  -0.60786  -0.55687  -0.54271  -0.49780
 Alpha  occ. eigenvalues --   -0.41130  -0.33620
 Alpha virt. eigenvalues --    0.29108   0.61585   0.66152   0.69117   0.70861
 Alpha virt. eigenvalues --    0.76049   0.97174
          Condensed to atoms (all electrons):
               1          2          3          4          5          6
     1  C    4.762149   0.359699  -0.024037   0.377527   0.380840   0.377527
     2  C    0.359699   4.744419   0.443385  -0.020211  -0.020704  -0.020211
     3  O   -0.024037   0.443385   7.816382   0.000271  -0.000939   0.000271
     4  H    0.377527  -0.020211   0.000271   0.610616  -0.018705  -0.020144
     5  H    0.380840  -0.020704  -0.000939  -0.018705   0.600833  -0.018705
     6  H    0.377527  -0.020211   0.000271  -0.020144  -0.018705   0.610616
     7  H   -0.036375   0.366548  -0.024454  -0.000782   0.001573  -0.000782
               7
     1  C   -0.036375
     2  C    0.366548
     3  O   -0.024454
     4  H   -0.000782
     5  H    0.001573
     6  H   -0.000782
     7  H    0.651799
 Mulliken charges:
               1
     1  C   -0.197330
     2  C    0.147075
     3  O   -0.210879
     4  H    0.071428
     5  H    0.075807
     6  H    0.071428
     7  H    0.042472
 Sum of Mulliken charges =  -0.00000
 Mulliken charges with hydrogens summed into heavy atoms:
               1
     1  C    0.021333
     2  C    0.189546
     3  O   -0.210879
 Electronic spatial extent (au):  <R**2>=            165.6611
 Charge=             -0.0000 electrons
 Dipole moment (field-independent basis, Debye):
    X=             -1.8065    Y=             -0.1183    Z=             -0.0000  Tot=              1.8103
 Quadrupole moment (field-independent basis, Debye-Ang):
   XX=            -19.1122   YY=            -16.7585   ZZ=            -16.4399
   XY=             -0.6924   XZ=              0.0000   YZ=              0.0000
 Traceless Quadrupole moment (field-independent basis, Debye-Ang):
   XX=             -1.6753   YY=              0.6784   ZZ=              0.9969
   XY=             -0.6924   XZ=              0.0000   YZ=              0.0000
 Octapole moment (field-independent basis, Debye-Ang**2):
  XXX=              2.5059  YYY=              1.8888  ZZZ=              0.0000  XYY=              1.9594
  XXY=             -0.2233  XXZ=             -0.0000  XZZ=              1.9249  YZZ=              0.7558
  YYZ=             -0.0000  XYZ=             -0.0000
 Hexadecapole moment (field-independent basis, Debye-Ang**3):
 XXXX=           -106.2682 YYYY=            -61.5609 ZZZZ=            -18.5893 XXXY=            -21.7264
 XXXZ=              0.0000 YYYX=            -22.4431 YYYZ=              0.0000 ZZZX=             -0.0000
 ZZZY=             -0.0000 XXYY=            -28.9135 XXZZ=            -18.0627 YYZZ=            -14.2040
 XXYZ=              0.0000 YYXZ=             -0.0000 ZZXY=             -6.2442
 N-N= 6.919411042569D+01 E-N=-4.929944755034D+02  KE= 1.496089956114D+02
 Symmetry A'   KE= 1.440546421509D+02
 Symmetry A"   KE= 5.554353460558D+00
 No NMR shielding tensors so no spin-rotation constants.
 Leave Link  601 at Wed Nov 19 18:09:41 2025, MaxMem=   104857600 cpu:               0.1 elap:               0.1
 (Enter /gaussian/g16.c01/intel64-sandybridge/g16/l701.exe)
 ... and contract with generalized density number  0.
 Compute integral first derivatives.
 Leave Link  701 at Wed Nov 19 18:09:41 2025, MaxMem=   104857600 cpu:               0.0 elap:               0.1
 (Enter /gaussian/g16.c01/intel64-sandybridge/g16/l702.exe)
 L702 exits ... SP integral derivatives will be done elsewhere.
 Leave Link  702 at Wed Nov 19 18:09:41 2025, MaxMem=   104857600 cpu:               0.0 elap:               0.0
 (Enter /gaussian/g16.c01/intel64-sandybridge/g16/l703.exe)
 Integral derivatives from FoFJK, PRISM(SPDF).
 Compute integral first derivatives, UseDBF=F ICtDFT=           0.
 Calling FoFJK, ICntrl=      2127 FMM=F ISym2X=1 I1Cent= 0 IOpClX= 0 NMat=1 NMatS=1 NMatT=0.
 FoFJK:  IHMeth= 1 ICntrl=    2127 DoSepK=F KAlg= 0 I1Cent=           0 FoldK=F
 IRaf=         0 NMat=       1 IRICut=       1 DoRegI=T DoRafI=F ISym2E= 1 IDoP0=0 IntGTp=1.
 FoFCou: FMM=F IPFlag=           0 FMFlag=      100000 FMFlg1=         800
         NFxFlg=           0 DoJE=F BraDBF=F KetDBF=F FulRan=T
         wScrn=  0.000000 ICntrl=      2127 IOpCl=  0 I1Cent=           0 NGrid=           0
         NMat0=    1 NMatS0=      1 NMatT0=    0 NMatD0=    1 NMtDS0=    0 NMtDT0=    0
 Petite list used in FoFCou.
 Leave Link  703 at Wed Nov 19 18:09:42 2025, MaxMem=   104857600 cpu:               0.1 elap:               0.1
 (Enter /gaussian/g16.c01/intel64-sandybridge/g16/l716.exe)
 Dipole        =-7.10715038D-01-4.65425471D-02-4.44089210D-16
 ***** Axes restored to original set *****
 -------------------------------------------------------------------
 Center     Atomic                   Forces (Hartrees/Bohr)
 Number     Number              X              Y              Z
 -------------------------------------------------------------------
      1        6          -0.029021914   -0.005053645    0.000000000
      2        6           0.021664745    0.020554830    0.000000000
      3        8          -0.001050542    0.000094050    0.000000000
      4        1           0.006500162   -0.007384627   -0.010393457
      5        1          -0.003025382    0.012681362   -0.000000000
      6        1           0.006500162   -0.007384627    0.010393457
      7        1          -0.001567232   -0.013507342    0.000000000
 -------------------------------------------------------------------
 Cartesian Forces:  Max     0.029021914 RMS     0.010965916
 Z-matrix is all fixed cartesians, so copy forces.
 Force constants in Cartesian coordinates: 
                1             2             3             4             5 
      1  0.634670D+00
      2 -0.143692D-01  0.673427D+00
      3  0.000000D+00  0.000000D+00  0.608237D+00
      4 -0.286353D+00 -0.689409D-01  0.000000D+00  0.108128D+01
      5 -0.626684D-01 -0.157272D+00  0.000000D+00 -0.307327D+00  0.836779D+00
      6  0.000000D+00  0.000000D+00 -0.698288D-01  0.000000D+00  0.000000D+00
      7 -0.777792D-02  0.197521D-01  0.000000D+00 -0.696783D+00  0.390408D+00
      8 -0.115758D-01  0.293969D-01  0.000000D+00  0.393554D+00 -0.380175D+00
      9  0.000000D+00  0.000000D+00  0.923845D-02  0.000000D+00  0.000000D+00
     10 -0.138203D+00  0.464179D-01  0.109991D+00 -0.406824D-02  0.103313D-01
     11  0.417144D-01 -0.104683D+00 -0.644787D-01 -0.288197D-02  0.731878D-02
     12  0.101627D+00 -0.663780D-01 -0.238903D+00 -0.128918D-02  0.327389D-02
     13 -0.738169D-01 -0.468722D-02  0.000000D+00  0.992962D-02 -0.252163D-01
     14  0.571483D-02 -0.337534D+00  0.000000D+00  0.215261D-03 -0.546656D-03
     15  0.000000D+00  0.000000D+00 -0.789415D-01  0.000000D+00  0.000000D+00
     16 -0.138203D+00  0.464179D-01 -0.109991D+00 -0.406824D-02  0.103313D-01
     17  0.417144D-01 -0.104683D+00  0.644787D-01 -0.288197D-02  0.731878D-02
     18 -0.101627D+00  0.663780D-01 -0.238903D+00  0.128918D-02 -0.327389D-02
     19  0.968323D-02 -0.245906D-01  0.000000D+00 -0.999393D-01 -0.158582D-01
     20 -0.530235D-03  0.134653D-02  0.000000D+00 -0.117375D-01 -0.313423D+00
     21  0.000000D+00  0.000000D+00  0.910101D-02  0.000000D+00  0.000000D+00
                6             7             8             9            10 
      6  0.120548D+00
      7  0.000000D+00  0.686298D+00
      8  0.000000D+00 -0.409160D+00  0.352266D+00
      9 -0.323460D-01  0.000000D+00  0.000000D+00  0.138261D-01
     10  0.188434D-01  0.000000D+00  0.000000D+00  0.536533D-03  0.122526D+00
     11  0.114359D-01  0.000000D+00  0.000000D+00 -0.136253D-02 -0.458779D-01
     12  0.676549D-02  0.000000D+00  0.000000D+00  0.893500D-03 -0.109477D+00
     13  0.000000D+00  0.000000D+00  0.000000D+00  0.000000D+00  0.329532D-02
     14  0.000000D+00  0.000000D+00  0.000000D+00  0.000000D+00  0.714382D-04
     15  0.155022D-02  0.000000D+00  0.000000D+00 -0.172935D-02 -0.477271D-02
     16 -0.188434D-01  0.000000D+00  0.000000D+00 -0.536533D-03  0.164493D-01
     17 -0.114359D-01  0.000000D+00  0.000000D+00  0.136253D-02 -0.109428D-01
     18  0.676549D-02  0.000000D+00  0.000000D+00  0.893500D-03 -0.145936D-01
     19  0.000000D+00  0.182632D-01  0.271810D-01  0.000000D+00  0.000000D+00
     20  0.000000D+00 -0.100006D-02 -0.148838D-02  0.000000D+00  0.000000D+00
     21 -0.334545D-01  0.000000D+00  0.000000D+00  0.922384D-02 -0.527807D-03
               11            12            13            14            15 
     11  0.892098D-01
     12  0.731319D-01  0.235625D+00
     13  0.179883D-01 -0.545473D-02  0.572967D-01
     14  0.389961D-03 -0.118251D-03 -0.607296D-02  0.337300D+00
     15 -0.299764D-01  0.952915D-02  0.000000D+00  0.000000D+00  0.583611D-01
     16 -0.109428D-01  0.145936D-01  0.329532D-02  0.714382D-04  0.477271D-02
     17  0.776413D-02 -0.990948D-02  0.179883D-01  0.389961D-03  0.299764D-01
     18  0.990948D-02 -0.130308D-01  0.545473D-02  0.118251D-03  0.952915D-02
     19  0.000000D+00  0.000000D+00  0.000000D+00  0.000000D+00  0.000000D+00
     20  0.000000D+00  0.000000D+00  0.000000D+00  0.000000D+00  0.000000D+00
     21  0.134037D-02 -0.878969D-03  0.000000D+00  0.000000D+00  0.170123D-02
               16            17            18            19            20 
     16  0.122526D+00
     17 -0.458779D-01  0.892098D-01
     18  0.109477D+00 -0.731319D-01  0.235625D+00
     19  0.000000D+00  0.000000D+00  0.000000D+00  0.719928D-01
     20  0.000000D+00  0.000000D+00  0.000000D+00  0.132678D-01  0.313565D+00
     21  0.527807D-03 -0.134037D-02 -0.878969D-03  0.000000D+00  0.000000D+00
               21 
     21  0.151864D-01
 Leave Link  716 at Wed Nov 19 18:09:42 2025, MaxMem=   104857600 cpu:               0.0 elap:               0.1
 (Enter /gaussian/g16.c01/intel64-sandybridge/g16/l103.exe)

 GradGradGradGradGradGradGradGradGradGradGradGradGradGradGradGradGradGrad
 Berny optimization.
 Search for a local minimum.
 Step number   1 out of a maximum of    2
 All quantities printed in internal units (Hartrees-Bohrs-Radians)
 Second derivative matrix not updated -- first step.
 ITU=  0
     Eigenvalues ---    0.00772   0.04033   0.04105   0.06247   0.09954
     Eigenvalues ---    0.12114   0.14169   0.15439   0.17314   0.28581
     Eigenvalues ---    0.56602   0.77808   0.83820   1.01072   2.12514
 Angle between quadratic step and forces=  52.54 degrees.
 ClnCor:  largest displacement from symmetrization is 2.06D-13 for atom     6.
 Linear search not attempted -- first point.
 ClnCor:  largest displacement from symmetrization is 1.83D-15 for atom     7.
 B after Tr=     0.007293    0.008368   -0.000000
         Rot=    1.000000   -0.000000   -0.000000   -0.000889 Ang=  -0.10 deg.
 Variable       Old X    -DE/DX   Delta X   Delta X   Delta X     New X
                                 (Linear)    (Quad)   (Total)
    X1       -2.21729  -0.02902   0.00000  -0.03149  -0.02369  -2.24098
    Y1       -0.28490  -0.00505   0.00000   0.00227   0.00664  -0.27826
    Z1        0.00000   0.00000   0.00000   0.00000   0.00000   0.00000
    X2        0.43709   0.02166   0.00000   0.03234   0.03825   0.47534
    Y2        0.76033   0.02055   0.00000   0.01701   0.02622   0.78655
    Z2        0.00000   0.00000   0.00000   0.00000  -0.00000  -0.00000
    X3        2.34811  -0.00105   0.00000   0.02605   0.03425   2.38236
    Y3       -0.52370   0.00009   0.00000   0.00937   0.02196  -0.50174
    Z3        0.00000   0.00000   0.00000   0.00000  -0.00000  -0.00000
    X4       -3.24220   0.00650   0.00000  -0.01990  -0.01326  -3.25546
    Y4        0.41152  -0.00738   0.00000  -0.04361  -0.04104   0.37048
    Z4        1.67744  -0.01039   0.00000  -0.02624  -0.02624   1.65121
    X5       -2.17226  -0.00303   0.00000  -0.06246  -0.05103  -2.22329
    Y5       -2.36207   0.01268   0.00000   0.03938   0.04377  -2.31829
    Z5        0.00000  -0.00000   0.00000   0.00000   0.00000   0.00000
    X6       -3.24220   0.00650   0.00000  -0.01990  -0.01326  -3.25546
    Y6        0.41152  -0.00738   0.00000  -0.04361  -0.04104   0.37048
    Z6       -1.67744   0.01039   0.00000   0.02624   0.02624  -1.65121
    X7        0.55295  -0.00157   0.00000   0.02651   0.02874   0.58169
    Y7        2.87617  -0.01351   0.00000  -0.02592  -0.01652   2.85965
    Z7        0.00000   0.00000   0.00000   0.00000  -0.00000  -0.00000
         Item               Value     Threshold  Converged?
 Maximum Force            0.029022     0.000450     NO 
 RMS     Force            0.010966     0.000300     NO 
 Maximum Displacement     0.051032     0.001800     NO 
 RMS     Displacement     0.026839     0.001200     NO 
 Predicted change in Energy=-1.926928D-03
 GradGradGradGradGradGradGradGradGradGradGradGradGradGradGradGradGradGrad

 Leave Link  103 at Wed Nov 19 18:09:42 2025, MaxMem=   104857600 cpu:               0.0 elap:               0.1
 (Enter /gaussian/g16.c01/intel64-sandybridge/g16/l9999.exe)
 Unable to Open any file for archive entry.
 1\1\GINC-THIOTIMOLINE-LARGE01\Force\RHF\STO-3G\C2H4O1\LCRISCI_VB\19-No
 v-2025\0\\#p force hf/sto-3g\\title\\0,1\C,-1.17333896,-0.15076314,0.\
 C,0.23129705,0.40235083,0.\O,1.24256504,-0.27713019,0.\H,-1.71570095,0
 .21776766,0.88766494\H,-1.14950998,-1.24995315,0.\H,-1.71570095,0.2177
 6766,-0.88766494\H,0.29260707,1.52200483,0.\\Version=ES64L-G16RevC.01\
 State=1-A'\HF=-150.9445321\RMSD=1.859e-09\RMSF=1.097e-02\Dipole=-0.639
 3536,0.3138614,0.\Quadrupole=-1.2557223,0.5145225,0.7411998,0.4970575,
 0.,0.\PG=CS [SG(C2H2O1),X(H2)]\\@
 The archive entry for this job was punched.


            ARSENIC

 FOR SMELTER FUMES HAVE I BEEN NAMED,
    I AM AN EVIL POISONOUS SMOKE...
 BUT WHEN FROM POISON I AM FREED,
    THROUGH ART AND SLEIGHT OF HAND,
 THEN CAN I CURE BOTH MAN AND BEAST,
    FROM DIRE DISEASE OFTTIMES DIRECT THEM;
 BUT PREPARE ME CORRECTLY, AND TAKE GREAT CARE
    THAT YOU FAITHFULLY KEEP WATCHFUL GUARD OVER ME;
 FOR ELSE I AM POISON, AND POISON REMAIN,
    THAT PIERCES THE HEART OF MANY A ONE.

 ATTRIBUTED TO THE PROBABLY MYTHICAL 15TH
 CENTURY MONK, BASILIUS VALENTINUS
 Job cpu time:       0 days  0 hours  0 minutes  0.8 seconds.
 Elapsed time:       0 days  0 hours  0 minutes  1.7 seconds.
 File lengths (MBytes):  RWF=      5 Int=      0 D2E=      0 Chk=      1 Scr=      1
 Normal termination of Gaussian 16 at Wed Nov 19 18:09:42 2025.
