External Calculation                                                    
SP        RHF                                                         STO-3G              
Number of atoms                            I                6
Info1-9                                    I   N=           9
          20          15           0           0           0         110
           1           1           2
Full Title                                 C   N=           2
External Calculation    
Route                                      C   N=           2
#P hf/sto-3g scf=xqc    
Charge                                     I                0
Multiplicity                               I                1
Number of electrons                        I               38
Number of alpha electrons                  I               19
Number of beta electrons                   I               19
Number of basis functions                  I               26
Number of independent functions            I               26
Number of point charges in /Mol/           I                0
Number of translation vectors              I                0
Atomic numbers                             I   N=           6
           6           1           6           1          17           7
Nuclear charges                            R   N=           6
  6.00000000E+00  1.00000000E+00  6.00000000E+00  1.00000000E+00  1.70000000E+01
  7.00000000E+00
Current cartesian coordinates              R   N=          18
 -5.42101086E-20  1.70321166E+00  0.00000000E+00 -5.08569654E-01  3.66021677E+00
  0.00000000E+00  2.46778938E+00  1.01195244E+00  0.00000000E+00  3.90923832E+00
  2.42803385E+00  0.00000000E+00 -2.37408979E+00 -6.26043172E-01  0.00000000E+00
  3.16458878E+00 -1.67664304E+00  0.00000000E+00
Number of symbols in /Mol/                 I                0
Int Atom Types                             I   N=           6
           0           0           0           0           0           0
Force Field                                I                0
Atom Types                                 C   N=           6
                                                            
            
MM charges                                 R   N=           6
  0.00000000E+00  0.00000000E+00  0.00000000E+00  0.00000000E+00  0.00000000E+00
  0.00000000E+00
Integer atomic weights                     I   N=           6
          12           1          12           1          35          14
Real atomic weights                        R   N=           6
  1.20000000E+01  1.00782504E+00  1.20000000E+01  1.00782504E+00  3.49688527E+01
  1.40030740E+01
Atom fragment info                         I   N=           6
           0           0           0           0           0           0
Atom residue num                           I   N=           6
           0           0           0           0           0           0
Nuclear spins                              I   N=           6
           0           1           0           1           3           2
Nuclear ZEff                               R   N=           6
 -3.60000000E+00 -1.00000000E+00 -3.60000000E+00 -1.00000000E+00 -1.42400000E+01
 -4.55000000E+00
Nuclear ZNuc                               R   N=           6
  6.00000000E+00  1.00000000E+00  6.00000000E+00  1.00000000E+00  1.70000000E+01
  7.00000000E+00
Nuclear QMom                               R   N=           6
  0.00000000E+00  0.00000000E+00  0.00000000E+00  0.00000000E+00 -8.16500000E+00
  2.04400000E+00
Nuclear GFac                               R   N=           6
  0.00000000E+00  2.79284600E+00  0.00000000E+00  2.79284600E+00  8.21874000E-01
  4.03761000E-01
MicOpt                                     I   N=           6
          -1          -1          -1          -1          -1          -1
Number of residues                         I                0
Number of secondary structures             I                0
SymInf integers                            I   N=          26
           1           2           1           1           1           1
           1          -1           0           0           0           0
           0           0           0           0           0           0
           0           0           0           0           0           0
           0           0
RotTr to input orientation                 R   N=          12
  9.99999985E-01  1.75185396E-04  0.00000000E+00 -1.75185396E-04  9.99999985E-01
  0.00000000E+00  0.00000000E+00  0.00000000E+00  1.00000000E+00  2.98377809E-04
  2.89405926E-13  0.00000000E+00
Number of contracted shells                I               11
Number of primitive shells                 I               33
Pure/Cartesian d shells                    I                0
Pure/Cartesian f shells                    I                0
Highest angular momentum                   I                1
Largest degree of contraction              I                3
Shell types                                I   N=          11
           0          -1           0           0          -1           0
           0          -1          -1           0          -1
Number of primitives per shell             I   N=          11
           3           3           3           3           3           3
           3           3           3           3           3
Shell to atom map                          I   N=          11
           1           1           2           3           3           4
           5           5           5           6           6
Primitive exponents                        R   N=          33
  7.16168373E+01  1.30450963E+01  3.53051216E+00  2.94124936E+00  6.83483096E-01
  2.22289916E-01  3.42525091E+00  6.23913730E-01  1.68855404E-01  7.16168373E+01
  1.30450963E+01  3.53051216E+00  2.94124936E+00  6.83483096E-01  2.22289916E-01
  3.42525091E+00  6.23913730E-01  1.68855404E-01  6.01345614E+02  1.09535854E+02
  2.96446769E+01  3.89604189E+01  9.05356348E+00  2.94449983E+00  2.12938650E+00
  5.94093427E-01  2.32524141E-01  9.91061690E+01  1.80523124E+01  4.88566024E+00
  3.78045588E+00  8.78496645E-01  2.85714374E-01
Contraction coefficients                   R   N=          33
  1.54328967E-01  5.35328142E-01  4.44634542E-01 -9.99672292E-02  3.99512826E-01
  7.00115469E-01  1.54328967E-01  5.35328142E-01  4.44634542E-01  1.54328967E-01
  5.35328142E-01  4.44634542E-01 -9.99672292E-02  3.99512826E-01  7.00115469E-01
  1.54328967E-01  5.35328142E-01  4.44634542E-01  1.54328967E-01  5.35328142E-01
  4.44634542E-01 -9.99672292E-02  3.99512826E-01  7.00115469E-01 -2.19620369E-01
  2.25595434E-01  9.00398426E-01  1.54328967E-01  5.35328142E-01  4.44634542E-01
 -9.99672292E-02  3.99512826E-01  7.00115469E-01
P(S=P) Contraction coefficients            R   N=          33
  0.00000000E+00  0.00000000E+00  0.00000000E+00  1.55916275E-01  6.07683719E-01
  3.91957393E-01  0.00000000E+00  0.00000000E+00  0.00000000E+00  0.00000000E+00
  0.00000000E+00  0.00000000E+00  1.55916275E-01  6.07683719E-01  3.91957393E-01
  0.00000000E+00  0.00000000E+00  0.00000000E+00  0.00000000E+00  0.00000000E+00
  0.00000000E+00  1.55916275E-01  6.07683719E-01  3.91957393E-01  1.05876043E-02
  5.95167005E-01  4.62001012E-01  0.00000000E+00  0.00000000E+00  0.00000000E+00
  1.55916275E-01  6.07683719E-01  3.91957393E-01
Coordinates of each shell                  R   N=          33
  0.00000000E+00  1.70321166E+00  0.00000000E+00  0.00000000E+00  1.70321166E+00
  0.00000000E+00 -5.08569654E-01  3.66021677E+00  0.00000000E+00  2.46778938E+00
  1.01195244E+00  0.00000000E+00  2.46778938E+00  1.01195244E+00  0.00000000E+00
  3.90923832E+00  2.42803385E+00  0.00000000E+00 -2.37408979E+00 -6.26043172E-01
  0.00000000E+00 -2.37408979E+00 -6.26043172E-01  0.00000000E+00 -2.37408979E+00
 -6.26043172E-01  0.00000000E+00  3.16458878E+00 -1.67664304E+00  0.00000000E+00
  3.16458878E+00 -1.67664304E+00  0.00000000E+00
Num ILSW                                   I              100
ILSW                                       I   N=         100
           0           0           0           0           2           0
           0           0           0           0           0          -1
           5           0           0           0           0           0
           0           0           0           0           0           0
           1           0           0           0           0           0
           0           0      100000           0          -1           0
           0           0           0           0           0           0
           0           0           0           1           0           0
           0 -2000000000           1           0           0           0
           0           0           4          52           0           0
           0           0           0           0           0           0
           0           0           0           6           0           1
           0           0           0           0           0           0
           0           0           0           0           0           0
           0           0           0           0           0           0
           0           0           0           0           0           0
           0           0           0           0
Num RLSW                                   I               52
RLSW                                       R   N=          52
  1.00000000E+00  1.00000000E+00  1.00000000E+00  1.00000000E+00  1.00000000E+00
  0.00000000E+00  0.00000000E+00  1.00000000E+00  0.00000000E+00  0.00000000E+00
  0.00000000E+00  0.00000000E+00  1.00000000E+00  0.00000000E+00  0.00000000E+00
  0.00000000E+00  0.00000000E+00  1.00000000E+00  0.00000000E+00  0.00000000E+00
  0.00000000E+00  0.00000000E+00  1.00000000E+00  0.00000000E+00  0.00000000E+00
  0.00000000E+00  0.00000000E+00  1.00000000E+00  0.00000000E+00  0.00000000E+00
  0.00000000E+00  0.00000000E+00  1.00000000E+00  0.00000000E+00  0.00000000E+00
  0.00000000E+00  0.00000000E+00  0.00000000E+00  1.00000000E+00  1.00000000E+00
  0.00000000E+00  1.00000000E+00  0.00000000E+00  0.00000000E+00  0.00000000E+00
  0.00000000E+00  0.00000000E+00  0.00000000E+00  0.00000000E+00  0.00000000E+00
  0.00000000E+00  0.00000000E+00
MxBond                                     I                3
NBond                                      I   N=           6
           3           1           3           1           1           1
IBond                                      I   N=          18
           2           3           5           1           0           0
           1           4           6           3           0           0
           1           0           0           3           0           0
RBond                                      R   N=          18
  1.00000000E+00  2.00000000E+00  1.00000000E+00  1.00000000E+00  0.00000000E+00
  0.00000000E+00  2.00000000E+00  1.00000000E+00  1.00000000E+00  1.00000000E+00
  0.00000000E+00  0.00000000E+00  1.00000000E+00  0.00000000E+00  0.00000000E+00
  1.00000000E+00  0.00000000E+00  0.00000000E+00
Virial Ratio                               R      2.015643233663896E+00
SCF Energy                                 R     -5.840961880740264E+02
Total Energy                               R     -5.840961880740264E+02
RMS Density                                R      8.483674207773017E-09
Job Status                                 I                1
Nuclear derivative order                   I                0
External E-field                           R   N=          35
  0.00000000E+00  0.00000000E+00  0.00000000E+00  0.00000000E+00  0.00000000E+00
  0.00000000E+00  0.00000000E+00  0.00000000E+00  0.00000000E+00  0.00000000E+00
  0.00000000E+00  0.00000000E+00  0.00000000E+00  0.00000000E+00  0.00000000E+00
  0.00000000E+00  0.00000000E+00  0.00000000E+00  0.00000000E+00  0.00000000E+00
  0.00000000E+00  0.00000000E+00  0.00000000E+00  0.00000000E+00  0.00000000E+00
  0.00000000E+00  0.00000000E+00  0.00000000E+00  0.00000000E+00  0.00000000E+00
  0.00000000E+00  0.00000000E+00  0.00000000E+00  0.00000000E+00  0.00000000E+00
IOpCl                                      I                0
IROHF                                      I                0
Alpha Orbital Energies                     R   N=          26
 -1.03742219E+02 -1.53169876E+01 -1.11553562E+01 -1.10753692E+01 -1.04208439E+01
 -7.86514497E+00 -7.85951578E+00 -7.85911092E+00 -1.12498979E+00 -1.02815552E+00
 -9.03655439E-01 -7.13969542E-01 -6.50187549E-01 -5.25632009E-01 -4.77980498E-01
 -4.32195157E-01 -4.11024336E-01 -3.54087672E-01 -3.11107587E-01  1.44990015E-01
  3.35134893E-01  3.47598608E-01  5.94201242E-01  6.48046710E-01  8.43533696E-01
  8.95383205E-01
Alpha MO coefficients                      R   N=         676
 -5.22448737E-05  3.69614324E-04 -2.47827552E-04 -2.51078549E-04  0.00000000E+00
  7.38888569E-06 -9.15146094E-07 -8.36080960E-06  4.75124554E-06  1.80431175E-05
  0.00000000E+00  2.84111495E-06  9.94506597E-01  1.57345639E-02  8.07686596E-05
  8.23884850E-05  0.00000000E+00 -1.80114342E-03 -1.69429341E-04 -1.66134597E-04
  0.00000000E+00 -3.03122709E-06  1.58564721E-05 -2.00881127E-05  1.73042861E-06
  0.00000000E+00  1.13469192E-07  2.08137695E-04 -4.04022764E-05 -3.10168064E-04
  0.00000000E+00 -1.48242409E-05  5.28268822E-04 -5.34797821E-03 -1.10531996E-03
  4.62565058E-03  0.00000000E+00  8.89956696E-06 -6.73736749E-06  2.25507195E-05
  4.57822376E-05 -1.06110336E-05  0.00000000E+00 -1.87607861E-04 -2.45170809E-04
  4.01802502E-05  0.00000000E+00  9.94406657E-01  2.42337277E-02 -1.09620618E-03
  4.23592471E-03  0.00000000E+00  9.92482604E-01  3.40680002E-02  1.44510360E-03
  3.54664235E-05  0.00000000E+00 -6.81678580E-03  4.09831156E-03 -7.16446704E-03
  4.18990885E-03 -1.16127846E-03  0.00000000E+00  8.37099463E-05  1.47923579E-04
 -4.97822171E-04  3.18101050E-04  3.02657213E-04  0.00000000E+00 -4.33503563E-03
 -3.06258635E-03 -2.92956371E-03  0.00000000E+00  1.13742147E-05  1.47497398E-04
  5.34925276E-05  9.59954286E-05  0.00000000E+00 -3.43486861E-03 -7.83324842E-03
 -4.56282166E-03  1.25830108E-03  0.00000000E+00  1.29894381E-04  9.92321456E-01
  3.51162907E-02 -1.78100631E-03  9.96848239E-04  0.00000000E+00 -6.98356791E-03
  1.79118397E-05 -3.29441920E-05  2.09795536E-05 -1.18482270E-05  0.00000000E+00
  3.96973706E-05 -5.58249830E-05  1.21130775E-04  0.00000000E+00  4.93125923E-04
 -5.09156005E-03  9.22953697E-04 -3.13549648E-03  0.00000000E+00  1.74526450E-03
 -7.67227519E-03  4.76029915E-03  4.77345229E-03  0.00000000E+00 -1.46980946E-04
  1.17636936E-04  1.43559844E-04 -2.77646500E-06 -1.60254549E-04  0.00000000E+00
 -1.00723388E-04 -3.77075388E-01  1.05361731E+00  7.02711100E-03  7.57139883E-03
  0.00000000E+00  4.42412926E-02  3.98842117E-03  3.97438916E-03  0.00000000E+00
  8.38801008E-05 -3.13061232E-04  4.44893133E-04 -1.38448728E-06  0.00000000E+00
  1.34691199E-03 -1.08710985E-02  6.42768182E-03  6.41497966E-03  0.00000000E+00
  9.37430580E-06  4.31054249E-05  2.55413027E-04 -1.30886131E-04 -3.15632571E-04
  0.00000000E+00 -7.83563084E-05  4.59922201E-03 -1.30773596E-02  7.00848312E-01
  6.97140314E-01  0.00000000E+00  5.80656374E-03  3.31367472E-02  3.29016767E-02
  0.00000000E+00  6.05923801E-05 -2.78644069E-04  3.20480621E-04 -6.43551135E-05
  0.00000000E+00  0.00000000E+00  0.00000000E+00  0.00000000E+00  0.00000000E+00
 -3.11253587E-03  0.00000000E+00  0.00000000E+00  0.00000000E+00  0.00000000E+00
  0.00000000E+00  2.52367575E-04  0.00000000E+00  0.00000000E+00  0.00000000E+00
  0.00000000E+00  0.00000000E+00  9.90162402E-01  0.00000000E+00  0.00000000E+00
  0.00000000E+00  3.92626996E-02  0.00000000E+00  0.00000000E+00  0.00000000E+00
  0.00000000E+00 -1.15568680E-04 -2.48280057E-05  2.29600374E-04  2.60411726E-03
 -2.45329177E-03  0.00000000E+00  5.27131574E-04 -5.54925827E-05 -7.86421943E-04
  2.74472865E-04 -6.36621309E-04  0.00000000E+00  2.31108340E-04  1.56800611E-04
 -4.43749087E-04 -6.98296806E-01  7.02023802E-01  0.00000000E+00 -4.77442608E-06
 -2.76697158E-02  2.77805539E-02  0.00000000E+00 -1.03971260E-04  3.44246069E-04
 -6.70222349E-04 -1.20252457E-04  0.00000000E+00 -1.45024204E-01  3.87090188E-01
  2.68359392E-02 -5.83244649E-02  0.00000000E+00  7.69080720E-02 -1.22282767E-01
  3.13571221E-01 -6.90949074E-02 -2.27654574E-02  0.00000000E+00  5.73657050E-02
  4.86367963E-02 -1.62125067E-01 -2.85633763E-02 -2.61961603E-02  0.00000000E+00
  5.24506645E-01  8.25755472E-02  7.69226084E-02  0.00000000E+00 -7.80164116E-02
  2.66491008E-01 -2.94137138E-02  7.01620117E-02  0.00000000E+00 -1.07869167E-02
  2.71418553E-02 -1.41757430E-01 -1.99892272E-02  0.00000000E+00  1.48636091E-02
  1.21851677E-01 -3.30750951E-01 -2.70552653E-02  7.95153636E-02  0.00000000E+00
 -7.92420025E-02  5.59902746E-02 -1.85187330E-01 -1.19500536E-02 -2.02653714E-02
  0.00000000E+00  6.31555106E-01  3.63831401E-02  6.32394219E-02  0.00000000E+00
  1.40476903E-01 -4.97929467E-01  2.25020214E-02 -1.07148562E-01  0.00000000E+00
  1.42545705E-01 -4.25567383E-01 -1.28488645E-01 -9.69343120E-02  0.00000000E+00
 -1.70011001E-01  5.69858006E-02 -1.47405362E-01  1.52570950E-01 -2.04358698E-01
  0.00000000E+00 -6.72899948E-02  3.59840359E-02 -1.17421004E-01  9.02014524E-03
  1.07976299E-02  0.00000000E+00  4.33786343E-01 -2.47261553E-02 -3.14979708E-02
  0.00000000E+00 -1.42682971E-01  5.36669317E-01 -4.32996098E-03  4.44355393E-02
  0.00000000E+00 -9.08244023E-02  3.15288727E-01 -2.44856918E-01  1.95386382E-01
  0.00000000E+00  3.02523206E-01  1.20980679E-01 -3.77481522E-01 -8.97181176E-02
 -1.77044472E-01  0.00000000E+00 -2.81362886E-01 -2.13094147E-02  6.78436948E-02
 -2.36682970E-02 -4.88508498E-02  0.00000000E+00 -2.83682795E-01  7.52438557E-02
  1.57964929E-01  0.00000000E+00 -9.47779254E-02  3.93309215E-01 -6.54018863E-03
 -7.81302699E-02  0.00000000E+00  3.06332693E-02 -9.99485794E-02 -2.16450027E-01
  3.78154660E-01  0.00000000E+00  2.69360219E-01 -7.75625387E-03  4.38205703E-02
  3.87986746E-01  1.58766482E-01  0.00000000E+00  2.98020823E-01  1.14239835E-02
 -3.60287362E-02  6.66375547E-02 -6.03988333E-03  0.00000000E+00  1.57665158E-01
 -2.26305312E-01  2.61034812E-02  0.00000000E+00 -1.94118018E-02  8.31022299E-02
  1.61169704E-01  1.85588166E-02  0.00000000E+00 -7.92644477E-03  6.64591592E-02
 -3.62811994E-01 -2.75242935E-01  0.00000000E+00 -1.39209243E-01 -1.53638067E-02
  7.44325438E-02  2.59396063E-01 -4.91227669E-02  0.00000000E+00  1.74850453E-01
 -1.96266948E-02  6.01126166E-02 -1.12605595E-01 -1.40729009E-01  0.00000000E+00
 -2.96110187E-01  3.85949818E-01  4.88770796E-01  0.00000000E+00  4.23734028E-02
 -1.98172868E-01  6.80077818E-02  1.57385539E-01  0.00000000E+00  0.00000000E+00
  0.00000000E+00  0.00000000E+00  0.00000000E+00  4.16790756E-01  0.00000000E+00
  0.00000000E+00  0.00000000E+00  0.00000000E+00  0.00000000E+00  2.96018162E-01
  0.00000000E+00  0.00000000E+00  0.00000000E+00  0.00000000E+00  0.00000000E+00
 -2.14031864E-01  0.00000000E+00  0.00000000E+00  0.00000000E+00  7.84801187E-01
  0.00000000E+00  0.00000000E+00  0.00000000E+00  0.00000000E+00  6.94680964E-02
  1.25617179E-02 -5.25274046E-02 -1.37201956E-02  1.01076238E-01  0.00000000E+00
  8.16381897E-02 -5.12180006E-02  2.15786176E-01 -1.08733756E-02 -4.01809162E-01
  0.00000000E+00 -1.99970248E-01  1.88124417E-03 -5.50165467E-03  1.32065960E-01
 -5.81035918E-02  0.00000000E+00  3.20431364E-02 -4.84556590E-01  2.20397519E-01
  0.00000000E+00  8.23943658E-02 -4.13518855E-01 -1.59642795E-01  5.08878411E-01
  0.00000000E+00 -8.53920739E-03  2.77693945E-02  1.14610415E-01 -1.30396671E-01
  0.00000000E+00 -2.08289131E-01  4.18478480E-03 -3.22238354E-02 -1.56059649E-01
  2.17000484E-01  0.00000000E+00  1.89468906E-02 -1.07827546E-03  3.45470154E-03
  1.51848190E-01 -1.79104689E-01  0.00000000E+00 -1.43299255E-02 -5.68319317E-01
  6.67307800E-01  0.00000000E+00 -4.76058227E-02  2.35219745E-01  9.91126424E-02
 -2.85030198E-01  0.00000000E+00  0.00000000E+00  0.00000000E+00  0.00000000E+00
  0.00000000E+00 -4.31238641E-01  0.00000000E+00  0.00000000E+00  0.00000000E+00
  0.00000000E+00  0.00000000E+00 -5.76006284E-01  0.00000000E+00  0.00000000E+00
  0.00000000E+00  0.00000000E+00  0.00000000E+00 -1.69239352E-01  0.00000000E+00
  0.00000000E+00  0.00000000E+00  6.38599792E-01  0.00000000E+00  0.00000000E+00
  0.00000000E+00  0.00000000E+00 -1.65411301E-01 -3.20552212E-02  1.39030873E-01
  1.39481684E-01 -5.64411121E-02  0.00000000E+00 -4.78212942E-02  3.52234399E-03
 -2.26819439E-02 -5.07398841E-02 -3.77376882E-02  0.00000000E+00 -2.04985525E-01
  9.67349709E-04 -3.31441804E-03 -1.88633181E-03  2.17446932E-02  0.00000000E+00
  9.56543050E-03  4.12682419E-03 -8.02695864E-02  0.00000000E+00  1.16699432E-03
 -5.69461395E-03  9.42134166E-01  2.45965509E-01  0.00000000E+00  0.00000000E+00
  0.00000000E+00  0.00000000E+00  0.00000000E+00 -6.70998062E-01  0.00000000E+00
  0.00000000E+00  0.00000000E+00  0.00000000E+00  0.00000000E+00  3.70318493E-01
  0.00000000E+00  0.00000000E+00  0.00000000E+00  0.00000000E+00  0.00000000E+00
 -4.72564894E-02  0.00000000E+00  0.00000000E+00  0.00000000E+00  1.90226928E-01
  0.00000000E+00  0.00000000E+00  0.00000000E+00  0.00000000E+00  6.76417752E-01
 -1.44049003E-01  7.79954238E-01 -5.73321198E-01 -5.06739262E-01  0.00000000E+00
 -1.83275948E-01  1.83870373E-02 -9.53501430E-02  8.63691670E-02 -1.55789319E-01
  0.00000000E+00  2.14407932E-01 -2.34496389E-02  6.57452138E-02  1.52432533E-01
  1.51247471E-01  0.00000000E+00 -4.41893324E-01 -6.44812375E-01 -6.39417758E-01
  0.00000000E+00  1.30466156E-02 -7.73654778E-02  3.10490566E-02 -1.65533512E-01
  0.00000000E+00  0.00000000E+00  0.00000000E+00  0.00000000E+00  0.00000000E+00
  5.13132618E-01  0.00000000E+00  0.00000000E+00  0.00000000E+00  0.00000000E+00
  0.00000000E+00 -7.25402810E-01  0.00000000E+00  0.00000000E+00  0.00000000E+00
  0.00000000E+00  0.00000000E+00  2.72701098E-02  0.00000000E+00  0.00000000E+00
  0.00000000E+00 -1.12342473E-01  0.00000000E+00  0.00000000E+00  0.00000000E+00
  0.00000000E+00  7.31803309E-01  1.23280186E-01 -7.88968124E-01  9.35856250E-02
 -5.53990118E-01  0.00000000E+00  9.85703196E-01 -8.38443898E-02  4.52389629E-01
 -8.72031419E-02 -5.44763721E-01  0.00000000E+00  1.52461416E-01  1.07415199E-03
 -3.44394400E-03  3.28258786E-03 -1.82605401E-02  0.00000000E+00  1.53147681E-02
 -1.47238063E-02  7.74833629E-02  0.00000000E+00  6.27351724E-02 -3.87383328E-01
  2.08747752E-01 -5.74874472E-01  0.00000000E+00 -8.29131724E-03  8.68086313E-02
 -2.93337980E-01  3.91372520E-01  0.00000000E+00 -4.29463114E-01 -1.91224128E-01
  1.19773484E+00  4.47596490E-01  2.55288787E-05  0.00000000E+00 -9.51711123E-01
  7.26768267E-04 -1.87474476E-03 -1.36022819E-02  8.04230954E-03  0.00000000E+00
  1.58684985E-02  5.99945959E-02 -3.34892165E-02  0.00000000E+00  5.64797201E-02
 -3.47495458E-01  4.61893024E-02 -5.57580745E-01  0.00000000E+00  8.64854984E-02
 -6.29169870E-01 -4.36559877E-01 -6.22271092E-01  0.00000000E+00  6.26105175E-01
 -6.20226953E-02  4.77994111E-01 -9.33733824E-02  1.02236116E+00  0.00000000E+00
 -7.00601219E-01 -5.34554432E-03  1.31740155E-02  2.66251114E-02  2.75493885E-02
  0.00000000E+00 -1.24168081E-01 -1.25412531E-01 -1.28378649E-01  0.00000000E+00
 -4.98510991E-02  3.36641189E-01 -1.18078879E-01  4.19171682E-01  0.00000000E+00
 -9.73512241E-02  7.31243177E-01  9.31484140E-01 -5.29570314E-01  0.00000000E+00
  2.87291524E-01  8.83148461E-02 -6.51346146E-01  1.18212776E+00  4.56634726E-02
  0.00000000E+00 -4.21944144E-01 -7.64615900E-04  1.90341294E-03  1.99357165E-02
 -1.20361533E-02  0.00000000E+00 -1.78297725E-02 -9.12757062E-02  5.19060361E-02
  0.00000000E+00 -4.62288890E-03  3.26565954E-02 -1.78288629E-01 -1.07278716E-03
  0.00000000E+00
Orthonormal basis                          R   N=         676
  1.11301812E-01  3.52276215E-01  1.42177892E-01  5.76136488E-03  0.00000000E+00
  2.13982083E-01  1.16499788E-01  3.65131428E-01 -1.08931880E-01  6.97091861E-02
  0.00000000E+00  2.22474714E-01  7.63805258E-03  2.13402811E-02  1.93863235E-02
  1.37564413E-02  0.00000000E+00  8.00191805E-02  8.77829686E-02  6.20773768E-02
  0.00000000E+00  2.57120744E-02  1.00853434E-01 -4.62235381E-02  1.03828208E-01
  0.00000000E+00  1.15227983E-01  2.55763228E-01 -2.09117461E-01  1.29401742E-01
  0.00000000E+00  2.85594537E-01 -1.13037305E-01 -2.51281434E-01 -2.30048015E-01
  1.20576009E-01  0.00000000E+00 -2.20355554E-01  2.74964437E-02  5.72056348E-02
  2.24916856E-02  4.77883302E-02  0.00000000E+00  1.29260889E-01  6.84471665E-02
  1.50364948E-01  0.00000000E+00 -7.69429694E-02 -2.07170681E-01 -2.59358689E-04
 -1.91874147E-01  0.00000000E+00 -2.94317454E-02 -7.61804869E-02  9.84448019E-02
  3.72050613E-01  0.00000000E+00  1.57062465E-01  2.63003169E-03 -5.67080153E-03
  1.81982649E-01  3.69721490E-01  0.00000000E+00  2.40994263E-01 -4.88133507E-02
 -9.56294097E-02 -6.67153877E-02 -3.26205360E-02  0.00000000E+00 -1.89326011E-01
 -1.93234375E-01 -8.92569346E-02  0.00000000E+00 -6.98050755E-02 -1.72702883E-01
  1.25690288E-01 -1.02142527E-01  0.00000000E+00 -3.19830886E-02 -1.18476317E-02
 -4.30334826E-01  1.15598440E-01  0.00000000E+00  1.55156749E-01 -2.54948708E-02
 -5.79736700E-03  4.39207393E-01 -1.09801790E-01  0.00000000E+00  1.69788315E-01
  1.34898933E-01  1.87047918E-01 -8.17422048E-03  1.01974268E-01  0.00000000E+00
  1.79969856E-01 -2.30427172E-02  2.02649249E-01  0.00000000E+00  9.34063053E-02
  1.64597425E-01  1.28979443E-01  1.30960507E-01  0.00000000E+00 -3.81544529E-02
 -4.65450554E-02  8.14109642E-02 -2.15225411E-01  0.00000000E+00 -2.15320180E-01
  3.06655096E-02  2.18482773E-02  1.47786164E-04  2.72459378E-01  0.00000000E+00
  1.65367775E-01  3.82515416E-01  4.48456782E-01  2.07729134E-02 -4.56493535E-02
  0.00000000E+00  2.35862662E-01  3.17712286E-02 -7.98996299E-02  0.00000000E+00
 -1.53593732E-01 -2.30508320E-01  3.39793341E-02 -1.07249667E-01  0.00000000E+00
 -5.13559884E-03  6.78440892E-03 -1.47256363E-01 -2.80779024E-01  0.00000000E+00
 -1.88671066E-01  1.28217936E-02  1.11018403E-02  1.34286296E-01  2.05749195E-01
  0.00000000E+00  2.09642958E-01 -2.93795280E-01 -2.84199147E-01  2.34301074E-01
  2.03473431E-01  0.00000000E+00 -1.49792873E-02  3.13828197E-01  2.72934497E-01
  0.00000000E+00 -1.61547537E-01 -2.02834886E-01  7.72624284E-02 -4.75592624E-02
  0.00000000E+00  3.37013046E-03  7.21166136E-03 -8.68139827E-02  9.36620737E-02
  0.00000000E+00  1.15814592E-01 -8.28336225E-02 -5.24835252E-02  1.07076534E-01
  4.76359908E-04  0.00000000E+00  2.98006006E-02  3.62743875E-04  2.06531311E-04
  4.61905915E-01 -4.42744417E-01  0.00000000E+00 -9.37560250E-04  4.24396646E-01
 -4.07105321E-01  0.00000000E+00  8.51365971E-02  7.82128574E-02  4.69456038E-02
 -4.59033952E-02  0.00000000E+00 -1.53935581E-02 -2.29425528E-02  1.14528628E-01
 -2.79473279E-02  0.00000000E+00 -8.31453845E-02 -9.13305045E-02 -4.16451186E-02
 -7.56079622E-02  1.96295628E-01  0.00000000E+00  4.90273897E-02  1.06224225E-01
  4.84182651E-02  9.95495423E-02  2.24513218E-01  0.00000000E+00 -1.21544724E-01
  6.23967213E-02  1.38935548E-01  0.00000000E+00  5.46078372E-01  3.58413621E-01
  1.06967072E-01 -5.00821392E-01  0.00000000E+00  1.47225587E-01  8.57300516E-02
 -1.44830335E-01 -2.09421894E-01  0.00000000E+00 -8.77021402E-02 -6.34617481E-02
 -1.56101806E-02  4.04737235E-02  1.19512388E-01  0.00000000E+00  1.11613343E-01
 -3.66452221E-01 -1.33162847E-01 -3.76144121E-01 -3.45889796E-01  0.00000000E+00
  4.61284146E-01 -1.85718473E-01 -1.70719751E-01  0.00000000E+00  1.48015136E-01
  8.27869708E-02  8.15988779E-02 -2.15603597E-01  0.00000000E+00  6.76745022E-01
  5.25405175E-02  1.00783593E-01 -7.02488335E-02  0.00000000E+00 -1.35555320E-01
 -2.79167644E-01 -3.03518367E-02  2.07605018E-02 -3.85897911E-02  0.00000000E+00
 -4.74522194E-02  1.25747659E-01  5.93590791E-03 -3.41003872E-02 -1.07546711E-02
  0.00000000E+00 -1.96462112E-01 -5.20483856E-04  2.27395239E-03  0.00000000E+00
 -1.66781610E-02 -4.77267243E-03  5.68300455E-01  2.20462647E-01  0.00000000E+00
 -1.05714221E-01 -1.16752194E-03 -4.20549263E-02  1.07823095E-02  0.00000000E+00
  2.21326319E-02  7.94844028E-01 -1.47243198E-02 -7.78917354E-02 -2.28367336E-02
  0.00000000E+00 -2.29747760E-01 -3.25187160E-02  1.38998576E-03  5.44468905E-02
 -5.48216586E-02  0.00000000E+00  4.63239026E-02 -9.69912683E-03  6.73478070E-03
  0.00000000E+00  8.97105431E-03  3.68436081E-03  5.65423453E-01 -7.19128899E-02
  0.00000000E+00  6.24866179E-01 -7.87639456E-02 -1.85600807E-01  2.94520598E-02
  0.00000000E+00 -9.50451994E-02  4.57159812E-01 -5.10178408E-02  1.81981362E-01
 -1.76079841E-02  0.00000000E+00  3.95641850E-02  1.25504611E-01 -1.80625269E-02
 -2.39790858E-02 -7.99090726E-02  0.00000000E+00 -2.00786869E-01  6.79169859E-03
  1.93435568E-02  0.00000000E+00 -2.39048419E-02  3.12790548E-03 -5.10442743E-01
 -2.47156150E-01  0.00000000E+00  2.62863703E-01 -1.15368671E-01  1.47944146E-01
  1.65026691E-01  0.00000000E+00 -3.91238659E-02  5.55917119E-02 -4.01746195E-02
  2.00091916E-02  1.11274846E-02  0.00000000E+00 -5.78419428E-02 -3.03381620E-01
  1.18917434E-01  5.06357365E-01  4.83728172E-01  0.00000000E+00  4.49154845E-01
 -3.07704840E-01 -2.93825065E-01  0.00000000E+00  1.48268335E-01 -8.71650947E-02
 -8.40702708E-02  1.34331824E-01  0.00000000E+00 -2.94137499E-02  9.31686180E-03
 -6.92899319E-02 -4.87035921E-02  0.00000000E+00 -4.71402787E-02  1.06561746E-01
 -8.50747813E-02 -4.95563734E-02  1.86695116E-01  0.00000000E+00 -1.89237652E-02
  4.76485672E-02 -2.21498004E-02 -6.15553526E-02 -1.79031207E-01  0.00000000E+00
 -7.25386457E-02  4.07908266E-02  1.26672410E-01  0.00000000E+00  7.60836668E-01
 -5.10385012E-01 -1.18829023E-01  4.73872169E-01  0.00000000E+00  1.06404771E-02
 -6.34243118E-03 -4.26312649E-02  2.57691285E-02  0.00000000E+00  9.71684913E-02
  7.68239675E-02 -6.08023524E-02  7.73013949E-02  3.35629275E-03  0.00000000E+00
 -7.25710636E-03 -3.51855007E-04  1.31309860E-04 -5.57641187E-01  5.50732545E-01
  0.00000000E+00 -1.61633986E-03  5.79290169E-01 -5.73176281E-01  0.00000000E+00
  7.29351189E-02 -7.16452189E-02  2.04729025E-02  3.47912375E-02  0.00000000E+00
  5.31353859E-02 -8.78424706E-02  1.30727423E-01  1.32771429E-01  0.00000000E+00
 -2.88490991E-02  4.75605799E-03 -1.36933883E-02  2.35292262E-02  1.55660082E-03
  0.00000000E+00 -4.22583649E-02 -7.66439354E-01  8.68203128E-01 -1.38188083E-01
 -1.37572118E-01  0.00000000E+00 -2.72645917E-01  2.41929404E-01  2.40593825E-01
  0.00000000E+00 -2.00872049E-02  3.44913688E-02 -2.33377450E-02  1.59441729E-02
  0.00000000E+00  1.01162645E-01 -2.47044263E-01  4.46319031E-01  6.11381058E-01
  0.00000000E+00 -3.34030354E-01  4.14112779E-02 -1.16555846E-01  1.29385781E-01
  4.11041774E-01  0.00000000E+00 -3.61784167E-01  1.48203494E-01 -2.57670544E-01
 -1.83855297E-01 -1.68060084E-01  0.00000000E+00  6.14948232E-01  5.11825841E-01
  4.68394493E-01  0.00000000E+00 -1.20024983E-01  3.77605392E-01 -1.20769531E-01
  2.92579855E-01  0.00000000E+00 -8.43073923E-02  2.29755875E-01 -6.88515461E-01
 -1.42159465E-02  0.00000000E+00 -3.76043826E-01  7.45651950E-02 -1.80801506E-01
 -4.51754921E-01  8.15123760E-01  0.00000000E+00 -4.86792074E-02 -5.53139353E-02
  1.05560531E-01  6.97570841E-02  1.01274656E-01  0.00000000E+00 -3.29510771E-01
 -2.20829489E-01 -3.17145158E-01  0.00000000E+00 -1.90803849E-01  6.96948639E-01
 -1.12353962E-01  5.71140397E-01  0.00000000E+00  2.46456852E-02 -1.27248167E-01
 -3.12513055E-01  7.54586057E-01  0.00000000E+00 -5.87283654E-01  5.00513908E-02
 -1.92166564E-01 -8.80964287E-01 -6.17706976E-01  0.00000000E+00  9.74331639E-01
  1.75118135E-02 -3.56644504E-02 -4.72656449E-02 -1.94147550E-02  0.00000000E+00
  1.53344314E-01  1.68983827E-01  7.20623930E-02  0.00000000E+00  3.01787834E-02
 -1.40235908E-01  1.49016013E-01 -6.75105696E-02  0.00000000E+00  1.77090220E-01
 -7.73103836E-01  3.09918318E-01 -5.81148905E-01  0.00000000E+00  9.29102246E-01
  1.80450569E-01 -7.77874057E-01 -3.90319290E-01  1.14281403E-01  0.00000000E+00
  5.99837375E-01  1.51378972E-02 -3.29227764E-02 -1.62571933E-02 -4.59242932E-02
  0.00000000E+00  1.13111106E-01  5.53926782E-02  1.57852672E-01  0.00000000E+00
 -8.62149121E-02  3.62810079E-01 -2.07314577E-02  3.33903565E-01  0.00000000E+00
  2.39168929E-01 -1.29431266E+00 -7.09001004E-01  5.53695051E-02  0.00000000E+00
  3.82026495E-01 -2.49345297E-01  1.35027840E+00 -6.14280880E-01  2.88189883E-01
  0.00000000E+00 -4.02968787E-01  9.00535814E-03 -2.22116884E-02 -3.19724525E-02
 -1.36070662E-02  0.00000000E+00  9.88922788E-02  1.29339123E-01  5.41275268E-02
  0.00000000E+00  3.38672544E-02 -1.61891945E-01  1.00743566E-01 -1.40249477E-01
  0.00000000E+00  0.00000000E+00  0.00000000E+00  0.00000000E+00  0.00000000E+00
  4.83367190E-01  0.00000000E+00  0.00000000E+00  0.00000000E+00  0.00000000E+00
  0.00000000E+00  4.65802753E-01  0.00000000E+00  0.00000000E+00  0.00000000E+00
  0.00000000E+00  0.00000000E+00  2.84187635E-01  0.00000000E+00  0.00000000E+00
  0.00000000E+00  3.97839043E-01  0.00000000E+00  0.00000000E+00  0.00000000E+00
  0.00000000E+00  2.45561174E-01  0.00000000E+00  0.00000000E+00  0.00000000E+00
  0.00000000E+00 -1.77029813E-01  0.00000000E+00  0.00000000E+00  0.00000000E+00
  0.00000000E+00  0.00000000E+00 -4.03188831E-01  0.00000000E+00  0.00000000E+00
  0.00000000E+00  0.00000000E+00  0.00000000E+00  5.50018939E-01  0.00000000E+00
  0.00000000E+00  0.00000000E+00  4.86650641E-01  0.00000000E+00  0.00000000E+00
  0.00000000E+00  0.00000000E+00 -3.11695594E-01  0.00000000E+00  0.00000000E+00
  0.00000000E+00  0.00000000E+00 -5.41464004E-01  0.00000000E+00  0.00000000E+00
  0.00000000E+00  0.00000000E+00  0.00000000E+00 -2.20385798E-02  0.00000000E+00
  0.00000000E+00  0.00000000E+00  0.00000000E+00  0.00000000E+00  2.72226033E-01
  0.00000000E+00  0.00000000E+00  0.00000000E+00 -7.48759213E-03  0.00000000E+00
  0.00000000E+00  0.00000000E+00  0.00000000E+00  8.04716584E-01  0.00000000E+00
  0.00000000E+00  0.00000000E+00  0.00000000E+00 -2.29311519E-01  0.00000000E+00
  0.00000000E+00  0.00000000E+00  0.00000000E+00  0.00000000E+00  5.47093050E-01
  0.00000000E+00  0.00000000E+00  0.00000000E+00  0.00000000E+00  0.00000000E+00
  6.53137044E-01  0.00000000E+00  0.00000000E+00  0.00000000E+00 -6.02671417E-01
  0.00000000E+00  0.00000000E+00  0.00000000E+00  0.00000000E+00 -3.65868244E-01
  0.00000000E+00  0.00000000E+00  0.00000000E+00  0.00000000E+00  6.80061787E-01
  0.00000000E+00  0.00000000E+00  0.00000000E+00  0.00000000E+00  0.00000000E+00
 -6.35157567E-01  0.00000000E+00  0.00000000E+00  0.00000000E+00  0.00000000E+00
  0.00000000E+00  4.16979086E-01  0.00000000E+00  0.00000000E+00  0.00000000E+00
 -5.61869753E-01  0.00000000E+00  0.00000000E+00  0.00000000E+00  0.00000000E+00
  2.93906449E-01
Total SCF Density                          R   N=         351
  2.07402917E+00 -2.41720710E-01  9.39511456E-01 -1.26986801E-02  9.63338735E-03
  6.17270790E-01 -9.76639556E-03  1.35086021E-02 -8.05212380E-02  6.01220057E-01
  0.00000000E+00  0.00000000E+00  0.00000000E+00  0.00000000E+00  7.19381975E-01
 -1.12198112E-01  2.89560264E-01 -1.83483778E-01  4.98182460E-01  0.00000000E+00
  5.41753536E-01  2.66121297E-02 -6.94379059E-02 -1.06188943E-01  3.88687095E-02
  0.00000000E+00  2.84938077E-02  2.07070597E+00 -6.28008969E-02  8.15559433E-02
  2.40385316E-01 -9.54336629E-02  0.00000000E+00 -8.60571359E-02 -2.21301391E-01
  8.57668994E-01  1.14050550E-01 -3.05790144E-01 -3.97092590E-01  1.39369797E-01
  0.00000000E+00  8.72337562E-02 -1.20553597E-02  7.74306825E-02  5.63445566E-01
 -2.44023441E-02  5.44088224E-02  1.32583323E-01 -1.65327861E-02  0.00000000E+00
 -9.19431330E-02  2.54719365E-03 -5.20107725E-02  1.07810483E-02  6.35112478E-01
  0.00000000E+00  0.00000000E+00  0.00000000E+00  0.00000000E+00  7.43546030E-01
  0.00000000E+00  0.00000000E+00  0.00000000E+00  0.00000000E+00  0.00000000E+00
  8.38820109E-01  4.04907265E-02 -1.51191109E-01 -1.22554366E-01  6.46885527E-03
  0.00000000E+00 -4.99617071E-02 -1.13745676E-01  2.94083635E-01  3.67544070E-01
  3.73749248E-01  0.00000000E+00  5.90134451E-01 -1.28489831E-03 -1.82130301E-03
 -6.83069377E-03 -7.25956032E-03  0.00000000E+00 -3.57661011E-03  8.72783477E-04
 -2.26273156E-03  3.94476868E-03  3.18403438E-03  0.00000000E+00  2.69183470E-03
  2.27804232E+00  4.72772366E-03  6.29052431E-03  2.25999823E-02  2.34970688E-02
  0.00000000E+00  1.20620016E-02 -2.98942271E-03  7.86901203E-03 -1.29793748E-02
 -9.60185136E-03  0.00000000E+00 -8.59955211E-03 -8.14477854E-01  2.38892521E+00
  2.47052202E-02 -9.52622171E-02  1.00086570E-01  1.04992973E-01  0.00000000E+00
  2.87183998E-03 -1.02858644E-02  4.30283730E-02 -4.57564242E-02 -3.32513525E-03
  0.00000000E+00 -3.56632478E-02  4.73867474E-03 -1.32741249E-02  2.07615986E+00
  2.45236640E-02 -9.16003596E-02  1.09515896E-01  9.36652597E-02  0.00000000E+00
  6.18587522E-02 -1.34517344E-04 -6.07517854E-03 -5.75446780E-03 -1.12544418E-02
  0.00000000E+00 -1.88201235E-02  4.72407032E-03 -1.32901173E-02 -3.76017591E-02
  2.07653572E+00  0.00000000E+00  0.00000000E+00  0.00000000E+00  0.00000000E+00
 -3.86117403E-02  0.00000000E+00  0.00000000E+00  0.00000000E+00  0.00000000E+00
  0.00000000E+00  6.87509923E-02  0.00000000E+00  0.00000000E+00  0.00000000E+00
  0.00000000E+00  0.00000000E+00  2.10974636E+00  1.57974302E-02 -1.81228879E-01
  2.21458011E-02  1.04959780E-02  0.00000000E+00 -4.19734494E-02  9.80692396E-03
 -1.84107266E-02  4.81057284E-02  4.61626052E-02  0.00000000E+00  3.44766315E-02
  1.43552185E-01 -4.98800116E-01  7.67367844E-02  7.60262909E-02  0.00000000E+00
  2.11698365E+00 -7.41428355E-02  2.50419687E-01 -3.33975299E-01 -3.10114155E-01
  0.00000000E+00 -4.40422746E-03  4.04900679E-02 -1.56754283E-01  1.77647891E-01
  1.81657563E-02  0.00000000E+00  1.35321095E-01 -1.68393179E-02  4.74114990E-02
 -3.42129655E-01  1.47895249E-01  0.00000000E+00 -2.45413307E-01  1.54854967E+00
 -7.39267678E-02  2.39774117E-01 -3.23911321E-01 -3.13076004E-01  0.00000000E+00
 -2.36276677E-01 -1.53303140E-03  2.72620312E-02  1.68729392E-02  4.22690757E-02
  0.00000000E+00  7.06872449E-02 -1.68068808E-02  4.75532362E-02  1.48000584E-01
 -3.43791519E-01  0.00000000E+00 -2.43384880E-01 -5.63945400E-01  1.55527262E+00
  0.00000000E+00  0.00000000E+00  0.00000000E+00  0.00000000E+00  1.03173534E-01
  0.00000000E+00  0.00000000E+00  0.00000000E+00  0.00000000E+00  0.00000000E+00
 -2.71024358E-01  0.00000000E+00  0.00000000E+00  0.00000000E+00  0.00000000E+00
  0.00000000E+00 -4.74344454E-01  0.00000000E+00  0.00000000E+00  0.00000000E+00
  2.05052831E+00 -2.89639486E-03  7.84595696E-03  3.79056692E-03 -1.55714462E-02
  0.00000000E+00 -5.76561570E-03  6.31857600E-03  4.34464147E-03 -5.68377069E-03
  2.96801510E-02  0.00000000E+00  9.34525133E-03  1.38419208E-04 -6.14651393E-04
 -1.49498162E-03  3.28122731E-04  0.00000000E+00  6.69931772E-04  5.41807660E-03
 -2.10644373E-03  0.00000000E+00  2.11047060E+00  9.52040512E-03 -1.74025987E-02
 -3.50733855E-03  6.60832209E-02  0.00000000E+00  1.66591251E-02  8.81888904E-03
 -1.74842552E-01 -1.89021193E-02  3.09653689E-02  0.00000000E+00 -2.71275138E-02
 -1.06952886E-04  1.09391831E-03  4.80645492E-03 -2.20653436E-03  0.00000000E+00
  3.23604340E-03 -1.68675604E-02  1.16504911E-02  0.00000000E+00 -4.71559591E-01
  2.06961577E+00 -4.92060900E-02  2.39055294E-01  1.67155682E-01 -7.91836143E-02
  0.00000000E+00 -9.59129357E-02  3.16625315E-02 -1.20815256E-01  3.99730104E-02
  1.53689527E-01  0.00000000E+00 -2.01489302E-01  1.27427168E-03 -4.97950575E-03
 -6.69171376E-03  3.62026371E-03  0.00000000E+00  1.30629374E-02  2.54523654E-02
 -1.79326817E-02  0.00000000E+00 -2.28309246E-02  1.19818062E-01  1.90992499E+00
  9.55930170E-03 -2.22145862E-02 -7.19065823E-02  3.37802759E-02  0.00000000E+00
  8.97023461E-02 -1.21233637E-01  4.12384366E-01  1.72671275E-01 -5.71479186E-01
  0.00000000E+00 -1.86000259E-01 -1.39085198E-03  4.28288729E-03  1.70797120E-02
  1.81418138E-02  0.00000000E+00 -2.07318083E-02 -6.42328965E-02 -7.10147496E-02
  0.00000000E+00  9.36867815E-02 -4.86474153E-01  2.63549055E-01  9.00646601E-01
  0.00000000E+00  0.00000000E+00  0.00000000E+00  0.00000000E+00  2.00571530E-01
  0.00000000E+00  0.00000000E+00  0.00000000E+00  0.00000000E+00  0.00000000E+00
  2.31683476E-01  0.00000000E+00  0.00000000E+00  0.00000000E+00  0.00000000E+00
  0.00000000E+00  2.60225670E-02  0.00000000E+00  0.00000000E+00  0.00000000E+00
 -1.02235031E-01  0.00000000E+00  0.00000000E+00  0.00000000E+00  0.00000000E+00
  6.43734567E-02
Mulliken Charges                           R   N=           6
  2.58007287E-02  1.18053993E-01 -4.83219083E-02  7.50420256E-02 -8.64592743E-02
 -8.41155649E-02
ONIOM Charges                              I   N=          16
           0           0           0           0           0           0
           0           0           0           0           0           0
           0           0           0           0
ONIOM Multiplicities                       I   N=          16
           1           0           0           0           0           0
           0           0           0           0           0           0
           0           0           0           0
Atom Layers                                I   N=           6
           1           1           1           1           1           1
Atom Modifiers                             I   N=           6
           0           0           0           0           0           0
Int Atom Modified Types                    I   N=           6
           0           0           0           0           0           0
Force Field                                I                0
Atom Modified Types                        C   N=           6
                                                            
            
Link Atoms                                 I   N=           6
           0           0           0           0           0           0
Atom Modified MM Charges                   R   N=           6
  0.00000000E+00  0.00000000E+00  0.00000000E+00  0.00000000E+00  0.00000000E+00
  0.00000000E+00
Link Distances                             R   N=          24
  0.00000000E+00  0.00000000E+00  0.00000000E+00  0.00000000E+00  0.00000000E+00
  0.00000000E+00  0.00000000E+00  0.00000000E+00  0.00000000E+00  0.00000000E+00
  0.00000000E+00  0.00000000E+00  0.00000000E+00  0.00000000E+00  0.00000000E+00
  0.00000000E+00  0.00000000E+00  0.00000000E+00  0.00000000E+00  0.00000000E+00
  0.00000000E+00  0.00000000E+00  0.00000000E+00  0.00000000E+00
Cartesian Gradient                         R   N=          18
  0.00000000E+00  0.00000000E+00  0.00000000E+00  0.00000000E+00  0.00000000E+00
  0.00000000E+00  0.00000000E+00  0.00000000E+00  0.00000000E+00  0.00000000E+00
  0.00000000E+00  0.00000000E+00  0.00000000E+00  0.00000000E+00  0.00000000E+00
  0.00000000E+00  0.00000000E+00  0.00000000E+00
Nonadiabatic coupling                      R   N=          18
  0.00000000E+00  0.00000000E+00  0.00000000E+00  0.00000000E+00  0.00000000E+00
  0.00000000E+00  0.00000000E+00  0.00000000E+00  0.00000000E+00  0.00000000E+00
  0.00000000E+00  0.00000000E+00  0.00000000E+00  0.00000000E+00  0.00000000E+00
  0.00000000E+00  0.00000000E+00  0.00000000E+00
Dipole Moment                              R   N=           3
  3.86584441E-02  1.15613130E+00  0.00000000E+00
Quadrupole Moment                          R   N=           6
 -1.89764584E+00  8.61363833E-01  1.03628200E+00  1.31540878E+00  0.00000000E+00
  0.00000000E+00
QEq coupling tensors                       R   N=          36
 -2.89357353E-02 -1.96549744E-01 -6.92041568E-02  0.00000000E+00  0.00000000E+00
  9.81398920E-02  1.37669018E-01  1.38449217E-01 -3.23856932E-01  0.00000000E+00
  0.00000000E+00  1.86187914E-01 -1.54667426E-01  2.32981644E-02 -7.42605215E-02
  0.00000000E+00  0.00000000E+00  2.28927947E-01 -1.00839984E-01 -2.68322431E-01
 -8.65706755E-02  0.00000000E+00  0.00000000E+00  1.87410660E-01 -8.38080227E-01
 -2.78530524E+00 -8.10902805E-01  0.00000000E+00  0.00000000E+00  1.64898303E+00
  2.53899526E+00  6.64499842E-01  3.22207250E-03  0.00000000E+00  0.00000000E+00
 -2.54221733E+00
ClPar MaxAn                                I              200
ClPar NIntPar                              I                4
ClPar NRealPar                             I               16
ClPar NBits                                I               30
ClPar LenBitVec                            I                1
ClPar Read BitMap                          I   N=         200
           0           0           0           0           0           0
           0           0           0           0           0           0
           0           0           0           0           0           0
           0           0           0           0           0           0
           0           0           0           0           0           0
           0           0           0           0           0           0
           0           0           0           0           0           0
           0           0           0           0           0           0
           0           0           0           0           0           0
           0           0           0           0           0           0
           0           0           0           0           0           0
           0           0           0           0           0           0
           0           0           0           0           0           0
           0           0           0           0           0           0
           0           0           0           0           0           0
           0           0           0           0           0           0
           0           0           0           0           0           0
           0           0           0           0           0           0
           0           0           0           0           0           0
           0           0           0           0           0           0
           0           0           0           0           0           0
           0           0           0           0           0           0
           0           0           0           0           0           0
           0           0           0           0           0           0
           0           0           0           0           0           0
           0           0           0           0           0           0
           0           0           0           0           0           0
           0           0           0           0           0           0
           0           0           0           0           0           0
           0           0           0           0           0           0
           0           0           0           0           0           0
           0           0           0           0           0           0
           0           0           0           0           0           0
           0           0
ClPar Default BitMap                       I   N=         200
        2016        2016        2016        2016        2016        2016
        2016        2016        2016        2016        2016        2016
        2016        2016        2016        2016        2016        2016
        2016        2016        2016        2016        2016        2016
        2016        2016        2016        2016        2016        2016
        2016        2016        2016        2016        2016        2016
        2016        2016        2016        2016        2016        2016
        2016        2016        2016        2016        2016        2016
        2016        2016        2016        2016        2016        2016
        2016        2016        2016        2016        2016        2016
        2016        2016        2016        2016        2016        2016
        2016        2016        2016        2016        2016        2016
        2016        2016        2016        2016        2016        2016
        2016        2016        2016        2016        2016        2016
        2016        2016         480         480         480         480
         480         480         480         480         480         480
         480         480         480         480         480         480
         480         480         480         480         480         480
         480         480         480         480         480         480
         480         480         480         480         480         480
         480         480         480         480         480         480
         480         480         480         480         480         480
         480         480         480         480         480         480
         480         480         480         480         480         480
         480         480         480         480         480         480
         480         480         480         480         480         480
         480         480         480         480         480         480
         480         480         480         480         480         480
         480         480         480         480         480         480
         480         480         480         480         480         480
         480         480         480         480         480         480
         480         480         480         480         480         480
         480         480         480         480         480         480
         480         480
ClPar Int Params                           I   N=         800
           0           0           0           0           0           0
           0           0           0           0           0           0
           0           0           0           0           0           0
           0           0           0           0           0           0
           0           0           0           0           0           0
           0           0           0           0           0           0
           0           0           0           0           0           0
           0           0           0           0           0           0
           0           0           0           0           0           0
           0           0           0           0           0           0
           0           0           0           0           0           0
           0           0           0           0           0           0
           0           0           0           0           0           0
           0           0           0           0           0           0
           0           0           0           0           0           0
           0           0           0           0           0           0
           0           0           0           0           0           0
           0           0           0           0           0           0
           0           0           0           0           0           0
           0           0           0           0           0           0
           0           0           0           0           0           0
           0           0           0           0           0           0
           0           0           0           0           0           0
           0           0           0           0           0           0
           0           0           0           0           0           0
           0           0           0           0           0           0
           0           0           0           0           0           0
           0           0           0           0           0           0
           0           0           0           0           0           0
           0           0           0           0           0           0
           0           0           0           0           0           0
           0           0           0           0           0           0
           0           0           0           0           0           0
           0           0           0           0           0           0
           0           0           0           0           0           0
           0           0           0           0           0           0
           0           0           0           0           0           0
           0           0           0           0           0           0
           0           0           0           0           0           0
           0           0           0           0           0           0
           0           0           0           0           0           0
           0           0           0           0           0           0
           0           0           0           0           0           0
           0           0           0           0           0           0
           0           0           0           0           0           0
           0           0           0           0           0           0
           0           0           0           0           0           0
           0           0           0           0           0           0
           0           0           0           0           0           0
           0           0           0           0           0           0
           0           0           0           0           0           0
           0           0           0           0           0           0
           0           0           0           0           0           0
           0           0           0           0           0           0
           0           0           0           0           0           0
           0           0           0           0           0           0
           0           0           0           0           0           0
           0           0           0           0           0           0
           0           0           0           0           0           0
           0           0           0           0           0           0
           0           0           0           0           0           0
           0           0           0           0           0           0
           0           0           0           0           0           0
           0           0           0           0           0           0
           0           0           0           0           0           0
           0           0           0           0           0           0
           0           0           0           0           0           0
           0           0           0           0           0           0
           0           0           0           0           0           0
           0           0           0           0           0           0
           0           0           0           0           0           0
           0           0           0           0           0           0
           0           0           0           0           0           0
           0           0           0           0           0           0
           0           0           0           0           0           0
           0           0           0           0           0           0
           0           0           0           0           0           0
           0           0           0           0           0           0
           0           0           0           0           0           0
           0           0           0           0           0           0
           0           0           0           0           0           0
           0           0           0           0           0           0
           0           0           0           0           0           0
           0           0           0           0           0           0
           0           0           0           0           0           0
           0           0           0           0           0           0
           0           0           0           0           0           0
           0           0           0           0           0           0
           0           0           0           0           0           0
           0           0           0           0           0           0
           0           0           0           0           0           0
           0           0           0           0           0           0
           0           0           0           0           0           0
           0           0           0           0           0           0
           0           0           0           0           0           0
           0           0           0           0           0           0
           0           0           0           0           0           0
           0           0           0           0           0           0
           0           0           0           0           0           0
           0           0           0           0           0           0
           0           0           0           0           0           0
           0           0           0           0           0           0
           0           0           0           0           0           0
           0           0           0           0           0           0
           0           0           0           0           0           0
           0           0           0           0           0           0
           0           0           0           0           0           0
           0           0           0           0           0           0
           0           0           0           0           0           0
           0           0           0           0           0           0
           0           0           0           0           0           0
           0           0           0           0           0           0
           0           0           0           0           0           0
           0           0           0           0           0           0
           0           0           0           0           0           0
           0           0           0           0           0           0
           0           0           0           0           0           0
           0           0           0           0           0           0
           0           0           0           0           0           0
           0           0           0           0           0           0
           0           0           0           0           0           0
           0           0           0           0           0           0
           0           0           0           0           0           0
           0           0           0           0           0           0
           0           0           0           0           0           0
           0           0           0           0           0           0
           0           0           0           0           0           0
           0           0           0           0           0           0
           0           0           0           0           0           0
           0           0           0           0           0           0
           0           0           0           0           0           0
           0           0           0           0           0           0
           0           0           0           0           0           0
           0           0
ClPar Real Params                          R   N=        3200
  0.00000000E+00  0.00000000E+00  0.00000000E+00  0.00000000E+00  0.00000000E+00
  0.00000000E+00  0.00000000E+00  0.00000000E+00  0.00000000E+00  0.00000000E+00
  0.00000000E+00  0.00000000E+00  0.00000000E+00  0.00000000E+00  0.00000000E+00
  0.00000000E+00  0.00000000E+00  0.00000000E+00  0.00000000E+00  0.00000000E+00
  0.00000000E+00  0.00000000E+00  0.00000000E+00  0.00000000E+00  0.00000000E+00
  0.00000000E+00  0.00000000E+00  0.00000000E+00  0.00000000E+00  0.00000000E+00
  0.00000000E+00  0.00000000E+00  0.00000000E+00  0.00000000E+00  0.00000000E+00
  0.00000000E+00  0.00000000E+00  0.00000000E+00  0.00000000E+00  0.00000000E+00
  0.00000000E+00  0.00000000E+00  0.00000000E+00  0.00000000E+00  0.00000000E+00
  0.00000000E+00  0.00000000E+00  0.00000000E+00  0.00000000E+00  0.00000000E+00
  0.00000000E+00  0.00000000E+00  0.00000000E+00  0.00000000E+00  0.00000000E+00
  0.00000000E+00  0.00000000E+00  0.00000000E+00  0.00000000E+00  0.00000000E+00
  0.00000000E+00  0.00000000E+00  0.00000000E+00  0.00000000E+00  0.00000000E+00
  0.00000000E+00  0.00000000E+00  0.00000000E+00  0.00000000E+00  0.00000000E+00
  0.00000000E+00  0.00000000E+00  0.00000000E+00  0.00000000E+00  0.00000000E+00
  0.00000000E+00  0.00000000E+00  0.00000000E+00  0.00000000E+00  0.00000000E+00
  0.00000000E+00  0.00000000E+00  0.00000000E+00  0.00000000E+00  0.00000000E+00
  0.00000000E+00  0.00000000E+00  0.00000000E+00  0.00000000E+00  0.00000000E+00
  0.00000000E+00  0.00000000E+00  0.00000000E+00  0.00000000E+00  0.00000000E+00
  0.00000000E+00  0.00000000E+00  0.00000000E+00  0.00000000E+00  0.00000000E+00
  0.00000000E+00  0.00000000E+00  0.00000000E+00  0.00000000E+00  0.00000000E+00
  0.00000000E+00  0.00000000E+00  0.00000000E+00  0.00000000E+00  0.00000000E+00
  0.00000000E+00  0.00000000E+00  0.00000000E+00  0.00000000E+00  0.00000000E+00
  0.00000000E+00  0.00000000E+00  0.00000000E+00  0.00000000E+00  0.00000000E+00
  0.00000000E+00  0.00000000E+00  0.00000000E+00  0.00000000E+00  0.00000000E+00
  0.00000000E+00  0.00000000E+00  0.00000000E+00  0.00000000E+00  0.00000000E+00
  0.00000000E+00  0.00000000E+00  0.00000000E+00  0.00000000E+00  0.00000000E+00
  0.00000000E+00  0.00000000E+00  0.00000000E+00  0.00000000E+00  0.00000000E+00
  0.00000000E+00  0.00000000E+00  0.00000000E+00  0.00000000E+00  0.00000000E+00
  0.00000000E+00  0.00000000E+00  0.00000000E+00  0.00000000E+00  0.00000000E+00
  0.00000000E+00  0.00000000E+00  0.00000000E+00  0.00000000E+00  0.00000000E+00
  0.00000000E+00  0.00000000E+00  0.00000000E+00  0.00000000E+00  0.00000000E+00
  0.00000000E+00  0.00000000E+00  0.00000000E+00  0.00000000E+00  0.00000000E+00
  0.00000000E+00  0.00000000E+00  0.00000000E+00  0.00000000E+00  0.00000000E+00
  0.00000000E+00  0.00000000E+00  0.00000000E+00  0.00000000E+00  0.00000000E+00
  0.00000000E+00  0.00000000E+00  0.00000000E+00  0.00000000E+00  0.00000000E+00
  0.00000000E+00  0.00000000E+00  0.00000000E+00  0.00000000E+00  0.00000000E+00
  0.00000000E+00  0.00000000E+00  0.00000000E+00  0.00000000E+00  0.00000000E+00
  0.00000000E+00  0.00000000E+00  0.00000000E+00  0.00000000E+00  0.00000000E+00
  0.00000000E+00  0.00000000E+00  0.00000000E+00  0.00000000E+00  0.00000000E+00
  2.26000000E-01  4.43000000E-01  1.01000000E-01  1.47000000E-01  1.92000000E-01
  2.40000000E-01  2.75000000E-01  3.03000000E-01  3.25000000E-01  4.13000000E-01
  9.60000000E-02  1.35000000E-01  1.73000000E-01  2.11000000E-01  2.48000000E-01
  2.86000000E-01  3.23000000E-01  3.60000000E-01  8.20000000E-02  1.04000000E-01
  1.17000000E-01  1.23000000E-01  1.29000000E-01  1.34000000E-01  1.40000000E-01
  1.44000000E-01  1.48000000E-01  1.52000000E-01  1.55000000E-01  1.76000000E-01
  1.98000000E-01  2.19000000E-01  2.39000000E-01  2.60000000E-01  2.80000000E-01
  3.00000000E-01  7.90000000E-02  9.90000000E-02  1.19000000E-01  1.26000000E-01
  1.33000000E-01  1.40000000E-01  1.47000000E-01  1.53000000E-01  1.58000000E-01
  1.63000000E-01  1.57000000E-01  1.70000000E-01  1.87000000E-01  2.03000000E-01
  2.19000000E-01  2.34000000E-01  2.50000000E-01  2.65000000E-01  7.40000000E-02
  9.20000000E-02  1.05000000E-01  1.06000000E-01  1.07000000E-01  1.08000000E-01
  1.09000000E-01  1.10000000E-01  1.11000000E-01  1.12000000E-01  1.13000000E-01
  1.14000000E-01  1.15000000E-01  1.16000000E-01  1.17000000E-01  1.17000000E-01
  1.26000000E-01  1.36000000E-01  1.46000000E-01  1.55000000E-01  1.65000000E-01
  1.73000000E-01  1.82000000E-01  1.90000000E-01  1.62000000E-01  1.78000000E-01
  1.10000000E-01  1.35000000E-01  1.59000000E-01  1.83000000E-01  2.07000000E-01
  2.31000000E-01  6.90000000E-02  9.40000000E-02  1.02000000E-01  1.03000000E-01
  1.05000000E-01  1.07000000E-01  1.09000000E-01  1.11000000E-01  1.13000000E-01
  1.15000000E-01  1.17000000E-01  1.19000000E-01  1.20000000E-01  1.22000000E-01
  1.24000000E-01  1.26000000E-01  1.28000000E-01  1.28000000E-01  1.28000000E-01
  1.28000000E-01  1.28000000E-01  1.28000000E-01  1.28000000E-01  1.28000000E-01
  1.28000000E-01  1.28000000E-01  1.28000000E-01  1.28000000E-01  1.28000000E-01
  1.28000000E-01  1.28000000E-01  1.28000000E-01  1.28000000E-01  1.28000000E-01
  1.28000000E-01  1.28000000E-01  1.28000000E-01  1.28000000E-01  1.28000000E-01
  1.28000000E-01  1.28000000E-01  1.28000000E-01  1.28000000E-01  1.28000000E-01
  1.28000000E-01  1.28000000E-01  1.28000000E-01  1.28000000E-01  1.28000000E-01
  1.28000000E-01  1.28000000E-01  1.28000000E-01  1.28000000E-01  1.28000000E-01
  1.28000000E-01  1.28000000E-01  1.28000000E-01  1.28000000E-01  1.28000000E-01
  1.28000000E-01  1.28000000E-01  1.28000000E-01  1.28000000E-01  1.28000000E-01
  1.28000000E-01  1.28000000E-01  1.28000000E-01  1.28000000E-01  1.28000000E-01
  1.28000000E-01  1.28000000E-01  1.28000000E-01  1.28000000E-01  1.28000000E-01
  1.28000000E-01  1.28000000E-01  1.28000000E-01  1.28000000E-01  1.28000000E-01
  1.28000000E-01  1.28000000E-01  1.28000000E-01  1.28000000E-01  1.28000000E-01
  1.28000000E-01  1.28000000E-01  1.28000000E-01  1.28000000E-01  1.28000000E-01
  1.28000000E-01  1.28000000E-01  1.28000000E-01  1.28000000E-01  1.28000000E-01
  1.28000000E-01  1.28000000E-01  1.28000000E-01  1.28000000E-01  1.28000000E-01
  1.28000000E-01  1.28000000E-01  1.28000000E-01  1.28000000E-01  1.28000000E-01
  1.28000000E-01  1.28000000E-01  1.28000000E-01  1.28000000E-01  1.28000000E-01
  1.28000000E-01  1.28000000E-01  1.28000000E-01  1.28000000E-01  1.28000000E-01
  5.47000000E-01  5.92000000E-01  5.99000000E-01  6.68000000E-01  6.98000000E-01
  7.18000000E-01  7.26000000E-01  7.36000000E-01  7.43000000E-01  7.45000000E-01
  6.07000000E-01  6.66000000E-01  6.93000000E-01  7.09000000E-01  7.20000000E-01
  7.29000000E-01  7.35000000E-01  7.40000000E-01  6.08000000E-01  7.34000000E-01
  7.46000000E-01  7.55000000E-01  7.61000000E-01  7.65000000E-01  7.67000000E-01
  7.60000000E-01  7.49000000E-01  7.33000000E-01  7.08000000E-01  6.48000000E-01
  6.88000000E-01  7.09000000E-01  7.22000000E-01  7.31000000E-01  7.38000000E-01
  7.44000000E-01  6.09000000E-01  7.30000000E-01  7.41000000E-01  7.52000000E-01
  7.58000000E-01  7.63000000E-01  7.66000000E-01  7.58000000E-01  7.48000000E-01
  7.33000000E-01  7.01000000E-01  6.45000000E-01  6.86000000E-01  7.08000000E-01
  7.22000000E-01  7.31000000E-01  7.38000000E-01  7.44000000E-01  6.08000000E-01
  7.28000000E-01  7.32000000E-01  7.32000000E-01  7.32000000E-01  7.32000000E-01
  7.32000000E-01  7.32000000E-01  7.32000000E-01  7.32000000E-01  7.32000000E-01
  7.31000000E-01  7.31000000E-01  7.31000000E-01  7.31000000E-01  7.46000000E-01
  7.37000000E-01  7.46000000E-01  7.51000000E-01  7.55000000E-01  7.58000000E-01
  7.47000000E-01  7.32000000E-01  7.11000000E-01  7.41000000E-01  7.07000000E-01
  7.47000000E-01  7.43000000E-01  7.42000000E-01  7.42000000E-01  7.43000000E-01
  7.44000000E-01  6.05000000E-01  7.24000000E-01  7.26000000E-01  7.26000000E-01
  7.27000000E-01  7.27000000E-01  7.27000000E-01  7.28000000E-01  7.28000000E-01
  7.28000000E-01  7.28000000E-01  7.28000000E-01  7.29000000E-01  7.29000000E-01
  7.29000000E-01  7.29000000E-01  7.29000000E-01  7.29000000E-01  7.29000000E-01
  7.29000000E-01  7.29000000E-01  7.29000000E-01  7.29000000E-01  7.29000000E-01
  7.29000000E-01  7.29000000E-01  7.29000000E-01  7.29000000E-01  7.29000000E-01
  7.29000000E-01  7.29000000E-01  7.29000000E-01  7.29000000E-01  7.29000000E-01
  7.29000000E-01  7.29000000E-01  7.29000000E-01  7.29000000E-01  7.29000000E-01
  7.29000000E-01  7.29000000E-01  7.29000000E-01  7.29000000E-01  7.29000000E-01
  7.29000000E-01  7.29000000E-01  7.29000000E-01  7.29000000E-01  7.29000000E-01
  7.29000000E-01  7.29000000E-01  7.29000000E-01  7.29000000E-01  7.29000000E-01
  7.29000000E-01  7.29000000E-01  7.29000000E-01  7.29000000E-01  7.29000000E-01
  7.29000000E-01  7.29000000E-01  7.29000000E-01  7.29000000E-01  7.29000000E-01
  7.29000000E-01  7.29000000E-01  7.29000000E-01  7.29000000E-01  7.29000000E-01
  7.29000000E-01  7.29000000E-01  7.29000000E-01  7.29000000E-01  7.29000000E-01
  7.29000000E-01  7.29000000E-01  7.29000000E-01  7.29000000E-01  7.29000000E-01
  7.29000000E-01  7.29000000E-01  7.29000000E-01  7.29000000E-01  7.29000000E-01
  7.29000000E-01  7.29000000E-01  7.29000000E-01  7.29000000E-01  7.29000000E-01
  7.29000000E-01  7.29000000E-01  7.29000000E-01  7.29000000E-01  7.29000000E-01
  7.29000000E-01  7.29000000E-01  7.29000000E-01  7.29000000E-01  7.29000000E-01
  7.29000000E-01  7.29000000E-01  7.29000000E-01  7.29000000E-01  7.29000000E-01
  7.29000000E-01  7.29000000E-01  7.29000000E-01  7.29000000E-01  7.29000000E-01
  7.29000000E-01  7.29000000E-01  7.29000000E-01  7.29000000E-01  7.29000000E-01
  1.00000000E+00  1.70400000E+00  3.23000000E-01  3.89000000E-01  4.67000000E-01
  5.67000000E-01  6.36000000E-01  6.64000000E-01  6.96000000E-01  8.79000000E-01
  3.07000000E-01  3.48000000E-01  4.00000000E-01  4.54000000E-01  5.09000000E-01
  5.65000000E-01  6.21000000E-01  6.77000000E-01  2.56000000E-01  3.50000000E-01
  3.64000000E-01  3.62000000E-01  3.62000000E-01  3.62000000E-01  3.62000000E-01
  3.65000000E-01  3.69000000E-01  3.75000000E-01  3.86000000E-01  4.46000000E-01
  4.55000000E-01  4.74000000E-01  4.96000000E-01  5.20000000E-01  5.45000000E-01
  5.70000000E-01  2.45000000E-01  3.22000000E-01  3.55000000E-01  3.59000000E-01
  3.64000000E-01  3.70000000E-01  3.76000000E-01  3.85000000E-01  3.95000000E-01
  4.08000000E-01  3.76000000E-01  4.23000000E-01  4.22000000E-01  4.32000000E-01
  4.45000000E-01  4.59000000E-01  4.75000000E-01  4.91000000E-01  2.28000000E-01
  2.92000000E-01  2.89000000E-01  2.92000000E-01  2.95000000E-01  2.98000000E-01
  3.00000000E-01  3.03000000E-01  3.06000000E-01  3.09000000E-01  3.12000000E-01
  3.15000000E-01  3.18000000E-01  3.21000000E-01  3.24000000E-01  3.61000000E-01
  3.69000000E-01  3.70000000E-01  3.72000000E-01  3.75000000E-01  3.78000000E-01
  3.85000000E-01  3.94000000E-01  4.07000000E-01  5.26000000E-01  6.21000000E-01
  3.36000000E-01  3.54000000E-01  3.71000000E-01  3.86000000E-01  4.02000000E-01
  4.17000000E-01  2.09000000E-01  2.94000000E-01  2.65000000E-01  2.72000000E-01
  2.78000000E-01  2.84000000E-01  2.91000000E-01  2.97000000E-01  3.03000000E-01
  3.10000000E-01  3.16000000E-01  3.22000000E-01  3.29000000E-01  3.35000000E-01
  3.41000000E-01  3.48000000E-01  3.54000000E-01  3.54000000E-01  3.54000000E-01
  3.54000000E-01  3.54000000E-01  3.54000000E-01  3.54000000E-01  3.54000000E-01
  3.54000000E-01  3.54000000E-01  3.54000000E-01  3.54000000E-01  3.54000000E-01
  3.54000000E-01  3.54000000E-01  3.54000000E-01  3.54000000E-01  3.54000000E-01
  3.54000000E-01  3.54000000E-01  3.54000000E-01  3.54000000E-01  3.54000000E-01
  3.54000000E-01  3.54000000E-01  3.54000000E-01  3.54000000E-01  3.54000000E-01
  3.54000000E-01  3.54000000E-01  3.54000000E-01  3.54000000E-01  3.54000000E-01
  3.54000000E-01  3.54000000E-01  3.54000000E-01  3.54000000E-01  3.54000000E-01
  3.54000000E-01  3.54000000E-01  3.54000000E-01  3.54000000E-01  3.54000000E-01
  3.54000000E-01  3.54000000E-01  3.54000000E-01  3.54000000E-01  3.54000000E-01
  3.54000000E-01  3.54000000E-01  3.54000000E-01  3.54000000E-01  3.54000000E-01
  3.54000000E-01  3.54000000E-01  3.54000000E-01  3.54000000E-01  3.54000000E-01
  3.54000000E-01  3.54000000E-01  3.54000000E-01  3.54000000E-01  3.54000000E-01
  3.54000000E-01  3.54000000E-01  3.54000000E-01  3.54000000E-01  3.54000000E-01
  3.54000000E-01  3.54000000E-01  3.54000000E-01  3.54000000E-01  3.54000000E-01
  3.54000000E-01  3.54000000E-01  3.54000000E-01  3.54000000E-01  3.54000000E-01
  3.54000000E-01  3.54000000E-01  3.54000000E-01  3.54000000E-01  3.54000000E-01
  3.54000000E-01  3.54000000E-01  3.54000000E-01  3.54000000E-01  3.54000000E-01
  3.54000000E-01  3.54000000E-01  3.54000000E-01  3.54000000E-01  3.54000000E-01
  3.54000000E-01  3.54000000E-01  3.54000000E-01  3.54000000E-01  3.54000000E-01
  2.74000000E-01  2.96000000E-01  5.80000000E-02  4.40000000E-02  3.90000000E-02
  3.90000000E-02  3.60000000E-02  3.20000000E-02  2.90000000E-02  3.30000000E-02
  5.50000000E-02  3.90000000E-02  3.30000000E-02  3.00000000E-02  2.80000000E-02
  2.60000000E-02  2.50000000E-02  2.50000000E-02  4.50000000E-02  4.40000000E-02
  3.30000000E-02  2.50000000E-02  2.10000000E-02  1.80000000E-02  1.50000000E-02
  1.80000000E-02  2.10000000E-02  2.50000000E-02  3.30000000E-02  5.00000000E-02
  3.80000000E-02  3.10000000E-02  2.70000000E-02  2.40000000E-02  2.20000000E-02
  2.10000000E-02  4.30000000E-02  4.00000000E-02  3.20000000E-02  2.50000000E-02
  2.10000000E-02  1.80000000E-02  1.60000000E-02  1.90000000E-02  2.20000000E-02
  2.80000000E-02  3.10000000E-02  4.70000000E-02  3.40000000E-02  2.80000000E-02
  2.40000000E-02  2.10000000E-02  1.90000000E-02  1.80000000E-02  3.90000000E-02
  3.60000000E-02  2.50000000E-02  2.50000000E-02  2.50000000E-02  2.60000000E-02
  2.60000000E-02  2.60000000E-02  2.70000000E-02  2.70000000E-02  2.70000000E-02
  2.70000000E-02  2.80000000E-02  2.80000000E-02  2.80000000E-02  3.30000000E-02
  3.30000000E-02  2.60000000E-02  2.10000000E-02  1.80000000E-02  1.60000000E-02
  1.80000000E-02  2.20000000E-02  2.60000000E-02  4.90000000E-02  8.20000000E-02
  3.00000000E-02  2.40000000E-02  2.10000000E-02  1.80000000E-02  1.60000000E-02
  1.50000000E-02  3.50000000E-02  3.60000000E-02  2.20000000E-02  2.30000000E-02
  2.40000000E-02  2.40000000E-02  2.50000000E-02  2.50000000E-02  2.60000000E-02
  2.70000000E-02  2.70000000E-02  2.80000000E-02  2.80000000E-02  2.90000000E-02
  3.00000000E-02  3.00000000E-02  3.10000000E-02  3.10000000E-02  3.10000000E-02
  3.10000000E-02  3.10000000E-02  3.10000000E-02  3.10000000E-02  3.10000000E-02
  3.10000000E-02  3.10000000E-02  3.10000000E-02  3.10000000E-02  3.10000000E-02
  3.10000000E-02  3.10000000E-02  3.10000000E-02  3.10000000E-02  3.10000000E-02
  3.10000000E-02  3.10000000E-02  3.10000000E-02  3.10000000E-02  3.10000000E-02
  3.10000000E-02  3.10000000E-02  3.10000000E-02  3.10000000E-02  3.10000000E-02
  3.10000000E-02  3.10000000E-02  3.10000000E-02  3.10000000E-02  3.10000000E-02
  3.10000000E-02  3.10000000E-02  3.10000000E-02  3.10000000E-02  3.10000000E-02
  3.10000000E-02  3.10000000E-02  3.10000000E-02  3.10000000E-02  3.10000000E-02
  3.10000000E-02  3.10000000E-02  3.10000000E-02  3.10000000E-02  3.10000000E-02
  3.10000000E-02  3.10000000E-02  3.10000000E-02  3.10000000E-02  3.10000000E-02
  3.10000000E-02  3.10000000E-02  3.10000000E-02  3.10000000E-02  3.10000000E-02
  3.10000000E-02  3.10000000E-02  3.10000000E-02  3.10000000E-02  3.10000000E-02
  3.10000000E-02  3.10000000E-02  3.10000000E-02  3.10000000E-02  3.10000000E-02
  3.10000000E-02  3.10000000E-02  3.10000000E-02  3.10000000E-02  3.10000000E-02
  3.10000000E-02  3.10000000E-02  3.10000000E-02  3.10000000E-02  3.10000000E-02
  3.10000000E-02  3.10000000E-02  3.10000000E-02  3.10000000E-02  3.10000000E-02
  3.10000000E-02  3.10000000E-02  3.10000000E-02  3.10000000E-02  3.10000000E-02
  3.10000000E-02  3.10000000E-02  3.10000000E-02  3.10000000E-02  3.10000000E-02
  3.10000000E-02  3.10000000E-02  3.10000000E-02  3.10000000E-02  3.10000000E-02
 -5.92770000E-01 -9.17860000E-01 -2.48668000E+00 -8.36430000E-01 -3.18470000E-01
 -4.55790000E-01 -5.70730000E-01 -6.77940000E-01 -7.69860000E-01 -8.51140000E-01
 -1.51908000E+00 -3.18830000E-01 -2.17900000E-01 -3.01260000E-01 -3.72750000E-01
 -4.15890000E-01 -4.45930000E-01 -5.91320000E-01 -9.56370000E-01 -2.88450000E-01
 -4.87320000E-01 -6.34280000E-01 -7.17490000E-01 -7.91980000E-01 -8.68490000E-01
 -9.17520000E-01 -9.54890000E-01 -9.88460000E-01 -1.50055000E+00 -2.92560000E-01
 -2.14960000E-01 -2.91180000E-01 -3.42080000E-01 -3.84480000E-01 -4.34940000E-01
 -5.24310000E-01 -8.10070000E-01 -2.58460000E-01 -4.35550000E-01 -5.32740000E-01
 -6.08450000E-01 -6.10260000E-01 -7.58920000E-01 -8.90130000E-01 -8.45780000E-01
 -8.69340000E-01 -1.38234000E+00 -2.64850000E-01 -1.97280000E-01 -2.65040000E-01
 -2.94470000E-01 -3.16570000E-01 -3.63590000E-01 -4.57840000E-01 -8.61830000E-01
 -1.33004000E+00 -6.82880000E-01 -6.25540000E-01 -6.35430000E-01 -8.79690000E-01
 -9.02690000E-01 -9.59650000E-01 -1.01869000E+00 -6.81170000E-01 -7.96500000E-01
 -9.04950000E-01 -8.34790000E-01 -9.01560000E-01 -9.74130000E-01 -1.03326000E+00
 -7.15490000E-01 -7.83960000E-01 -8.28380000E-01 -5.61040000E-01 -1.03841000E+00
 -8.62500000E-01 -9.59300000E-01 -1.01755000E+00 -7.64900000E-01 -1.29467000E+00
 -1.92740000E-01 -2.56010000E-01 -3.19820000E-01 -1.94660000E-01 -2.60090000E-01
 -4.27990000E-01  0.00000000E+00  0.00000000E+00  0.00000000E+00  0.00000000E+00
  0.00000000E+00  0.00000000E+00  0.00000000E+00  0.00000000E+00  0.00000000E+00
  0.00000000E+00  0.00000000E+00  0.00000000E+00  0.00000000E+00  0.00000000E+00
  0.00000000E+00  0.00000000E+00  0.00000000E+00  0.00000000E+00  0.00000000E+00
  0.00000000E+00  0.00000000E+00  0.00000000E+00  0.00000000E+00  0.00000000E+00
  0.00000000E+00  0.00000000E+00  0.00000000E+00  0.00000000E+00  0.00000000E+00
  0.00000000E+00  0.00000000E+00  0.00000000E+00  0.00000000E+00  0.00000000E+00
  0.00000000E+00  0.00000000E+00  0.00000000E+00  0.00000000E+00  0.00000000E+00
  0.00000000E+00  0.00000000E+00  0.00000000E+00  0.00000000E+00  0.00000000E+00
  0.00000000E+00  0.00000000E+00  0.00000000E+00  0.00000000E+00  0.00000000E+00
  0.00000000E+00  0.00000000E+00  0.00000000E+00  0.00000000E+00  0.00000000E+00
  0.00000000E+00  0.00000000E+00  0.00000000E+00  0.00000000E+00  0.00000000E+00
  0.00000000E+00  0.00000000E+00  0.00000000E+00  0.00000000E+00  0.00000000E+00
  0.00000000E+00  0.00000000E+00  0.00000000E+00  0.00000000E+00  0.00000000E+00
  0.00000000E+00  0.00000000E+00  0.00000000E+00  0.00000000E+00  0.00000000E+00
  0.00000000E+00  0.00000000E+00  0.00000000E+00  0.00000000E+00  0.00000000E+00
  0.00000000E+00  0.00000000E+00  0.00000000E+00  0.00000000E+00  0.00000000E+00
  0.00000000E+00  0.00000000E+00  0.00000000E+00  0.00000000E+00  0.00000000E+00
  0.00000000E+00  0.00000000E+00  0.00000000E+00  0.00000000E+00  0.00000000E+00
  0.00000000E+00  0.00000000E+00  0.00000000E+00  0.00000000E+00  0.00000000E+00
  0.00000000E+00  0.00000000E+00  0.00000000E+00  0.00000000E+00  0.00000000E+00
  0.00000000E+00  0.00000000E+00  0.00000000E+00  0.00000000E+00  0.00000000E+00
  0.00000000E+00  0.00000000E+00  0.00000000E+00  0.00000000E+00  0.00000000E+00
  1.90440000E+00  1.36430000E+00  4.84000000E-01  7.31600000E+00  9.24030000E+00
  8.78200000E+00  5.61290000E+00  4.83340000E+00  3.24870000E+00  2.71090000E+00
  2.01130000E+00  1.50282000E+01  1.46788000E+01  2.13546000E+01  2.38290000E+01
  1.98022000E+01  1.50468000E+01  1.09745000E+01  1.27219000E+01  1.51949000E+01
  1.57342000E+01  2.79222000E+01  1.61366000E+01  2.21252000E+01  2.45676000E+01
  1.96016000E+01  1.79818000E+01  1.72396000E+01  5.01500000E+00  1.92898000E+01
  2.34477000E+01  2.23993000E+01  2.96586000E+01  2.60081000E+01  2.15580000E+01
  1.69594000E+01  1.56479000E+01  1.86897000E+01  1.93530000E+01  3.43444000E+01
  1.98480000E+01  2.72140000E+01  3.02182000E+01  2.41099000E+01  2.21176000E+01
  2.12047000E+01  7.56690000E+00  2.37264000E+01  2.93879000E+01  3.01278000E+01
  4.19382000E+01  3.85203000E+01  3.39511000E+01  2.75774000E+01  1.56460000E+01
  1.04460000E+01  2.01830000E+01  4.99540000E+01  4.76430000E+01  1.18690000E+01
  1.08670000E+01  9.96100000E+00  9.18700000E+00  3.67980000E+01  1.34070000E+01
  9.38200000E+00  9.81700000E+00  8.90800000E+00  8.40700000E+00  8.05800000E+00
  1.29600000E+01  2.67920000E+01  2.49300000E+01  3.45630000E+01  1.11860000E+01
  1.09440000E+01  1.01270000E+01  9.40400000E+00  1.36660000E+01  7.81000000E+00
  6.93600000E+01  5.86630000E+01  4.79690000E+01  4.52740000E+01  3.92290000E+01
  3.30660000E+01  0.00000000E+00  0.00000000E+00  0.00000000E+00  0.00000000E+00
  0.00000000E+00  0.00000000E+00  0.00000000E+00  0.00000000E+00  0.00000000E+00
  0.00000000E+00  0.00000000E+00  0.00000000E+00  0.00000000E+00  0.00000000E+00
  0.00000000E+00  0.00000000E+00  0.00000000E+00  0.00000000E+00  0.00000000E+00
  0.00000000E+00  0.00000000E+00  0.00000000E+00  0.00000000E+00  0.00000000E+00
  0.00000000E+00  0.00000000E+00  0.00000000E+00  0.00000000E+00  0.00000000E+00
  0.00000000E+00  0.00000000E+00  0.00000000E+00  0.00000000E+00  0.00000000E+00
  0.00000000E+00  0.00000000E+00  0.00000000E+00  0.00000000E+00  0.00000000E+00
  0.00000000E+00  0.00000000E+00  0.00000000E+00  0.00000000E+00  0.00000000E+00
  0.00000000E+00  0.00000000E+00  0.00000000E+00  0.00000000E+00  0.00000000E+00
  0.00000000E+00  0.00000000E+00  0.00000000E+00  0.00000000E+00  0.00000000E+00
  0.00000000E+00  0.00000000E+00  0.00000000E+00  0.00000000E+00  0.00000000E+00
  0.00000000E+00  0.00000000E+00  0.00000000E+00  0.00000000E+00  0.00000000E+00
  0.00000000E+00  0.00000000E+00  0.00000000E+00  0.00000000E+00  0.00000000E+00
  0.00000000E+00  0.00000000E+00  0.00000000E+00  0.00000000E+00  0.00000000E+00
  0.00000000E+00  0.00000000E+00  0.00000000E+00  0.00000000E+00  0.00000000E+00
  0.00000000E+00  0.00000000E+00  0.00000000E+00  0.00000000E+00  0.00000000E+00
  0.00000000E+00  0.00000000E+00  0.00000000E+00  0.00000000E+00  0.00000000E+00
  0.00000000E+00  0.00000000E+00  0.00000000E+00  0.00000000E+00  0.00000000E+00
  0.00000000E+00  0.00000000E+00  0.00000000E+00  0.00000000E+00  0.00000000E+00
  0.00000000E+00  0.00000000E+00  0.00000000E+00  0.00000000E+00  0.00000000E+00
  0.00000000E+00  0.00000000E+00  0.00000000E+00  0.00000000E+00  0.00000000E+00
  0.00000000E+00  0.00000000E+00  0.00000000E+00  0.00000000E+00  0.00000000E+00
  0.00000000E+00  0.00000000E+00  0.00000000E+00  0.00000000E+00  0.00000000E+00
  0.00000000E+00  0.00000000E+00  0.00000000E+00  0.00000000E+00  0.00000000E+00
  0.00000000E+00  0.00000000E+00  0.00000000E+00  0.00000000E+00  0.00000000E+00
  0.00000000E+00  0.00000000E+00  0.00000000E+00  0.00000000E+00  0.00000000E+00
  0.00000000E+00  0.00000000E+00  0.00000000E+00  0.00000000E+00  0.00000000E+00
  0.00000000E+00  0.00000000E+00  0.00000000E+00  0.00000000E+00  0.00000000E+00
  0.00000000E+00  0.00000000E+00  0.00000000E+00  0.00000000E+00  0.00000000E+00
  0.00000000E+00  0.00000000E+00  0.00000000E+00  0.00000000E+00  0.00000000E+00
  0.00000000E+00  0.00000000E+00  0.00000000E+00  0.00000000E+00  0.00000000E+00
  0.00000000E+00  0.00000000E+00  0.00000000E+00  0.00000000E+00  0.00000000E+00
  0.00000000E+00  0.00000000E+00  0.00000000E+00  0.00000000E+00  0.00000000E+00
  0.00000000E+00  0.00000000E+00  0.00000000E+00  0.00000000E+00  0.00000000E+00
  0.00000000E+00  0.00000000E+00  0.00000000E+00  0.00000000E+00  0.00000000E+00
  0.00000000E+00  0.00000000E+00  0.00000000E+00  0.00000000E+00  0.00000000E+00
  0.00000000E+00  0.00000000E+00  0.00000000E+00  0.00000000E+00  0.00000000E+00
  0.00000000E+00  0.00000000E+00  0.00000000E+00  0.00000000E+00  0.00000000E+00
  0.00000000E+00  0.00000000E+00  0.00000000E+00  0.00000000E+00  0.00000000E+00
  0.00000000E+00  0.00000000E+00  0.00000000E+00  0.00000000E+00  0.00000000E+00
  0.00000000E+00  0.00000000E+00  0.00000000E+00  0.00000000E+00  0.00000000E+00
  0.00000000E+00  0.00000000E+00  0.00000000E+00  0.00000000E+00  0.00000000E+00
  0.00000000E+00  0.00000000E+00  0.00000000E+00  0.00000000E+00  0.00000000E+00
  0.00000000E+00  0.00000000E+00  0.00000000E+00  0.00000000E+00  0.00000000E+00
  0.00000000E+00  0.00000000E+00  0.00000000E+00  0.00000000E+00  0.00000000E+00
  0.00000000E+00  0.00000000E+00  0.00000000E+00  0.00000000E+00  0.00000000E+00
  0.00000000E+00  0.00000000E+00  0.00000000E+00  0.00000000E+00  0.00000000E+00
  0.00000000E+00  0.00000000E+00  0.00000000E+00  0.00000000E+00  0.00000000E+00
  0.00000000E+00  0.00000000E+00  0.00000000E+00  0.00000000E+00  0.00000000E+00
  0.00000000E+00  0.00000000E+00  0.00000000E+00  0.00000000E+00  0.00000000E+00
  0.00000000E+00  0.00000000E+00  0.00000000E+00  0.00000000E+00  0.00000000E+00
  0.00000000E+00  0.00000000E+00  0.00000000E+00  0.00000000E+00  0.00000000E+00
  0.00000000E+00  0.00000000E+00  0.00000000E+00  0.00000000E+00  0.00000000E+00
  0.00000000E+00  0.00000000E+00  0.00000000E+00  0.00000000E+00  0.00000000E+00
  0.00000000E+00  0.00000000E+00  0.00000000E+00  0.00000000E+00  0.00000000E+00
  0.00000000E+00  0.00000000E+00  0.00000000E+00  0.00000000E+00  0.00000000E+00
  0.00000000E+00  0.00000000E+00  0.00000000E+00  0.00000000E+00  0.00000000E+00
  0.00000000E+00  0.00000000E+00  0.00000000E+00  0.00000000E+00  0.00000000E+00
  0.00000000E+00  0.00000000E+00  0.00000000E+00  0.00000000E+00  0.00000000E+00
  0.00000000E+00  0.00000000E+00  0.00000000E+00  0.00000000E+00  0.00000000E+00
  0.00000000E+00  0.00000000E+00  0.00000000E+00  0.00000000E+00  0.00000000E+00
  0.00000000E+00  0.00000000E+00  0.00000000E+00  0.00000000E+00  0.00000000E+00
  0.00000000E+00  0.00000000E+00  0.00000000E+00  0.00000000E+00  0.00000000E+00
  0.00000000E+00  0.00000000E+00  0.00000000E+00  0.00000000E+00  0.00000000E+00
  0.00000000E+00  0.00000000E+00  0.00000000E+00  0.00000000E+00  0.00000000E+00
  0.00000000E+00  0.00000000E+00  0.00000000E+00  0.00000000E+00  0.00000000E+00
  0.00000000E+00  0.00000000E+00  0.00000000E+00  0.00000000E+00  0.00000000E+00
  0.00000000E+00  0.00000000E+00  0.00000000E+00  0.00000000E+00  0.00000000E+00
  0.00000000E+00  0.00000000E+00  0.00000000E+00  0.00000000E+00  0.00000000E+00
  0.00000000E+00  0.00000000E+00  0.00000000E+00  0.00000000E+00  0.00000000E+00
  0.00000000E+00  0.00000000E+00  0.00000000E+00  0.00000000E+00  0.00000000E+00
  0.00000000E+00  0.00000000E+00  0.00000000E+00  0.00000000E+00  0.00000000E+00
  0.00000000E+00  0.00000000E+00  0.00000000E+00  0.00000000E+00  0.00000000E+00
  0.00000000E+00  0.00000000E+00  0.00000000E+00  0.00000000E+00  0.00000000E+00
  0.00000000E+00  0.00000000E+00  0.00000000E+00  0.00000000E+00  0.00000000E+00
  0.00000000E+00  0.00000000E+00  0.00000000E+00  0.00000000E+00  0.00000000E+00
  0.00000000E+00  0.00000000E+00  0.00000000E+00  0.00000000E+00  0.00000000E+00
  0.00000000E+00  0.00000000E+00  0.00000000E+00  0.00000000E+00  0.00000000E+00
  0.00000000E+00  0.00000000E+00  0.00000000E+00  0.00000000E+00  0.00000000E+00
  0.00000000E+00  0.00000000E+00  0.00000000E+00  0.00000000E+00  0.00000000E+00
  0.00000000E+00  0.00000000E+00  0.00000000E+00  0.00000000E+00  0.00000000E+00
  0.00000000E+00  0.00000000E+00  0.00000000E+00  0.00000000E+00  0.00000000E+00
  0.00000000E+00  0.00000000E+00  0.00000000E+00  0.00000000E+00  0.00000000E+00
  0.00000000E+00  0.00000000E+00  0.00000000E+00  0.00000000E+00  0.00000000E+00
  0.00000000E+00  0.00000000E+00  0.00000000E+00  0.00000000E+00  0.00000000E+00
  0.00000000E+00  0.00000000E+00  0.00000000E+00  0.00000000E+00  0.00000000E+00
  0.00000000E+00  0.00000000E+00  0.00000000E+00  0.00000000E+00  0.00000000E+00
  0.00000000E+00  0.00000000E+00  0.00000000E+00  0.00000000E+00  0.00000000E+00
  0.00000000E+00  0.00000000E+00  0.00000000E+00  0.00000000E+00  0.00000000E+00
  0.00000000E+00  0.00000000E+00  0.00000000E+00  0.00000000E+00  0.00000000E+00
  0.00000000E+00  0.00000000E+00  0.00000000E+00  0.00000000E+00  0.00000000E+00
  0.00000000E+00  0.00000000E+00  0.00000000E+00  0.00000000E+00  0.00000000E+00
  0.00000000E+00  0.00000000E+00  0.00000000E+00  0.00000000E+00  0.00000000E+00
  0.00000000E+00  0.00000000E+00  0.00000000E+00  0.00000000E+00  0.00000000E+00
  0.00000000E+00  0.00000000E+00  0.00000000E+00  0.00000000E+00  0.00000000E+00
  0.00000000E+00  0.00000000E+00  0.00000000E+00  0.00000000E+00  0.00000000E+00
  0.00000000E+00  0.00000000E+00  0.00000000E+00  0.00000000E+00  0.00000000E+00
  0.00000000E+00  0.00000000E+00  0.00000000E+00  0.00000000E+00  0.00000000E+00
  0.00000000E+00  0.00000000E+00  0.00000000E+00  0.00000000E+00  0.00000000E+00
  0.00000000E+00  0.00000000E+00  0.00000000E+00  0.00000000E+00  0.00000000E+00
  0.00000000E+00  0.00000000E+00  0.00000000E+00  0.00000000E+00  0.00000000E+00
  0.00000000E+00  0.00000000E+00  0.00000000E+00  0.00000000E+00  0.00000000E+00
  0.00000000E+00  0.00000000E+00  0.00000000E+00  0.00000000E+00  0.00000000E+00
  0.00000000E+00  0.00000000E+00  0.00000000E+00  0.00000000E+00  0.00000000E+00
  0.00000000E+00  0.00000000E+00  0.00000000E+00  0.00000000E+00  0.00000000E+00
  0.00000000E+00  0.00000000E+00  0.00000000E+00  0.00000000E+00  0.00000000E+00
  0.00000000E+00  0.00000000E+00  0.00000000E+00  0.00000000E+00  0.00000000E+00
  0.00000000E+00  0.00000000E+00  0.00000000E+00  0.00000000E+00  0.00000000E+00
  0.00000000E+00  0.00000000E+00  0.00000000E+00  0.00000000E+00  0.00000000E+00
  0.00000000E+00  0.00000000E+00  0.00000000E+00  0.00000000E+00  0.00000000E+00
  0.00000000E+00  0.00000000E+00  0.00000000E+00  0.00000000E+00  0.00000000E+00
  0.00000000E+00  0.00000000E+00  0.00000000E+00  0.00000000E+00  0.00000000E+00
  0.00000000E+00  0.00000000E+00  0.00000000E+00  0.00000000E+00  0.00000000E+00
  0.00000000E+00  0.00000000E+00  0.00000000E+00  0.00000000E+00  0.00000000E+00
  0.00000000E+00  0.00000000E+00  0.00000000E+00  0.00000000E+00  0.00000000E+00
  0.00000000E+00  0.00000000E+00  0.00000000E+00  0.00000000E+00  0.00000000E+00
  0.00000000E+00  0.00000000E+00  0.00000000E+00  0.00000000E+00  0.00000000E+00
  0.00000000E+00  0.00000000E+00  0.00000000E+00  0.00000000E+00  0.00000000E+00
  0.00000000E+00  0.00000000E+00  0.00000000E+00  0.00000000E+00  0.00000000E+00
  0.00000000E+00  0.00000000E+00  0.00000000E+00  0.00000000E+00  0.00000000E+00
  0.00000000E+00  0.00000000E+00  0.00000000E+00  0.00000000E+00  0.00000000E+00
  0.00000000E+00  0.00000000E+00  0.00000000E+00  0.00000000E+00  0.00000000E+00
  0.00000000E+00  0.00000000E+00  0.00000000E+00  0.00000000E+00  0.00000000E+00
  0.00000000E+00  0.00000000E+00  0.00000000E+00  0.00000000E+00  0.00000000E+00
  0.00000000E+00  0.00000000E+00  0.00000000E+00  0.00000000E+00  0.00000000E+00
  0.00000000E+00  0.00000000E+00  0.00000000E+00  0.00000000E+00  0.00000000E+00
  0.00000000E+00  0.00000000E+00  0.00000000E+00  0.00000000E+00  0.00000000E+00
  0.00000000E+00  0.00000000E+00  0.00000000E+00  0.00000000E+00  0.00000000E+00
  0.00000000E+00  0.00000000E+00  0.00000000E+00  0.00000000E+00  0.00000000E+00
  0.00000000E+00  0.00000000E+00  0.00000000E+00  0.00000000E+00  0.00000000E+00
  0.00000000E+00  0.00000000E+00  0.00000000E+00  0.00000000E+00  0.00000000E+00
  0.00000000E+00  0.00000000E+00  0.00000000E+00  0.00000000E+00  0.00000000E+00
  0.00000000E+00  0.00000000E+00  0.00000000E+00  0.00000000E+00  0.00000000E+00
  0.00000000E+00  0.00000000E+00  0.00000000E+00  0.00000000E+00  0.00000000E+00
  0.00000000E+00  0.00000000E+00  0.00000000E+00  0.00000000E+00  0.00000000E+00
  0.00000000E+00  0.00000000E+00  0.00000000E+00  0.00000000E+00  0.00000000E+00
  0.00000000E+00  0.00000000E+00  0.00000000E+00  0.00000000E+00  0.00000000E+00
  0.00000000E+00  0.00000000E+00  0.00000000E+00  0.00000000E+00  0.00000000E+00
  0.00000000E+00  0.00000000E+00  0.00000000E+00  0.00000000E+00  0.00000000E+00
  0.00000000E+00  0.00000000E+00  0.00000000E+00  0.00000000E+00  0.00000000E+00
  0.00000000E+00  0.00000000E+00  0.00000000E+00  0.00000000E+00  0.00000000E+00
  0.00000000E+00  0.00000000E+00  0.00000000E+00  0.00000000E+00  0.00000000E+00
  0.00000000E+00  0.00000000E+00  0.00000000E+00  0.00000000E+00  0.00000000E+00
  0.00000000E+00  0.00000000E+00  0.00000000E+00  0.00000000E+00  0.00000000E+00
  0.00000000E+00  0.00000000E+00  0.00000000E+00  0.00000000E+00  0.00000000E+00
  0.00000000E+00  0.00000000E+00  0.00000000E+00  0.00000000E+00  0.00000000E+00
  0.00000000E+00  0.00000000E+00  0.00000000E+00  0.00000000E+00  0.00000000E+00
  0.00000000E+00  0.00000000E+00  0.00000000E+00  0.00000000E+00  0.00000000E+00
  0.00000000E+00  0.00000000E+00  0.00000000E+00  0.00000000E+00  0.00000000E+00
  0.00000000E+00  0.00000000E+00  0.00000000E+00  0.00000000E+00  0.00000000E+00
  0.00000000E+00  0.00000000E+00  0.00000000E+00  0.00000000E+00  0.00000000E+00
  0.00000000E+00  0.00000000E+00  0.00000000E+00  0.00000000E+00  0.00000000E+00
  0.00000000E+00  0.00000000E+00  0.00000000E+00  0.00000000E+00  0.00000000E+00
  0.00000000E+00  0.00000000E+00  0.00000000E+00  0.00000000E+00  0.00000000E+00
  0.00000000E+00  0.00000000E+00  0.00000000E+00  0.00000000E+00  0.00000000E+00
  0.00000000E+00  0.00000000E+00  0.00000000E+00  0.00000000E+00  0.00000000E+00
  0.00000000E+00  0.00000000E+00  0.00000000E+00  0.00000000E+00  0.00000000E+00
  0.00000000E+00  0.00000000E+00  0.00000000E+00  0.00000000E+00  0.00000000E+00
  0.00000000E+00  0.00000000E+00  0.00000000E+00  0.00000000E+00  0.00000000E+00
  0.00000000E+00  0.00000000E+00  0.00000000E+00  0.00000000E+00  0.00000000E+00
  0.00000000E+00  0.00000000E+00  0.00000000E+00  0.00000000E+00  0.00000000E+00
  0.00000000E+00  0.00000000E+00  0.00000000E+00  0.00000000E+00  0.00000000E+00
  0.00000000E+00  0.00000000E+00  0.00000000E+00  0.00000000E+00  0.00000000E+00
  0.00000000E+00  0.00000000E+00  0.00000000E+00  0.00000000E+00  0.00000000E+00
  0.00000000E+00  0.00000000E+00  0.00000000E+00  0.00000000E+00  0.00000000E+00
  0.00000000E+00  0.00000000E+00  0.00000000E+00  0.00000000E+00  0.00000000E+00
  0.00000000E+00  0.00000000E+00  0.00000000E+00  0.00000000E+00  0.00000000E+00
  0.00000000E+00  0.00000000E+00  0.00000000E+00  0.00000000E+00  0.00000000E+00
  0.00000000E+00  0.00000000E+00  0.00000000E+00  0.00000000E+00  0.00000000E+00
  0.00000000E+00  0.00000000E+00  0.00000000E+00  0.00000000E+00  0.00000000E+00
  0.00000000E+00  0.00000000E+00  0.00000000E+00  0.00000000E+00  0.00000000E+00
  0.00000000E+00  0.00000000E+00  0.00000000E+00  0.00000000E+00  0.00000000E+00
  0.00000000E+00  0.00000000E+00  0.00000000E+00  0.00000000E+00  0.00000000E+00
  0.00000000E+00  0.00000000E+00  0.00000000E+00  0.00000000E+00  0.00000000E+00
  0.00000000E+00  0.00000000E+00  0.00000000E+00  0.00000000E+00  0.00000000E+00
  0.00000000E+00  0.00000000E+00  0.00000000E+00  0.00000000E+00  0.00000000E+00
  0.00000000E+00  0.00000000E+00  0.00000000E+00  0.00000000E+00  0.00000000E+00
  0.00000000E+00  0.00000000E+00  0.00000000E+00  0.00000000E+00  0.00000000E+00
  0.00000000E+00  0.00000000E+00  0.00000000E+00  0.00000000E+00  0.00000000E+00
  0.00000000E+00  0.00000000E+00  0.00000000E+00  0.00000000E+00  0.00000000E+00
  0.00000000E+00  0.00000000E+00  0.00000000E+00  0.00000000E+00  0.00000000E+00
  0.00000000E+00  0.00000000E+00  0.00000000E+00  0.00000000E+00  0.00000000E+00
  0.00000000E+00  0.00000000E+00  0.00000000E+00  0.00000000E+00  0.00000000E+00
  0.00000000E+00  0.00000000E+00  0.00000000E+00  0.00000000E+00  0.00000000E+00
  0.00000000E+00  0.00000000E+00  0.00000000E+00  0.00000000E+00  0.00000000E+00
  0.00000000E+00  0.00000000E+00  0.00000000E+00  0.00000000E+00  0.00000000E+00
  0.00000000E+00  0.00000000E+00  0.00000000E+00  0.00000000E+00  0.00000000E+00
  0.00000000E+00  0.00000000E+00  0.00000000E+00  0.00000000E+00  0.00000000E+00
  0.00000000E+00  0.00000000E+00  0.00000000E+00  0.00000000E+00  0.00000000E+00
  0.00000000E+00  0.00000000E+00  0.00000000E+00  0.00000000E+00  0.00000000E+00
  0.00000000E+00  0.00000000E+00  0.00000000E+00  0.00000000E+00  0.00000000E+00
  0.00000000E+00  0.00000000E+00  0.00000000E+00  0.00000000E+00  0.00000000E+00
  0.00000000E+00  0.00000000E+00  0.00000000E+00  0.00000000E+00  0.00000000E+00
  0.00000000E+00  0.00000000E+00  0.00000000E+00  0.00000000E+00  0.00000000E+00
  0.00000000E+00  0.00000000E+00  0.00000000E+00  0.00000000E+00  0.00000000E+00
  0.00000000E+00  0.00000000E+00  0.00000000E+00  0.00000000E+00  0.00000000E+00
  0.00000000E+00  0.00000000E+00  0.00000000E+00  0.00000000E+00  0.00000000E+00
  0.00000000E+00  0.00000000E+00  0.00000000E+00  0.00000000E+00  0.00000000E+00
  0.00000000E+00  0.00000000E+00  0.00000000E+00  0.00000000E+00  0.00000000E+00
  0.00000000E+00  0.00000000E+00  0.00000000E+00  0.00000000E+00  0.00000000E+00
  0.00000000E+00  0.00000000E+00  0.00000000E+00  0.00000000E+00  0.00000000E+00
  0.00000000E+00  0.00000000E+00  0.00000000E+00  0.00000000E+00  0.00000000E+00
  0.00000000E+00  0.00000000E+00  0.00000000E+00  0.00000000E+00  0.00000000E+00
  0.00000000E+00  0.00000000E+00  0.00000000E+00  0.00000000E+00  0.00000000E+00
  0.00000000E+00  0.00000000E+00  0.00000000E+00  0.00000000E+00  0.00000000E+00
  0.00000000E+00  0.00000000E+00  0.00000000E+00  0.00000000E+00  0.00000000E+00
  0.00000000E+00  0.00000000E+00  0.00000000E+00  0.00000000E+00  0.00000000E+00
  0.00000000E+00  0.00000000E+00  0.00000000E+00  0.00000000E+00  0.00000000E+00
  0.00000000E+00  0.00000000E+00  0.00000000E+00  0.00000000E+00  0.00000000E+00
  0.00000000E+00  0.00000000E+00  0.00000000E+00  0.00000000E+00  0.00000000E+00
  0.00000000E+00  0.00000000E+00  0.00000000E+00  0.00000000E+00  0.00000000E+00
  0.00000000E+00  0.00000000E+00  0.00000000E+00  0.00000000E+00  0.00000000E+00
  0.00000000E+00  0.00000000E+00  0.00000000E+00  0.00000000E+00  0.00000000E+00
  0.00000000E+00  0.00000000E+00  0.00000000E+00  0.00000000E+00  0.00000000E+00
  0.00000000E+00  0.00000000E+00  0.00000000E+00  0.00000000E+00  0.00000000E+00
  0.00000000E+00  0.00000000E+00  0.00000000E+00  0.00000000E+00  0.00000000E+00
  0.00000000E+00  0.00000000E+00  0.00000000E+00  0.00000000E+00  0.00000000E+00
  0.00000000E+00  0.00000000E+00  0.00000000E+00  0.00000000E+00  0.00000000E+00
  0.00000000E+00  0.00000000E+00  0.00000000E+00  0.00000000E+00  0.00000000E+00
  0.00000000E+00  0.00000000E+00  0.00000000E+00  0.00000000E+00  0.00000000E+00
  0.00000000E+00  0.00000000E+00  0.00000000E+00  0.00000000E+00  0.00000000E+00
  0.00000000E+00  0.00000000E+00  0.00000000E+00  0.00000000E+00  0.00000000E+00
  0.00000000E+00  0.00000000E+00  0.00000000E+00  0.00000000E+00  0.00000000E+00
  0.00000000E+00  0.00000000E+00  0.00000000E+00  0.00000000E+00  0.00000000E+00
  0.00000000E+00  0.00000000E+00  0.00000000E+00  0.00000000E+00  0.00000000E+00
  0.00000000E+00  0.00000000E+00  0.00000000E+00  0.00000000E+00  0.00000000E+00
  0.00000000E+00  0.00000000E+00  0.00000000E+00  0.00000000E+00  0.00000000E+00
  0.00000000E+00  0.00000000E+00  0.00000000E+00  0.00000000E+00  0.00000000E+00
  0.00000000E+00  0.00000000E+00  0.00000000E+00  0.00000000E+00  0.00000000E+00
  0.00000000E+00  0.00000000E+00  0.00000000E+00  0.00000000E+00  0.00000000E+00
  0.00000000E+00  0.00000000E+00  0.00000000E+00  0.00000000E+00  0.00000000E+00
  0.00000000E+00  0.00000000E+00  0.00000000E+00  0.00000000E+00  0.00000000E+00
  0.00000000E+00  0.00000000E+00  0.00000000E+00  0.00000000E+00  0.00000000E+00
  0.00000000E+00  0.00000000E+00  0.00000000E+00  0.00000000E+00  0.00000000E+00
  0.00000000E+00  0.00000000E+00  0.00000000E+00  0.00000000E+00  0.00000000E+00
  0.00000000E+00  0.00000000E+00  0.00000000E+00  0.00000000E+00  0.00000000E+00
  0.00000000E+00  0.00000000E+00  0.00000000E+00  0.00000000E+00  0.00000000E+00
  0.00000000E+00  0.00000000E+00  0.00000000E+00  0.00000000E+00  0.00000000E+00
  0.00000000E+00  0.00000000E+00  0.00000000E+00  0.00000000E+00  0.00000000E+00
  0.00000000E+00  0.00000000E+00  0.00000000E+00  0.00000000E+00  0.00000000E+00
  0.00000000E+00  0.00000000E+00  0.00000000E+00  0.00000000E+00  0.00000000E+00
  0.00000000E+00  0.00000000E+00  0.00000000E+00  0.00000000E+00  0.00000000E+00
  0.00000000E+00  0.00000000E+00  0.00000000E+00  0.00000000E+00  0.00000000E+00
  0.00000000E+00  0.00000000E+00  0.00000000E+00  0.00000000E+00  0.00000000E+00
  0.00000000E+00  0.00000000E+00  0.00000000E+00  0.00000000E+00  0.00000000E+00
  0.00000000E+00  0.00000000E+00  0.00000000E+00  0.00000000E+00  0.00000000E+00
  0.00000000E+00  0.00000000E+00  0.00000000E+00  0.00000000E+00  0.00000000E+00
  0.00000000E+00  0.00000000E+00  0.00000000E+00  0.00000000E+00  0.00000000E+00
  0.00000000E+00  0.00000000E+00  0.00000000E+00  0.00000000E+00  0.00000000E+00
  0.00000000E+00  0.00000000E+00  0.00000000E+00  0.00000000E+00  0.00000000E+00
  0.00000000E+00  0.00000000E+00  0.00000000E+00  0.00000000E+00  0.00000000E+00
  0.00000000E+00  0.00000000E+00  0.00000000E+00  0.00000000E+00  0.00000000E+00
  0.00000000E+00  0.00000000E+00  0.00000000E+00  0.00000000E+00  0.00000000E+00
  0.00000000E+00  0.00000000E+00  0.00000000E+00  0.00000000E+00  0.00000000E+00
  0.00000000E+00  0.00000000E+00  0.00000000E+00  0.00000000E+00  0.00000000E+00
  0.00000000E+00  0.00000000E+00  0.00000000E+00  0.00000000E+00  0.00000000E+00
  0.00000000E+00  0.00000000E+00  0.00000000E+00  0.00000000E+00  0.00000000E+00
  0.00000000E+00  0.00000000E+00  0.00000000E+00  0.00000000E+00  0.00000000E+00
  0.00000000E+00  0.00000000E+00  0.00000000E+00  0.00000000E+00  0.00000000E+00
  0.00000000E+00  0.00000000E+00  0.00000000E+00  0.00000000E+00  0.00000000E+00
  0.00000000E+00  0.00000000E+00  0.00000000E+00  0.00000000E+00  0.00000000E+00
  0.00000000E+00  0.00000000E+00  0.00000000E+00  0.00000000E+00  0.00000000E+00
  0.00000000E+00  0.00000000E+00  0.00000000E+00  0.00000000E+00  0.00000000E+00
  0.00000000E+00  0.00000000E+00  0.00000000E+00  0.00000000E+00  0.00000000E+00
  0.00000000E+00  0.00000000E+00  0.00000000E+00  0.00000000E+00  0.00000000E+00
  0.00000000E+00  0.00000000E+00  0.00000000E+00  0.00000000E+00  0.00000000E+00
  0.00000000E+00  0.00000000E+00  0.00000000E+00  0.00000000E+00  0.00000000E+00
  0.00000000E+00  0.00000000E+00  0.00000000E+00  0.00000000E+00  0.00000000E+00
  0.00000000E+00  0.00000000E+00  0.00000000E+00  0.00000000E+00  0.00000000E+00
  0.00000000E+00  0.00000000E+00  0.00000000E+00  0.00000000E+00  0.00000000E+00
  0.00000000E+00  0.00000000E+00  0.00000000E+00  0.00000000E+00  0.00000000E+00
  0.00000000E+00  0.00000000E+00  0.00000000E+00  0.00000000E+00  0.00000000E+00
  0.00000000E+00  0.00000000E+00  0.00000000E+00  0.00000000E+00  0.00000000E+00
  0.00000000E+00  0.00000000E+00  0.00000000E+00  0.00000000E+00  0.00000000E+00
  0.00000000E+00  0.00000000E+00  0.00000000E+00  0.00000000E+00  0.00000000E+00
  0.00000000E+00  0.00000000E+00  0.00000000E+00  0.00000000E+00  0.00000000E+00
  0.00000000E+00  0.00000000E+00  0.00000000E+00  0.00000000E+00  0.00000000E+00
  0.00000000E+00  0.00000000E+00  0.00000000E+00  0.00000000E+00  0.00000000E+00
  0.00000000E+00  0.00000000E+00  0.00000000E+00  0.00000000E+00  0.00000000E+00
  0.00000000E+00  0.00000000E+00  0.00000000E+00  0.00000000E+00  0.00000000E+00
  0.00000000E+00  0.00000000E+00  0.00000000E+00  0.00000000E+00  0.00000000E+00
  0.00000000E+00  0.00000000E+00  0.00000000E+00  0.00000000E+00  0.00000000E+00
  0.00000000E+00  0.00000000E+00  0.00000000E+00  0.00000000E+00  0.00000000E+00
  0.00000000E+00  0.00000000E+00  0.00000000E+00  0.00000000E+00  0.00000000E+00
  0.00000000E+00  0.00000000E+00  0.00000000E+00  0.00000000E+00  0.00000000E+00
  0.00000000E+00  0.00000000E+00  0.00000000E+00  0.00000000E+00  0.00000000E+00
  0.00000000E+00  0.00000000E+00  0.00000000E+00  0.00000000E+00  0.00000000E+00
  0.00000000E+00  0.00000000E+00  0.00000000E+00  0.00000000E+00  0.00000000E+00
  0.00000000E+00  0.00000000E+00  0.00000000E+00  0.00000000E+00  0.00000000E+00
  0.00000000E+00  0.00000000E+00  0.00000000E+00  0.00000000E+00  0.00000000E+00
  0.00000000E+00  0.00000000E+00  0.00000000E+00  0.00000000E+00  0.00000000E+00
  0.00000000E+00  0.00000000E+00  0.00000000E+00  0.00000000E+00  0.00000000E+00
  0.00000000E+00  0.00000000E+00  0.00000000E+00  0.00000000E+00  0.00000000E+00
  0.00000000E+00  0.00000000E+00  0.00000000E+00  0.00000000E+00  0.00000000E+00
  0.00000000E+00  0.00000000E+00  0.00000000E+00  0.00000000E+00  0.00000000E+00
  0.00000000E+00  0.00000000E+00  0.00000000E+00  0.00000000E+00  0.00000000E+00
  0.00000000E+00  0.00000000E+00  0.00000000E+00  0.00000000E+00  0.00000000E+00
  0.00000000E+00  0.00000000E+00  0.00000000E+00  0.00000000E+00  0.00000000E+00
  0.00000000E+00  0.00000000E+00  0.00000000E+00  0.00000000E+00  0.00000000E+00
  0.00000000E+00  0.00000000E+00  0.00000000E+00  0.00000000E+00  0.00000000E+00
  0.00000000E+00  0.00000000E+00  0.00000000E+00  0.00000000E+00  0.00000000E+00
  0.00000000E+00  0.00000000E+00  0.00000000E+00  0.00000000E+00  0.00000000E+00
  0.00000000E+00  0.00000000E+00  0.00000000E+00  0.00000000E+00  0.00000000E+00
  0.00000000E+00  0.00000000E+00  0.00000000E+00  0.00000000E+00  0.00000000E+00
  0.00000000E+00  0.00000000E+00  0.00000000E+00  0.00000000E+00  0.00000000E+00
  0.00000000E+00  0.00000000E+00  0.00000000E+00  0.00000000E+00  0.00000000E+00
  0.00000000E+00  0.00000000E+00  0.00000000E+00  0.00000000E+00  0.00000000E+00
  0.00000000E+00  0.00000000E+00  0.00000000E+00  0.00000000E+00  0.00000000E+00
  0.00000000E+00  0.00000000E+00  0.00000000E+00  0.00000000E+00  0.00000000E+00
  0.00000000E+00  0.00000000E+00  0.00000000E+00  0.00000000E+00  0.00000000E+00
  0.00000000E+00  0.00000000E+00  0.00000000E+00  0.00000000E+00  0.00000000E+00
  0.00000000E+00  0.00000000E+00  0.00000000E+00  0.00000000E+00  0.00000000E+00
  0.00000000E+00  0.00000000E+00  0.00000000E+00  0.00000000E+00  0.00000000E+00
  0.00000000E+00  0.00000000E+00  0.00000000E+00  0.00000000E+00  0.00000000E+00
  0.00000000E+00  0.00000000E+00  0.00000000E+00  0.00000000E+00  0.00000000E+00
  0.00000000E+00  0.00000000E+00  0.00000000E+00  0.00000000E+00  0.00000000E+00
  0.00000000E+00  0.00000000E+00  0.00000000E+00  0.00000000E+00  0.00000000E+00
  0.00000000E+00  0.00000000E+00  0.00000000E+00  0.00000000E+00  0.00000000E+00
  0.00000000E+00  0.00000000E+00  0.00000000E+00  0.00000000E+00  0.00000000E+00
  0.00000000E+00  0.00000000E+00  0.00000000E+00  0.00000000E+00  0.00000000E+00
  0.00000000E+00  0.00000000E+00  0.00000000E+00  0.00000000E+00  0.00000000E+00
  0.00000000E+00  0.00000000E+00  0.00000000E+00  0.00000000E+00  0.00000000E+00
  0.00000000E+00  0.00000000E+00  0.00000000E+00  0.00000000E+00  0.00000000E+00
  0.00000000E+00  0.00000000E+00  0.00000000E+00  0.00000000E+00  0.00000000E+00
  0.00000000E+00  0.00000000E+00  0.00000000E+00  0.00000000E+00  0.00000000E+00
  0.00000000E+00  0.00000000E+00  0.00000000E+00  0.00000000E+00  0.00000000E+00
  0.00000000E+00  0.00000000E+00  0.00000000E+00  0.00000000E+00  0.00000000E+00
  0.00000000E+00  0.00000000E+00  0.00000000E+00  0.00000000E+00  0.00000000E+00
  0.00000000E+00  0.00000000E+00  0.00000000E+00  0.00000000E+00  0.00000000E+00
  0.00000000E+00  0.00000000E+00  0.00000000E+00  0.00000000E+00  0.00000000E+00
  0.00000000E+00  0.00000000E+00  0.00000000E+00  0.00000000E+00  0.00000000E+00
  0.00000000E+00  0.00000000E+00  0.00000000E+00  0.00000000E+00  0.00000000E+00
  0.00000000E+00  0.00000000E+00  0.00000000E+00  0.00000000E+00  0.00000000E+00
  0.00000000E+00  0.00000000E+00  0.00000000E+00  0.00000000E+00  0.00000000E+00
  0.00000000E+00  0.00000000E+00  0.00000000E+00  0.00000000E+00  0.00000000E+00
  0.00000000E+00  0.00000000E+00  0.00000000E+00  0.00000000E+00  0.00000000E+00
  0.00000000E+00  0.00000000E+00  0.00000000E+00  0.00000000E+00  0.00000000E+00
  0.00000000E+00  0.00000000E+00  0.00000000E+00  0.00000000E+00  0.00000000E+00
  0.00000000E+00  0.00000000E+00  0.00000000E+00  0.00000000E+00  0.00000000E+00
  0.00000000E+00  0.00000000E+00  0.00000000E+00  0.00000000E+00  0.00000000E+00
  0.00000000E+00  0.00000000E+00  0.00000000E+00  0.00000000E+00  0.00000000E+00
  0.00000000E+00  0.00000000E+00  0.00000000E+00  0.00000000E+00  0.00000000E+00
  0.00000000E+00  0.00000000E+00  0.00000000E+00  0.00000000E+00  0.00000000E+00
  0.00000000E+00  0.00000000E+00  0.00000000E+00  0.00000000E+00  0.00000000E+00
  0.00000000E+00  0.00000000E+00  0.00000000E+00  0.00000000E+00  0.00000000E+00
  0.00000000E+00  0.00000000E+00  0.00000000E+00  0.00000000E+00  0.00000000E+00
  0.00000000E+00  0.00000000E+00  0.00000000E+00  0.00000000E+00  0.00000000E+00
  0.00000000E+00  0.00000000E+00  0.00000000E+00  0.00000000E+00  0.00000000E+00
  0.00000000E+00  0.00000000E+00  0.00000000E+00  0.00000000E+00  0.00000000E+00
  0.00000000E+00  0.00000000E+00  0.00000000E+00  0.00000000E+00  0.00000000E+00
  0.00000000E+00  0.00000000E+00  0.00000000E+00  0.00000000E+00  0.00000000E+00
  0.00000000E+00  0.00000000E+00  0.00000000E+00  0.00000000E+00  0.00000000E+00
  0.00000000E+00  0.00000000E+00  0.00000000E+00  0.00000000E+00  0.00000000E+00
  0.00000000E+00  0.00000000E+00  0.00000000E+00  0.00000000E+00  0.00000000E+00
  0.00000000E+00  0.00000000E+00  0.00000000E+00  0.00000000E+00  0.00000000E+00
  0.00000000E+00  0.00000000E+00  0.00000000E+00  0.00000000E+00  0.00000000E+00
  0.00000000E+00  0.00000000E+00  0.00000000E+00  0.00000000E+00  0.00000000E+00
  0.00000000E+00  0.00000000E+00  0.00000000E+00  0.00000000E+00  0.00000000E+00
  0.00000000E+00  0.00000000E+00  0.00000000E+00  0.00000000E+00  0.00000000E+00
  0.00000000E+00  0.00000000E+00  0.00000000E+00  0.00000000E+00  0.00000000E+00
  0.00000000E+00  0.00000000E+00  0.00000000E+00  0.00000000E+00  0.00000000E+00
  0.00000000E+00  0.00000000E+00  0.00000000E+00  0.00000000E+00  0.00000000E+00
  0.00000000E+00  0.00000000E+00  0.00000000E+00  0.00000000E+00  0.00000000E+00
  0.00000000E+00  0.00000000E+00  0.00000000E+00  0.00000000E+00  0.00000000E+00
  0.00000000E+00  0.00000000E+00  0.00000000E+00  0.00000000E+00  0.00000000E+00
  0.00000000E+00  0.00000000E+00  0.00000000E+00  0.00000000E+00  0.00000000E+00
  0.00000000E+00  0.00000000E+00  0.00000000E+00  0.00000000E+00  0.00000000E+00
  0.00000000E+00  0.00000000E+00  0.00000000E+00  0.00000000E+00  0.00000000E+00
  0.00000000E+00  0.00000000E+00  0.00000000E+00  0.00000000E+00  0.00000000E+00
  0.00000000E+00  0.00000000E+00  0.00000000E+00  0.00000000E+00  0.00000000E+00
  0.00000000E+00  0.00000000E+00  0.00000000E+00  0.00000000E+00  0.00000000E+00
  0.00000000E+00  0.00000000E+00  0.00000000E+00  0.00000000E+00  0.00000000E+00
  0.00000000E+00  0.00000000E+00  0.00000000E+00  0.00000000E+00  0.00000000E+00
  0.00000000E+00  0.00000000E+00  0.00000000E+00  0.00000000E+00  0.00000000E+00
  0.00000000E+00  0.00000000E+00  0.00000000E+00  0.00000000E+00  0.00000000E+00
  0.00000000E+00  0.00000000E+00  0.00000000E+00  0.00000000E+00  0.00000000E+00
  0.00000000E+00  0.00000000E+00  0.00000000E+00  0.00000000E+00  0.00000000E+00
  0.00000000E+00  0.00000000E+00  0.00000000E+00  0.00000000E+00  0.00000000E+00
  0.00000000E+00  0.00000000E+00  0.00000000E+00  0.00000000E+00  0.00000000E+00
  0.00000000E+00  0.00000000E+00  0.00000000E+00  0.00000000E+00  0.00000000E+00
  0.00000000E+00  0.00000000E+00  0.00000000E+00  0.00000000E+00  0.00000000E+00
  0.00000000E+00  0.00000000E+00  0.00000000E+00  0.00000000E+00  0.00000000E+00
Gaussian Version                           C   N=           2
ES64L-G16RevC.01        
