 Entering Gaussian System, Link 0=g16
 Input=GauExternal.gjf
 Output=GauExternal.log
 Initial command:
 /gaussian/g16.c01/intel64-sandybridge/g16/l1.exe "/home/barone/lcrisci_vb/ACTUAL_PROJECTS/MRCC_new_Interface_project/TestingOldVersion/Symmetry/C2H2ClBr_Cs/Iterations/Iteration_1/task_atom_3_ixyz_1_up/Gau-4156504.inp" -scrdir="/home/barone/lcrisci_vb/ACTUAL_PROJECTS/MRCC_new_Interface_project/TestingOldVersion/Symmetry/C2H2ClBr_Cs/Iterations/Iteration_1/task_atom_3_ixyz_1_up/"
 Entering Link 1 = /gaussian/g16.c01/intel64-sandybridge/g16/l1.exe PID=   4156506.
  
 Copyright (c) 1988-2019, Gaussian, Inc.  All Rights Reserved.
  
 This is part of the Gaussian(R) 16 program.  It is based on
 the Gaussian(R) 09 system (copyright 2009, Gaussian, Inc.),
 the Gaussian(R) 03 system (copyright 2003, Gaussian, Inc.),
 the Gaussian(R) 98 system (copyright 1998, Gaussian, Inc.),
 the Gaussian(R) 94 system (copyright 1995, Gaussian, Inc.),
 the Gaussian 92(TM) system (copyright 1992, Gaussian, Inc.),
 the Gaussian 90(TM) system (copyright 1990, Gaussian, Inc.),
 the Gaussian 88(TM) system (copyright 1988, Gaussian, Inc.),
 the Gaussian 86(TM) system (copyright 1986, Carnegie Mellon
 University), and the Gaussian 82(TM) system (copyright 1983,
 Carnegie Mellon University). Gaussian is a federally registered
 trademark of Gaussian, Inc.
  
 This software contains proprietary and confidential information,
 including trade secrets, belonging to Gaussian, Inc.
  
 This software is provided under written license and may be
 used, copied, transmitted, or stored only in accord with that
 written license.
  
 The following legend is applicable only to US Government
 contracts under FAR:
  
                    RESTRICTED RIGHTS LEGEND
  
 Use, reproduction and disclosure by the US Government is
 subject to restrictions as set forth in subparagraphs (a)
 and (c) of the Commercial Computer Software - Restricted
 Rights clause in FAR 52.227-19.
  
 Gaussian, Inc.
 340 Quinnipiac St., Bldg. 40, Wallingford CT 06492
  
  
 ---------------------------------------------------------------
 Warning -- This program may not be used in any manner that
 competes with the business of Gaussian, Inc. or will provide
 assistance to any competitor of Gaussian, Inc.  The licensee
 of this program is prohibited from giving any competitor of
 Gaussian, Inc. access to this program.  By using this program,
 the user acknowledges that Gaussian, Inc. is engaged in the
 business of creating and licensing software in the field of
 computational chemistry and represents and warrants to the
 licensee that it is not a competitor of Gaussian, Inc. and that
 it will not use this program in any manner prohibited above.
 ---------------------------------------------------------------
  

 Cite this work as:
 Gaussian 16, Revision C.01,
 M. J. Frisch, G. W. Trucks, H. B. Schlegel, G. E. Scuseria, 
 M. A. Robb, J. R. Cheeseman, G. Scalmani, V. Barone, 
 G. A. Petersson, H. Nakatsuji, X. Li, M. Caricato, A. V. Marenich, 
 J. Bloino, B. G. Janesko, R. Gomperts, B. Mennucci, H. P. Hratchian, 
 J. V. Ortiz, A. F. Izmaylov, J. L. Sonnenberg, D. Williams-Young, 
 F. Ding, F. Lipparini, F. Egidi, J. Goings, B. Peng, A. Petrone, 
 T. Henderson, D. Ranasinghe, V. G. Zakrzewski, J. Gao, N. Rega, 
 G. Zheng, W. Liang, M. Hada, M. Ehara, K. Toyota, R. Fukuda, 
 J. Hasegawa, M. Ishida, T. Nakajima, Y. Honda, O. Kitao, H. Nakai, 
 T. Vreven, K. Throssell, J. A. Montgomery, Jr., J. E. Peralta, 
 F. Ogliaro, M. J. Bearpark, J. J. Heyd, E. N. Brothers, K. N. Kudin, 
 V. N. Staroverov, T. A. Keith, R. Kobayashi, J. Normand, 
 K. Raghavachari, A. P. Rendell, J. C. Burant, S. S. Iyengar, 
 J. Tomasi, M. Cossi, J. M. Millam, M. Klene, C. Adamo, R. Cammi, 
 J. W. Ochterski, R. L. Martin, K. Morokuma, O. Farkas, 
 J. B. Foresman, and D. J. Fox, Gaussian, Inc., Wallingford CT, 2019.
 
 ******************************************
 Gaussian 16:  ES64L-G16RevC.01  3-Jul-2019
                19-Nov-2025 
 ******************************************
 %nproc=7
 Will use up to    7 processors via shared memory.
 %mem=55GB
 %chk=GauExternal.chk
 --------------------
 #P hf/sto-3g scf=xqc
 --------------------
 1/38=1,172=1/1;
 2/12=2,17=6,18=5,40=1/2;
 3/6=3,11=9,25=1,30=1/1,2,3;
 4//1;
 5/5=2,8=3,13=1,38=5/2,8;
 6/7=2,8=2,9=2,10=2,28=1/1;
 99/5=1,9=1/99;
 Leave Link    1 at Wed Nov 19 18:19:55 2025, MaxMem=  7381975040 cpu:               0.0 elap:               0.2
 (Enter /gaussian/g16.c01/intel64-sandybridge/g16/l101.exe)
 --------------------
 External Calculation
 --------------------
 Symbolic Z-matrix:
 Charge =  0 Multiplicity = 1
 C                     0.        0.9013    0. 
 H                    -0.2693    1.93686   0. 
 C                     1.30596   0.53573   0. 
 H                     2.06861   1.28522   0. 
 Cl                   -1.2561   -0.33151   0. 
 N                     1.67494  -0.88695   0. 
 
 ITRead=  0  0  0  0  0  0
 MicOpt= -1 -1 -1 -1 -1 -1
 NAtoms=      6 NQM=        6 NQMF=       0 NMMI=      0 NMMIF=      0
                NMic=       0 NMicF=      0.
                    Isotopes and Nuclear Properties:
 (Nuclear quadrupole moments (NQMom) in fm**2, nuclear magnetic moments (NMagM)
  in nuclear magnetons)

  Atom         1           2           3           4           5           6
 IAtWgt=          12           1          12           1          35          14
 AtmWgt=  12.0000000   1.0078250  12.0000000   1.0078250  34.9688527  14.0030740
 NucSpn=           0           1           0           1           3           2
 AtZEff=  -0.0000000  -0.0000000  -0.0000000  -0.0000000  -0.0000000  -0.0000000
 NQMom=    0.0000000   0.0000000   0.0000000   0.0000000  -8.1650000   2.0440000
 NMagM=    0.0000000   2.7928460   0.0000000   2.7928460   0.8218740   0.4037610
 AtZNuc=   6.0000000   1.0000000   6.0000000   1.0000000  17.0000000   7.0000000
 Leave Link  101 at Wed Nov 19 18:19:56 2025, MaxMem=  7381975040 cpu:               0.1 elap:               0.2
 (Enter /gaussian/g16.c01/intel64-sandybridge/g16/l202.exe)
                          Input orientation:                          
 ---------------------------------------------------------------------
 Center     Atomic      Atomic             Coordinates (Angstroms)
 Number     Number       Type             X           Y           Z
 ---------------------------------------------------------------------
      1          6           0        0.000000    0.901301    0.000000
      2          1           0       -0.269305    1.936856    0.000000
      3          6           0        1.305962    0.535731    0.000000
      4          1           0        2.068613    1.285223    0.000000
      5         17           0       -1.256098   -0.331508    0.000000
      6          7           0        1.674942   -0.886948    0.000000
 ---------------------------------------------------------------------
                    Distance matrix (angstroms):
                    1          2          3          4          5
     1  C    0.000000
     2  H    1.070000   0.000000
     3  C    1.356163   2.108226   0.000000
     4  H    2.103938   2.427032   1.069287   0.000000
     5  Cl   1.760000   2.473709   2.704858   3.696961   0.000000
     6  N    2.450156   3.428405   1.469749   2.207556   2.983204
                    6
     6  N    0.000000
 Stoichiometry    C2H2ClN
 Framework group  CS[SG(C2H2ClN)]
 Deg. of freedom     9
 Full point group                 CS      NOp   2
 Largest Abelian subgroup         CS      NOp   2
 Largest concise Abelian subgroup C1      NOp   1
                         Standard orientation:                         
 ---------------------------------------------------------------------
 Center     Atomic      Atomic             Coordinates (Angstroms)
 Number     Number       Type             X           Y           Z
 ---------------------------------------------------------------------
      1          6           0        0.000000    0.901301    0.000000
      2          1           0       -0.269123    1.936903    0.000000
      3          6           0        1.305898    0.535502    0.000000
      4          1           0        2.068680    1.284860    0.000000
      5         17           0       -1.256314   -0.331288    0.000000
      6          7           0        1.674628   -0.887241    0.000000
 ---------------------------------------------------------------------
 Rotational constants (GHZ):          15.2546838           4.2329005           3.3134717
 Leave Link  202 at Wed Nov 19 18:19:56 2025, MaxMem=  7381975040 cpu:               0.0 elap:               0.0
 (Enter /gaussian/g16.c01/intel64-sandybridge/g16/l301.exe)
 Standard basis: STO-3G (5D, 7F)
 Ernie: Thresh=  0.10000D-02 Tol=  0.10000D-05 Strict=F.
 There are    21 symmetry adapted cartesian basis functions of A'  symmetry.
 There are     5 symmetry adapted cartesian basis functions of A"  symmetry.
 There are    21 symmetry adapted basis functions of A'  symmetry.
 There are     5 symmetry adapted basis functions of A"  symmetry.
    26 basis functions,    78 primitive gaussians,    26 cartesian basis functions
    19 alpha electrons       19 beta electrons
       nuclear repulsion energy       127.9708626589 Hartrees.
 IExCor=    0 DFT=F Ex=HF Corr=None ExCW=0 ScaHFX=  1.000000
 ScaDFX=  1.000000  1.000000  1.000000  1.000000 ScalE2=  1.000000  1.000000
 IRadAn=      5 IRanWt=     -1 IRanGd=            0 ICorTp=0 IEmpDi=  4
 NAtoms=    6 NActive=    6 NUniq=    6 SFac= 1.00D+00 NAtFMM=   60 NAOKFM=F Big=F
 Integral buffers will be    131072 words long.
 Raffenetti 1 integral format.
 Two-electron integral symmetry is turned on.
 Leave Link  301 at Wed Nov 19 18:19:56 2025, MaxMem=  7381975040 cpu:               0.0 elap:               0.1
 (Enter /gaussian/g16.c01/intel64-sandybridge/g16/l302.exe)
 NPDir=0 NMtPBC=     1 NCelOv=     1 NCel=       1 NClECP=     1 NCelD=      1
         NCelK=      1 NCelE2=     1 NClLst=     1 CellRange=     0.0.
 One-electron integrals computed using PRISM.
 One-electron integral symmetry used in STVInt
 NBasis=    26 RedAO= T EigKep=  2.01D-01  NBF=    21     5
 NBsUse=    26 1.00D-06 EigRej= -1.00D+00 NBFU=    21     5
 Leave Link  302 at Wed Nov 19 18:19:56 2025, MaxMem=  7381975040 cpu:               0.2 elap:               0.1
 (Enter /gaussian/g16.c01/intel64-sandybridge/g16/l303.exe)
 DipDrv:  MaxL=1.
 Leave Link  303 at Wed Nov 19 18:19:56 2025, MaxMem=  7381975040 cpu:               0.0 elap:               0.1
 (Enter /gaussian/g16.c01/intel64-sandybridge/g16/l401.exe)
 ExpMin= 1.69D-01 ExpMax= 6.01D+02 ExpMxC= 6.01D+02 IAcc=3 IRadAn=         5 AccDes= 0.00D+00
 Harris functional with IExCor=  205 and IRadAn=       5 diagonalized for initial guess.
 HarFok:  IExCor=  205 AccDes= 0.00D+00 IRadAn=         5 IDoV= 1 UseB2=F ITyADJ=14
 ICtDFT=  3500011 ScaDFX=  1.000000  1.000000  1.000000  1.000000
 FoFCou: FMM=F IPFlag=           0 FMFlag=      100000 FMFlg1=           0
         NFxFlg=           0 DoJE=T BraDBF=F KetDBF=T FulRan=T
         wScrn=  0.000000 ICntrl=       500 IOpCl=  0 I1Cent=   200000004 NGrid=           0
         NMat0=    1 NMatS0=      1 NMatT0=    0 NMatD0=    1 NMtDS0=    0 NMtDT0=    0
 Petite list used in FoFCou.
 Harris En= -583.586374766180    
 JPrj=0 DoOrth=F DoCkMO=F.
 Initial guess orbital symmetries:
       Occupied  (A') (A') (A') (A') (A') (A') (A') (A") (A') (A')
                 (A') (A') (A') (A') (A") (A') (A") (A') (A')
       Virtual   (A") (A") (A') (A') (A') (A') (A')
 The electronic state of the initial guess is 1-A'.
 Leave Link  401 at Wed Nov 19 18:19:57 2025, MaxMem=  7381975040 cpu:               0.4 elap:               0.1
 (Enter /gaussian/g16.c01/intel64-sandybridge/g16/l502.exe)
 Keep R1 ints in memory in symmetry-blocked form, NReq=872609.
 FoFCou: FMM=F IPFlag=           0 FMFlag=           0 FMFlg1=           0
         NFxFlg=           0 DoJE=F BraDBF=F KetDBF=F FulRan=T
         wScrn=  0.000000 ICntrl=       600 IOpCl=  0 I1Cent=           0 NGrid=           0
         NMat0=    1 NMatS0=    351 NMatT0=    0 NMatD0=    1 NMtDS0=    0 NMtDT0=    0
 Petite list used in FoFCou.
 Closed shell SCF:
 Using DIIS extrapolation, IDIIS=  1040.
 NGot=  7381975040 LenX=  7381935782 LenY=  7381934665
 Requested convergence on RMS density matrix=1.00D-08 within  32 cycles.
 Requested convergence on MAX density matrix=1.00D-06.
 Requested convergence on             energy=1.00D-06.
 No special actions if energy rises.

 Cycle   1  Pass 1  IDiag  1:
 E= -583.925103395232    
 DIIS: error= 6.91D-02 at cycle   1 NSaved=   1.
 NSaved= 1 IEnMin= 1 EnMin= -583.925103395232     IErMin= 1 ErrMin= 6.91D-02
 ErrMax= 6.91D-02  0.00D+00 EMaxC= 1.00D-01 BMatC= 8.44D-02 BMatP= 8.44D-02
 IDIUse=3 WtCom= 3.09D-01 WtEn= 6.91D-01
 Coeff-Com:  0.100D+01
 Coeff-En:   0.100D+01
 Coeff:      0.100D+01
 Gap=     0.287 Goal=   None    Shift=    0.000
 GapD=    0.287 DampG=1.000 DampE=0.500 DampFc=0.5000 IDamp=-1.
 Damping current iteration by 5.00D-01
 RMSDP=2.29D-02 MaxDP=1.95D-01              OVMax= 0.00D+00

 Cycle   2  Pass 1  IDiag  1:
 E= -584.006350601812     Delta-E=       -0.081247206580 Rises=F Damp=T
 DIIS: error= 3.27D-02 at cycle   2 NSaved=   2.
 NSaved= 2 IEnMin= 2 EnMin= -584.006350601812     IErMin= 2 ErrMin= 3.27D-02
 ErrMax= 3.27D-02  0.00D+00 EMaxC= 1.00D-01 BMatC= 1.93D-02 BMatP= 8.44D-02
 IDIUse=3 WtCom= 6.73D-01 WtEn= 3.27D-01
 Coeff-Com: -0.772D+00 0.177D+01
 Coeff-En:   0.000D+00 0.100D+01
 Coeff:     -0.519D+00 0.152D+01
 Gap=     0.421 Goal=   None    Shift=    0.000
 RMSDP=1.14D-02 MaxDP=1.06D-01 DE=-8.12D-02 OVMax= 0.00D+00

 Cycle   3  Pass 1  IDiag  1:
 E= -584.091875351084     Delta-E=       -0.085524749273 Rises=F Damp=F
 DIIS: error= 5.59D-03 at cycle   3 NSaved=   3.
 NSaved= 3 IEnMin= 3 EnMin= -584.091875351084     IErMin= 3 ErrMin= 5.59D-03
 ErrMax= 5.59D-03  0.00D+00 EMaxC= 1.00D-01 BMatC= 9.58D-04 BMatP= 1.93D-02
 IDIUse=3 WtCom= 9.44D-01 WtEn= 5.59D-02
 Coeff-Com:  0.240D-01-0.659D-01 0.104D+01
 Coeff-En:   0.000D+00 0.000D+00 0.100D+01
 Coeff:      0.227D-01-0.622D-01 0.104D+01
 Gap=     0.444 Goal=   None    Shift=    0.000
 RMSDP=2.94D-03 MaxDP=1.83D-02 DE=-8.55D-02 OVMax= 0.00D+00

 Cycle   4  Pass 1  IDiag  1:
 E= -584.095257429539     Delta-E=       -0.003382078454 Rises=F Damp=F
 DIIS: error= 2.83D-03 at cycle   4 NSaved=   4.
 NSaved= 4 IEnMin= 4 EnMin= -584.095257429539     IErMin= 4 ErrMin= 2.83D-03
 ErrMax= 2.83D-03  0.00D+00 EMaxC= 1.00D-01 BMatC= 2.40D-04 BMatP= 9.58D-04
 IDIUse=3 WtCom= 9.72D-01 WtEn= 2.83D-02
 Coeff-Com:  0.188D+00-0.405D+00-0.496D-01 0.127D+01
 Coeff-En:   0.000D+00 0.000D+00 0.000D+00 0.100D+01
 Coeff:      0.182D+00-0.393D+00-0.482D-01 0.126D+01
 Gap=     0.456 Goal=   None    Shift=    0.000
 RMSDP=1.89D-03 MaxDP=1.27D-02 DE=-3.38D-03 OVMax= 0.00D+00

 Cycle   5  Pass 1  IDiag  1:
 E= -584.096148402483     Delta-E=       -0.000890972944 Rises=F Damp=F
 DIIS: error= 5.86D-04 at cycle   5 NSaved=   5.
 NSaved= 5 IEnMin= 5 EnMin= -584.096148402483     IErMin= 5 ErrMin= 5.86D-04
 ErrMax= 5.86D-04  0.00D+00 EMaxC= 1.00D-01 BMatC= 8.24D-06 BMatP= 2.40D-04
 IDIUse=3 WtCom= 9.94D-01 WtEn= 5.86D-03
 Coeff-Com: -0.334D-01 0.711D-01-0.230D-01-0.238D+00 0.122D+01
 Coeff-En:   0.000D+00 0.000D+00 0.000D+00 0.000D+00 0.100D+01
 Coeff:     -0.332D-01 0.707D-01-0.228D-01-0.236D+00 0.122D+01
 Gap=     0.455 Goal=   None    Shift=    0.000
 RMSDP=3.58D-04 MaxDP=2.88D-03 DE=-8.91D-04 OVMax= 0.00D+00

 Cycle   6  Pass 1  IDiag  1:
 E= -584.096185430384     Delta-E=       -0.000037027901 Rises=F Damp=F
 DIIS: error= 1.68D-04 at cycle   6 NSaved=   6.
 NSaved= 6 IEnMin= 6 EnMin= -584.096185430384     IErMin= 6 ErrMin= 1.68D-04
 ErrMax= 1.68D-04  0.00D+00 EMaxC= 1.00D-01 BMatC= 7.36D-07 BMatP= 8.24D-06
 IDIUse=3 WtCom= 9.98D-01 WtEn= 1.68D-03
 Coeff-Com:  0.933D-02-0.188D-01 0.112D-01 0.752D-02-0.354D+00 0.134D+01
 Coeff-En:   0.000D+00 0.000D+00 0.000D+00 0.000D+00 0.000D+00 0.100D+01
 Coeff:      0.931D-02-0.188D-01 0.111D-01 0.751D-02-0.353D+00 0.134D+01
 Gap=     0.456 Goal=   None    Shift=    0.000
 RMSDP=1.20D-04 MaxDP=9.50D-04 DE=-3.70D-05 OVMax= 0.00D+00

 Cycle   7  Pass 1  IDiag  1:
 E= -584.096187971883     Delta-E=       -0.000002541499 Rises=F Damp=F
 DIIS: error= 3.16D-05 at cycle   7 NSaved=   7.
 NSaved= 7 IEnMin= 7 EnMin= -584.096187971883     IErMin= 7 ErrMin= 3.16D-05
 ErrMax= 3.16D-05  0.00D+00 EMaxC= 1.00D-01 BMatC= 3.07D-08 BMatP= 7.36D-07
 IDIUse=1 WtCom= 1.00D+00 WtEn= 0.00D+00
 Coeff-Com:  0.693D-03-0.148D-02 0.374D-02 0.673D-02 0.399D-01-0.310D+00
 Coeff-Com:  0.126D+01
 Coeff:      0.693D-03-0.148D-02 0.374D-02 0.673D-02 0.399D-01-0.310D+00
 Coeff:      0.126D+01
 Gap=     0.456 Goal=   None    Shift=    0.000
 RMSDP=1.93D-05 MaxDP=1.53D-04 DE=-2.54D-06 OVMax= 0.00D+00

 Cycle   8  Pass 1  IDiag  1:
 E= -584.096188066684     Delta-E=       -0.000000094801 Rises=F Damp=F
 DIIS: error= 9.89D-06 at cycle   8 NSaved=   8.
 NSaved= 8 IEnMin= 8 EnMin= -584.096188066684     IErMin= 8 ErrMin= 9.89D-06
 ErrMax= 9.89D-06  0.00D+00 EMaxC= 1.00D-01 BMatC= 2.46D-09 BMatP= 3.07D-08
 IDIUse=1 WtCom= 1.00D+00 WtEn= 0.00D+00
 Coeff-Com: -0.206D-03 0.351D-03-0.137D-03-0.112D-02 0.210D-01-0.815D-01
 Coeff-Com: -0.802D-01 0.114D+01
 Coeff:     -0.206D-03 0.351D-03-0.137D-03-0.112D-02 0.210D-01-0.815D-01
 Coeff:     -0.802D-01 0.114D+01
 Gap=     0.456 Goal=   None    Shift=    0.000
 RMSDP=4.99D-06 MaxDP=4.45D-05 DE=-9.48D-08 OVMax= 0.00D+00

 Cycle   9  Pass 1  IDiag  1:
 E= -584.096188073485     Delta-E=       -0.000000006801 Rises=F Damp=F
 DIIS: error= 2.65D-06 at cycle   9 NSaved=   9.
 NSaved= 9 IEnMin= 9 EnMin= -584.096188073485     IErMin= 9 ErrMin= 2.65D-06
 ErrMax= 2.65D-06  0.00D+00 EMaxC= 1.00D-01 BMatC= 1.78D-10 BMatP= 2.46D-09
 IDIUse=1 WtCom= 1.00D+00 WtEn= 0.00D+00
 Coeff-Com:  0.153D-03-0.318D-03-0.588D-04-0.624D-03-0.955D-02 0.523D-01
 Coeff-Com: -0.139D+00-0.979D-01 0.119D+01
 Coeff:      0.153D-03-0.318D-03-0.588D-04-0.624D-03-0.955D-02 0.523D-01
 Coeff:     -0.139D+00-0.979D-01 0.119D+01
 Gap=     0.456 Goal=   None    Shift=    0.000
 RMSDP=1.57D-06 MaxDP=1.50D-05 DE=-6.80D-09 OVMax= 0.00D+00

 Cycle  10  Pass 1  IDiag  1:
 E= -584.096188073995     Delta-E=       -0.000000000510 Rises=F Damp=F
 DIIS: error= 5.21D-07 at cycle  10 NSaved=  10.
 NSaved=10 IEnMin=10 EnMin= -584.096188073995     IErMin=10 ErrMin= 5.21D-07
 ErrMax= 5.21D-07  0.00D+00 EMaxC= 1.00D-01 BMatC= 1.06D-11 BMatP= 1.78D-10
 IDIUse=1 WtCom= 1.00D+00 WtEn= 0.00D+00
 Coeff-Com:  0.186D-05-0.301D-05 0.140D-03 0.283D-03 0.151D-02-0.116D-01
 Coeff-Com:  0.397D-01 0.256D-01-0.520D+00 0.146D+01
 Coeff:      0.186D-05-0.301D-05 0.140D-03 0.283D-03 0.151D-02-0.116D-01
 Coeff:      0.397D-01 0.256D-01-0.520D+00 0.146D+01
 Gap=     0.456 Goal=   None    Shift=    0.000
 RMSDP=3.92D-07 MaxDP=3.56D-06 DE=-5.10D-10 OVMax= 0.00D+00

 Cycle  11  Pass 1  IDiag  1:
 E= -584.096188074025     Delta-E=       -0.000000000030 Rises=F Damp=F
 DIIS: error= 1.20D-07 at cycle  11 NSaved=  11.
 NSaved=11 IEnMin=11 EnMin= -584.096188074025     IErMin=11 ErrMin= 1.20D-07
 ErrMax= 1.20D-07  0.00D+00 EMaxC= 1.00D-01 BMatC= 2.97D-13 BMatP= 1.06D-11
 IDIUse=1 WtCom= 1.00D+00 WtEn= 0.00D+00
 Coeff-Com: -0.604D-05 0.132D-04-0.454D-04-0.924D-04 0.853D-04 0.106D-02
 Coeff-Com: -0.674D-02-0.541D-02 0.142D+00-0.545D+00 0.141D+01
 Coeff:     -0.604D-05 0.132D-04-0.454D-04-0.924D-04 0.853D-04 0.106D-02
 Coeff:     -0.674D-02-0.541D-02 0.142D+00-0.545D+00 0.141D+01
 Gap=     0.456 Goal=   None    Shift=    0.000
 RMSDP=6.65D-08 MaxDP=4.29D-07 DE=-3.05D-11 OVMax= 0.00D+00

 Cycle  12  Pass 1  IDiag  1:
 E= -584.096188074026     Delta-E=       -0.000000000001 Rises=F Damp=F
 DIIS: error= 1.26D-08 at cycle  12 NSaved=  12.
 NSaved=12 IEnMin=12 EnMin= -584.096188074026     IErMin=12 ErrMin= 1.26D-08
 ErrMax= 1.26D-08  0.00D+00 EMaxC= 1.00D-01 BMatC= 7.48D-15 BMatP= 2.97D-13
 IDIUse=1 WtCom= 1.00D+00 WtEn= 0.00D+00
 Coeff-Com: -0.198D-06 0.145D-06 0.774D-05 0.147D-04-0.162D-04-0.152D-03
 Coeff-Com:  0.107D-02 0.294D-02-0.327D-01 0.115D+00-0.333D+00 0.125D+01
 Coeff:     -0.198D-06 0.145D-06 0.774D-05 0.147D-04-0.162D-04-0.152D-03
 Coeff:      0.107D-02 0.294D-02-0.327D-01 0.115D+00-0.333D+00 0.125D+01
 Gap=     0.456 Goal=   None    Shift=    0.000
 RMSDP=8.48D-09 MaxDP=5.72D-08 DE=-9.09D-13 OVMax= 0.00D+00

 SCF Done:  E(RHF) =  -584.096188074     A.U. after   12 cycles
            NFock= 12  Conv=0.85D-08     -V/T= 2.0156
 KE= 5.750997680228D+02 PE=-1.634778805328D+03 EE= 3.476119865724D+02
 Leave Link  502 at Wed Nov 19 18:19:57 2025, MaxMem=  7381975040 cpu:               0.7 elap:               0.5
 (Enter /gaussian/g16.c01/intel64-sandybridge/g16/l508.exe)
 QCSCF skips out because SCF is already converged.
 Leave Link  508 at Wed Nov 19 18:19:57 2025, MaxMem=  7381975040 cpu:               0.0 elap:               0.0
 (Enter /gaussian/g16.c01/intel64-sandybridge/g16/l601.exe)
 Copying SCF densities to generalized density rwf, IOpCl= 0 IROHF=0.

 **********************************************************************

            Population analysis using the SCF Density.

 **********************************************************************

 Orbital symmetries:
       Occupied  (A') (A') (A') (A') (A') (A') (A") (A') (A') (A')
                 (A') (A') (A') (A') (A") (A') (A') (A") (A')
       Virtual   (A") (A') (A") (A') (A') (A') (A')
 The electronic state is 1-A'.
 Alpha  occ. eigenvalues -- -103.74222 -15.31699 -11.15536 -11.07537 -10.42084
 Alpha  occ. eigenvalues --   -7.86514  -7.85952  -7.85911  -1.12499  -1.02816
 Alpha  occ. eigenvalues --   -0.90366  -0.71397  -0.65019  -0.52563  -0.47798
 Alpha  occ. eigenvalues --   -0.43220  -0.41102  -0.35409  -0.31111
 Alpha virt. eigenvalues --    0.14499   0.33513   0.34760   0.59420   0.64805
 Alpha virt. eigenvalues --    0.84353   0.89538
          Condensed to atoms (all electrons):
               1          2          3          4          5          6
     1  C    4.831345   0.388578   0.560866  -0.032156   0.251311  -0.025745
     2  H    0.388578   0.541754  -0.026035  -0.002833  -0.020361   0.000844
     3  C    0.560866  -0.026035   4.855827   0.388991  -0.029758   0.298431
     4  H   -0.032156  -0.002833   0.388991   0.590134   0.001015  -0.020194
     5  Cl   0.251311  -0.020361  -0.029758   0.001015  16.886835  -0.002583
     6  N   -0.025745   0.000844   0.298431  -0.020194  -0.002583   6.833363
 Mulliken charges:
               1
     1  C    0.025801
     2  H    0.118054
     3  C   -0.048322
     4  H    0.075042
     5  Cl  -0.086459
     6  N   -0.084116
 Sum of Mulliken charges =   0.00000
 Mulliken charges with hydrogens summed into heavy atoms:
               1
     1  C    0.143855
     3  C    0.026720
     5  Cl  -0.086459
     6  N   -0.084116
 Electronic spatial extent (au):  <R**2>=            350.1705
 Charge=              0.0000 electrons
 Dipole moment (field-independent basis, Debye):
    X=              0.0983    Y=              2.9386    Z=              0.0000  Tot=              2.9402
 Quadrupole moment (field-independent basis, Debye-Ang):
   XX=            -30.7924   YY=            -27.0814   ZZ=            -26.8461
   XY=              1.7693   XZ=              0.0000   YZ=              0.0000
 Traceless Quadrupole moment (field-independent basis, Debye-Ang):
   XX=             -2.5524   YY=              1.1586   ZZ=              1.3938
   XY=              1.7693   XZ=              0.0000   YZ=              0.0000
 Octapole moment (field-independent basis, Debye-Ang**2):
  XXX=             -7.5528  YYY=              3.4427  ZZZ=              0.0000  XYY=             -4.2984
  XXY=              3.9113  XXZ=              0.0000  XZZ=              0.4529  YZZ=             -2.3768
  YYZ=              0.0000  XYZ=              0.0000
 Hexadecapole moment (field-independent basis, Debye-Ang**3):
 XXXX=           -299.5760 YYYY=           -101.8819 ZZZZ=            -21.0002 XXXY=              6.6139
 XXXZ=              0.0000 YYYX=             -3.1073 YYYZ=              0.0000 ZZZX=              0.0000
 ZZZY=              0.0000 XXYY=            -66.9015 XXZZ=            -48.2925 YYZZ=            -21.2100
 XXYZ=              0.0000 YYXZ=              0.0000 ZZXY=             -4.7364
 N-N= 1.279708626589D+02 E-N=-1.634778805233D+03  KE= 5.750997680228D+02
 Symmetry A'   KE= 5.296572452039D+02
 Symmetry A"   KE= 4.544252281891D+01
 No NMR shielding tensors so no spin-rotation constants.
 Leave Link  601 at Wed Nov 19 18:19:57 2025, MaxMem=  7381975040 cpu:               0.3 elap:               0.1
 (Enter /gaussian/g16.c01/intel64-sandybridge/g16/l9999.exe)
 Unable to Open any file for archive entry.
 1\1\GINC-THIOTIMOLINE-LARGE01\SP\RHF\STO-3G\C2H2Cl1N1\LCRISCI_VB\19-No
 v-2025\0\\#P hf/sto-3g scf=xqc\\External Calculation\\0,1\C,0,0.,0.901
 3007805,0.\H,0,-0.2693048896,1.9368561278,0.\C,0,1.3059619618,0.535730
 9357,0.\H,0,2.0686126068,1.2852225653,0.\Cl,0,-1.2560982621,-0.3315078
 623,0.\N,0,1.6749415669,-0.8869479044,0.\\Version=ES64L-G16RevC.01\Sta
 te=1-A'\HF=-584.0961881\RMSD=8.484e-09\Dipole=0.0384559,1.1561381,0.\Q
 uadrupole=-1.8981066,0.8618246,1.036282,1.3149254,0.,0.\PG=CS [SG(C2H2
 Cl1N1)]\\@
 The archive entry for this job was punched.


 MAN IS A SINGULAR CREATURE.  HE HAS A SET OF GIFTS
 WHICH MAKE HIM UNIQUE AMONG THE ANIMALS: SO THAT, 
 UNLIKE THEM, HE IS NOT A FIGURE IN THE LANDSCAPE --
 HE IS A SHAPER OF THE LANDSCAPE.

                       -- JACOB BRONOWSKI
 Job cpu time:       0 days  0 hours  0 minutes  2.0 seconds.
 Elapsed time:       0 days  0 hours  0 minutes  1.6 seconds.
 File lengths (MBytes):  RWF=      5 Int=      0 D2E=      0 Chk=      1 Scr=      1
 Normal termination of Gaussian 16 at Wed Nov 19 18:19:58 2025.
