External Calculation                                                    
SP        RHF                                                         STO-3G              
Number of atoms                            I                6
Info1-9                                    I   N=           9
          20          15           0           0           0         110
           1           1           2
Full Title                                 C   N=           2
External Calculation    
Route                                      C   N=           2
#P hf/sto-3g scf=xqc    
Charge                                     I                0
Multiplicity                               I                1
Number of electrons                        I               46
Number of alpha electrons                  I               23
Number of beta electrons                   I               23
Number of basis functions                  I               30
Number of independent functions            I               30
Number of point charges in /Mol/           I                0
Number of translation vectors              I                0
Atomic numbers                             I   N=           6
           6           1           6           1          16          16
Nuclear charges                            R   N=           6
  6.00000000E+00  1.00000000E+00  6.00000000E+00  1.00000000E+00  1.60000000E+01
  1.60000000E+01
Current cartesian coordinates              R   N=          18
  7.22346876E-01 -1.05730759E+00  0.00000000E+00  2.73636139E+00 -9.00329185E-01
  0.00000000E+00 -7.22264714E-01  1.05730759E+00  0.00000000E+00 -2.73816895E+00
  9.00329185E-01  0.00000000E+00  7.22346876E-01  4.09501382E+00  0.00000000E+00
 -7.22264714E-01 -4.09501382E+00  0.00000000E+00
Number of symbols in /Mol/                 I                0
Int Atom Types                             I   N=           6
           0           0           0           0           0           0
Force Field                                I                0
Atom Types                                 C   N=           6
                                                            
            
MM charges                                 R   N=           6
  0.00000000E+00  0.00000000E+00  0.00000000E+00  0.00000000E+00  0.00000000E+00
  0.00000000E+00
Integer atomic weights                     I   N=           6
          12           1          12           1          32          32
Real atomic weights                        R   N=           6
  1.20000000E+01  1.00782504E+00  1.20000000E+01  1.00782504E+00  3.19720718E+01
  3.19720718E+01
Atom fragment info                         I   N=           6
           0           0           0           0           0           0
Atom residue num                           I   N=           6
           0           0           0           0           0           0
Nuclear spins                              I   N=           6
           0           1           0           1           0           0
Nuclear ZEff                               R   N=           6
 -3.60000000E+00 -1.00000000E+00 -3.60000000E+00 -1.00000000E+00 -1.36000000E+01
 -1.36000000E+01
Nuclear ZNuc                               R   N=           6
  6.00000000E+00  1.00000000E+00  6.00000000E+00  1.00000000E+00  1.60000000E+01
  1.60000000E+01
Nuclear QMom                               R   N=           6
  0.00000000E+00  0.00000000E+00  0.00000000E+00  0.00000000E+00  0.00000000E+00
  0.00000000E+00
Nuclear GFac                               R   N=           6
  0.00000000E+00  2.79284600E+00  0.00000000E+00  2.79284600E+00  0.00000000E+00
  0.00000000E+00
MicOpt                                     I   N=           6
          -1          -1          -1          -1          -1          -1
Number of residues                         I                0
Number of secondary structures             I                0
SymInf integers                            I   N=          26
           1           2           1           1           1           1
           1          -1           0           0           0           0
           0           0           0           0           0           0
           0           0           0           0           0           0
           0           0
RotTr to input orientation                 R   N=          12
 -1.00000000E+00  1.11022302E-16  0.00000000E+00 -1.11022302E-16 -1.00000000E+00
  0.00000000E+00  0.00000000E+00  0.00000000E+00  1.00000000E+00  4.10810027E-05
  0.00000000E+00  0.00000000E+00
Number of contracted shells                I               12
Number of primitive shells                 I               36
Pure/Cartesian d shells                    I                0
Pure/Cartesian f shells                    I                0
Highest angular momentum                   I                1
Largest degree of contraction              I                3
Shell types                                I   N=          12
           0          -1           0           0          -1           0
           0          -1          -1           0          -1          -1
Number of primitives per shell             I   N=          12
           3           3           3           3           3           3
           3           3           3           3           3           3
Shell to atom map                          I   N=          12
           1           1           2           3           3           4
           5           5           5           6           6           6
Primitive exponents                        R   N=          36
  7.16168373E+01  1.30450963E+01  3.53051216E+00  2.94124936E+00  6.83483096E-01
  2.22289916E-01  3.42525091E+00  6.23913730E-01  1.68855404E-01  7.16168373E+01
  1.30450963E+01  3.53051216E+00  2.94124936E+00  6.83483096E-01  2.22289916E-01
  3.42525091E+00  6.23913730E-01  1.68855404E-01  5.33125736E+02  9.71095183E+01
  2.62816254E+01  3.33297517E+01  7.74511752E+00  2.51895260E+00  2.02919427E+00
  5.66140052E-01  2.21583379E-01  5.33125736E+02  9.71095183E+01  2.62816254E+01
  3.33297517E+01  7.74511752E+00  2.51895260E+00  2.02919427E+00  5.66140052E-01
  2.21583379E-01
Contraction coefficients                   R   N=          36
  1.54328967E-01  5.35328142E-01  4.44634542E-01 -9.99672292E-02  3.99512826E-01
  7.00115469E-01  1.54328967E-01  5.35328142E-01  4.44634542E-01  1.54328967E-01
  5.35328142E-01  4.44634542E-01 -9.99672292E-02  3.99512826E-01  7.00115469E-01
  1.54328967E-01  5.35328142E-01  4.44634542E-01  1.54328967E-01  5.35328142E-01
  4.44634542E-01 -9.99672292E-02  3.99512826E-01  7.00115469E-01 -2.19620369E-01
  2.25595434E-01  9.00398426E-01  1.54328967E-01  5.35328142E-01  4.44634542E-01
 -9.99672292E-02  3.99512826E-01  7.00115469E-01 -2.19620369E-01  2.25595434E-01
  9.00398426E-01
P(S=P) Contraction coefficients            R   N=          36
  0.00000000E+00  0.00000000E+00  0.00000000E+00  1.55916275E-01  6.07683719E-01
  3.91957393E-01  0.00000000E+00  0.00000000E+00  0.00000000E+00  0.00000000E+00
  0.00000000E+00  0.00000000E+00  1.55916275E-01  6.07683719E-01  3.91957393E-01
  0.00000000E+00  0.00000000E+00  0.00000000E+00  0.00000000E+00  0.00000000E+00
  0.00000000E+00  1.55916275E-01  6.07683719E-01  3.91957393E-01  1.05876043E-02
  5.95167005E-01  4.62001012E-01  0.00000000E+00  0.00000000E+00  0.00000000E+00
  1.55916275E-01  6.07683719E-01  3.91957393E-01  1.05876043E-02  5.95167005E-01
  4.62001012E-01
Coordinates of each shell                  R   N=          36
  7.22346876E-01 -1.05730759E+00  0.00000000E+00  7.22346876E-01 -1.05730759E+00
  0.00000000E+00  2.73636139E+00 -9.00329185E-01  0.00000000E+00 -7.22264714E-01
  1.05730759E+00  0.00000000E+00 -7.22264714E-01  1.05730759E+00  0.00000000E+00
 -2.73816895E+00  9.00329185E-01  0.00000000E+00  7.22346876E-01  4.09501382E+00
  0.00000000E+00  7.22346876E-01  4.09501382E+00  0.00000000E+00  7.22346876E-01
  4.09501382E+00  0.00000000E+00 -7.22264714E-01 -4.09501382E+00  0.00000000E+00
 -7.22264714E-01 -4.09501382E+00  0.00000000E+00 -7.22264714E-01 -4.09501382E+00
  0.00000000E+00
Num ILSW                                   I              100
ILSW                                       I   N=         100
           0           0           0           0           2           0
           0           0           0           0           0          -1
           5           0           0           0           0           0
           0           0           0           0           0           0
           1           0           0           0           0           0
           0           0      100000           0          -1           0
           0           0           0           0           0           0
           0           0           0           1           0           0
           0 -2000000000           1           0           0           0
           0           0           4          52           0           0
           0           0           0           0           0           0
           0           0           0           6           0           1
           0           0           0           0           0           0
           0           0           0           0           0           0
           0           0           0           0           0           0
           0           0           0           0           0           0
           0           0           0           0
Num RLSW                                   I               52
RLSW                                       R   N=          52
  1.00000000E+00  1.00000000E+00  1.00000000E+00  1.00000000E+00  1.00000000E+00
  0.00000000E+00  0.00000000E+00  1.00000000E+00  0.00000000E+00  0.00000000E+00
  0.00000000E+00  0.00000000E+00  1.00000000E+00  0.00000000E+00  0.00000000E+00
  0.00000000E+00  0.00000000E+00  1.00000000E+00  0.00000000E+00  0.00000000E+00
  0.00000000E+00  0.00000000E+00  1.00000000E+00  0.00000000E+00  0.00000000E+00
  0.00000000E+00  0.00000000E+00  1.00000000E+00  0.00000000E+00  0.00000000E+00
  0.00000000E+00  0.00000000E+00  1.00000000E+00  0.00000000E+00  0.00000000E+00
  0.00000000E+00  0.00000000E+00  0.00000000E+00  1.00000000E+00  1.00000000E+00
  0.00000000E+00  1.00000000E+00  0.00000000E+00  0.00000000E+00  0.00000000E+00
  0.00000000E+00  0.00000000E+00  0.00000000E+00  0.00000000E+00  0.00000000E+00
  0.00000000E+00  0.00000000E+00
MxBond                                     I                3
NBond                                      I   N=           6
           3           1           3           1           1           1
IBond                                      I   N=          18
           2           3           6           1           0           0
           1           4           5           3           0           0
           3           0           0           1           0           0
RBond                                      R   N=          18
  1.00000000E+00  2.00000000E+00  1.00000000E+00  1.00000000E+00  0.00000000E+00
  0.00000000E+00  2.00000000E+00  1.00000000E+00  1.00000000E+00  1.00000000E+00
  0.00000000E+00  0.00000000E+00  1.00000000E+00  0.00000000E+00  0.00000000E+00
  1.00000000E+00  0.00000000E+00  0.00000000E+00
Virial Ratio                               R      2.010922923735912E+00
SCF Energy                                 R     -8.621595292155760E+02
Total Energy                               R     -8.621595292155760E+02
RMS Density                                R      4.786157768362977E-09
Job Status                                 I                1
Nuclear derivative order                   I                0
External E-field                           R   N=          35
  0.00000000E+00  0.00000000E+00  0.00000000E+00  0.00000000E+00  0.00000000E+00
  0.00000000E+00  0.00000000E+00  0.00000000E+00  0.00000000E+00  0.00000000E+00
  0.00000000E+00  0.00000000E+00  0.00000000E+00  0.00000000E+00  0.00000000E+00
  0.00000000E+00  0.00000000E+00  0.00000000E+00  0.00000000E+00  0.00000000E+00
  0.00000000E+00  0.00000000E+00  0.00000000E+00  0.00000000E+00  0.00000000E+00
  0.00000000E+00  0.00000000E+00  0.00000000E+00  0.00000000E+00  0.00000000E+00
  0.00000000E+00  0.00000000E+00  0.00000000E+00  0.00000000E+00  0.00000000E+00
IOpCl                                      I                0
IROHF                                      I                0
Alpha Orbital Energies                     R   N=          30
 -9.07031094E+01 -9.07030575E+01 -1.10470725E+01 -1.10466215E+01 -8.61378175E+00
 -8.61371863E+00 -6.24458945E+00 -6.24454141E+00 -6.24437110E+00 -6.24431091E+00
 -6.24053784E+00 -6.24048968E+00 -1.02992903E+00 -8.75142901E-01 -7.52950218E-01
 -7.08362593E-01 -5.46540946E-01 -4.64048482E-01 -3.75988890E-01 -3.61303473E-01
 -2.52709593E-01 -2.45700645E-01 -1.93350421E-01  7.59318413E-02  3.18097511E-01
  4.48521537E-01  5.22341208E-01  6.58569285E-01  8.58714474E-01  9.22145694E-01
Alpha MO coefficients                      R   N=         900
 -6.57644270E-05  4.70977144E-04 -1.96658594E-04 -3.99444243E-04  0.00000000E+00
  1.07362208E-05  8.67357205E-07 -2.87032596E-05  2.79254248E-05  1.62172064E-06
  0.00000000E+00  4.54458763E-05 -1.23964550E-02 -2.14312958E-04  3.36201292E-07
  3.02517375E-06  0.00000000E+00  3.27164395E-05  5.19218709E-07 -9.13964541E-06
  0.00000000E+00  9.94087641E-01  1.71080127E-02  6.80391430E-05  1.41298362E-04
  0.00000000E+00 -2.29319358E-03 -1.32138216E-04 -2.79301179E-04  0.00000000E+00
 -7.68816833E-07 -1.70270803E-05 -3.28879291E-05 -1.15922117E-05  0.00000000E+00
  4.57987401E-05 -6.57645722E-05  4.70425615E-04  1.97408185E-04  3.99609809E-04
  0.00000000E+00  1.18538288E-05  9.94087644E-01  1.71079992E-02 -6.80532984E-05
 -1.41269669E-04  0.00000000E+00 -2.29309585E-03  1.32192927E-04  2.79162440E-04
  0.00000000E+00  1.23970045E-02  2.12376377E-04  1.36062139E-06  4.98700843E-07
  0.00000000E+00 -2.44771787E-05 -3.81401078E-06  2.17467906E-06  0.00000000E+00
  6.87180462E-01  1.85600317E-02  1.73139377E-03 -1.17090901E-03  0.00000000E+00
 -4.82008878E-03  7.16395574E-01  1.98076618E-02 -1.63352806E-03  9.90726063E-04
  0.00000000E+00 -5.02127470E-03 -5.58157649E-05  1.10780122E-04 -1.44563749E-04
 -3.62311674E-04  0.00000000E+00 -2.87770431E-03  1.15573558E-03  2.69010738E-03
  0.00000000E+00 -5.35957060E-05  1.07469867E-04  1.37664327E-04  3.48363167E-04
  0.00000000E+00 -2.75400206E-03 -1.10292711E-03 -2.57766211E-03  0.00000000E+00
  7.15903536E-01  3.05429928E-02 -2.16719754E-03  4.31406633E-03  0.00000000E+00
 -5.11243149E-03 -6.86669052E-01 -2.97358665E-02 -2.24459865E-03  4.35792054E-03
  0.00000000E+00  4.89983654E-03  5.21853452E-05 -7.73417133E-05  1.63714702E-04
  3.27267336E-04  0.00000000E+00  2.91301763E-03 -1.25075377E-03 -2.64429458E-03
  0.00000000E+00 -5.44600610E-05  8.18886670E-05  1.69635977E-04  3.42020387E-04
  0.00000000E+00 -3.03005506E-03 -1.29805419E-03 -2.75368978E-03  0.00000000E+00
  1.08065858E-03 -7.85973991E-03  2.79224043E-03  5.99623254E-03  0.00000000E+00
  8.70048707E-05 -3.94322445E-04  3.38564924E-03  8.69496721E-04  2.44372526E-03
  0.00000000E+00 -6.24220311E-04  1.35754417E-01 -3.86870337E-01  1.75013453E-03
  3.61271459E-03  0.00000000E+00 -1.85529555E-02  9.85656594E-04  2.21484646E-03
  0.00000000E+00 -3.41530467E-01  9.73288880E-01  4.39717480E-03  9.11053491E-03
  0.00000000E+00  4.64735733E-02  2.50664544E-03  5.35700527E-03  0.00000000E+00
  4.77957852E-04 -2.76370287E-03  1.44143918E-03  2.30082686E-03  0.00000000E+00
 -7.77536456E-04  1.11392152E-03 -7.61285701E-03 -3.01951041E-03 -5.93946000E-03
  0.00000000E+00 -4.69900463E-04 -3.41534645E-01  9.73301450E-01 -4.39517005E-03
 -9.11960942E-03  0.00000000E+00  4.63987961E-02 -2.51680155E-03 -5.27654788E-03
  0.00000000E+00 -1.35764989E-01  3.86902238E-01  1.74483838E-03  3.63379354E-03
  0.00000000E+00  1.83639585E-02  1.01115103E-03  2.01201581E-03  0.00000000E+00
  0.00000000E+00  0.00000000E+00  0.00000000E+00  0.00000000E+00 -3.95226646E-03
  0.00000000E+00  0.00000000E+00  0.00000000E+00  0.00000000E+00  0.00000000E+00
 -2.33478166E-04  0.00000000E+00  0.00000000E+00  0.00000000E+00  0.00000000E+00
  0.00000000E+00  1.21113768E-01  0.00000000E+00  0.00000000E+00  0.00000000E+00
  6.52158329E-03  0.00000000E+00  0.00000000E+00  0.00000000E+00  0.00000000E+00
  9.77650688E-01  0.00000000E+00  0.00000000E+00  0.00000000E+00  5.24711595E-02
  0.00000000E+00  0.00000000E+00  0.00000000E+00  0.00000000E+00  7.53785081E-04
  0.00000000E+00  0.00000000E+00  0.00000000E+00  0.00000000E+00  0.00000000E+00
 -4.01669282E-03  0.00000000E+00  0.00000000E+00  0.00000000E+00  0.00000000E+00
  0.00000000E+00  9.77652347E-01  0.00000000E+00  0.00000000E+00  0.00000000E+00
  5.24658293E-02  0.00000000E+00  0.00000000E+00  0.00000000E+00  0.00000000E+00
 -1.21127035E-01  0.00000000E+00  0.00000000E+00  0.00000000E+00 -6.47896927E-03
  1.31011363E-03 -1.26561699E-02  4.28994633E-03  9.02056062E-03  0.00000000E+00
  1.71438980E-04 -4.49293206E-04  5.03427996E-03  1.35385553E-03  3.28972147E-03
  0.00000000E+00 -5.79703476E-04 -1.72149092E-03  5.01976931E-03  1.43095423E-01
  3.12017113E-01  0.00000000E+00 -2.59188661E-03  8.79155419E-03  1.92420162E-02
  0.00000000E+00  4.60065167E-03 -1.34127434E-02  3.93596442E-01  8.33273430E-01
  0.00000000E+00  6.72100505E-03  2.41712809E-02  5.11497262E-02  0.00000000E+00
 -5.39064989E-04  4.28969464E-03 -1.92088505E-03 -3.45310690E-03  0.00000000E+00
  6.19298892E-04 -1.34356048E-03  1.23791889E-02  4.50141400E-03  9.08142886E-03
  0.00000000E+00  2.74959333E-04 -4.59415193E-03  1.33929792E-02  3.96645804E-01
  8.31841258E-01  0.00000000E+00 -6.64465332E-03  2.43553913E-02  5.09855011E-02
  0.00000000E+00 -1.70331658E-03  4.96461280E-03 -1.51359358E-01 -3.08137889E-01
  0.00000000E+00 -2.38644835E-03 -9.28895295E-03 -1.87977670E-02  0.00000000E+00
 -7.95648530E-06  2.76391677E-04 -3.75953844E-03  1.97436193E-03  0.00000000E+00
  3.83962745E-04 -5.37658056E-05 -1.00141220E-03 -1.09362989E-03  2.66454012E-04
  0.00000000E+00  8.07538825E-04 -2.02763224E-05  6.41258914E-05  1.41078535E-01
 -6.15380183E-02  0.00000000E+00  1.19090479E-04  7.19174486E-03 -3.24878534E-03
  0.00000000E+00  2.41942951E-05 -7.10094085E-05  8.80063217E-01 -4.16892394E-01
  0.00000000E+00 -2.23352652E-05  4.49428692E-02 -2.12581236E-02  0.00000000E+00
  5.88959088E-05  9.65594195E-04  6.85163925E-05 -3.60905657E-04  0.00000000E+00
 -9.73962315E-04  2.58474151E-05  3.34929286E-05 -3.59643107E-03  1.98971159E-03
  0.00000000E+00 -6.63688140E-04 -1.90244992E-05  5.43399468E-05  8.79422639E-01
 -4.18249092E-01  0.00000000E+00 -1.54245425E-05  4.49149436E-02 -2.12910813E-02
  0.00000000E+00  1.28612208E-05 -4.26104429E-05 -1.36940611E-01  7.02942657E-02
  0.00000000E+00 -1.18864246E-04 -7.00736427E-03  3.46675484E-03  0.00000000E+00
 -1.66613007E-01  4.50859967E-01 -6.43204049E-02  7.25570926E-02  0.00000000E+00
  1.04001064E-01 -1.66523410E-01  4.50658261E-01  6.44892469E-02 -7.25694841E-02
  0.00000000E+00  1.03748138E-01  2.43122305E-02 -8.36488668E-02  1.05425035E-02
  2.88243758E-02  0.00000000E+00  2.22065878E-01 -2.37956051E-02 -6.45951261E-02
  0.00000000E+00  2.43223867E-02 -8.36836361E-02 -1.05515673E-02 -2.88331611E-02
  0.00000000E+00  2.22162532E-01  2.38148702E-02  6.46175032E-02  0.00000000E+00
  8.98665826E-02 -2.75911822E-01  3.62109192E-03  1.49872733E-01  0.00000000E+00
 -8.10574241E-02 -8.99286340E-02  2.76128875E-01  3.79159814E-03  1.49819561E-01
  0.00000000E+00  8.09588864E-02  5.29913573E-02 -1.80487159E-01  1.79432778E-02
  3.32942352E-02  0.00000000E+00  5.21410569E-01 -4.15741497E-02 -7.73555585E-02
  0.00000000E+00 -5.29740430E-02  1.80427997E-01  1.79412971E-02  3.32740050E-02
  0.00000000E+00 -5.21245529E-01 -4.15704208E-02 -7.73065687E-02  0.00000000E+00
  6.24690005E-02 -1.75931267E-01  1.24350829E-02 -2.21189616E-01  0.00000000E+00
 -7.08165597E-02  6.22519431E-02 -1.75278827E-01 -1.31342374E-02  2.21055231E-01
  0.00000000E+00 -7.00563150E-02  5.96475904E-02 -2.00752956E-01  7.31722230E-03
  8.35006973E-04  0.00000000E+00  6.27858078E-01 -1.75249548E-02  2.20423545E-03
  0.00000000E+00  5.97116426E-02 -2.00968067E-01 -7.27856151E-03 -8.40102854E-04
  0.00000000E+00  6.28541040E-01  1.74183674E-02 -2.19623650E-03  0.00000000E+00
 -9.07447904E-02  2.89270701E-01  2.85209001E-01  3.58226676E-02  0.00000000E+00
  3.08233976E-01  9.09930493E-02 -2.90109199E-01  2.84296252E-01  3.67259608E-02
  0.00000000E+00 -3.07813620E-01  2.46566712E-02 -8.25463292E-02 -2.06424340E-02
  5.11357060E-04  0.00000000E+00  2.66470109E-01  5.82418932E-02 -8.03054927E-04
  0.00000000E+00 -2.45339935E-02  8.21347448E-02 -2.06830408E-02  5.62603182E-04
  0.00000000E+00 -2.65155833E-01  5.83472629E-02 -9.50340695E-04  0.00000000E+00
  4.87771121E-04 -2.06037990E-02 -3.99942069E-01  2.38389529E-01  0.00000000E+00
 -3.43113123E-01  6.84528513E-04 -2.14234607E-02  4.00361599E-01 -2.38491822E-01
  0.00000000E+00 -3.43761094E-01  8.97112754E-03 -2.92768672E-02 -3.85923015E-02
  1.62438702E-03  0.00000000E+00  1.07827249E-01  1.12501120E-01 -7.55313580E-03
  0.00000000E+00  8.92766104E-03 -2.91343985E-02  3.84985878E-02 -1.68185880E-03
  0.00000000E+00  1.07310731E-01 -1.12224754E-01  7.70929885E-03  0.00000000E+00
  6.31670474E-02 -2.55923305E-01  2.10572770E-01  2.60293743E-01  0.00000000E+00
  7.66028852E-02 -6.31474144E-02  2.55807846E-01  2.10651967E-01  2.60056264E-01
  0.00000000E+00 -7.67433775E-02 -3.39199946E-02  1.09075605E-01  3.70684479E-02
  1.22686871E-01  0.00000000E+00 -4.31592606E-01 -1.02153613E-01 -3.54364810E-01
  0.00000000E+00  3.39324238E-02 -1.09114984E-01  3.71210283E-02  1.22743165E-01
  0.00000000E+00  4.31759653E-01 -1.02311244E-01 -3.54529182E-01  0.00000000E+00
  0.00000000E+00  0.00000000E+00  0.00000000E+00  0.00000000E+00  5.36995619E-01
  0.00000000E+00  0.00000000E+00  0.00000000E+00  0.00000000E+00  0.00000000E+00
  5.36871591E-01  0.00000000E+00  0.00000000E+00  0.00000000E+00  0.00000000E+00
  0.00000000E+00 -1.03294843E-01  0.00000000E+00  0.00000000E+00  0.00000000E+00
  3.23470240E-01  0.00000000E+00  0.00000000E+00  0.00000000E+00  0.00000000E+00
 -1.03314784E-01  0.00000000E+00  0.00000000E+00  0.00000000E+00  3.23532418E-01
  2.28407393E-02 -1.32876235E-01  1.70337299E-01  3.53866393E-01  0.00000000E+00
  1.90550489E-01  2.28575880E-02 -1.32895564E-01 -1.70513960E-01 -3.53926138E-01
  0.00000000E+00  1.90755689E-01  1.86247010E-02 -5.81365480E-02 -8.67524681E-02
 -1.26433218E-01  0.00000000E+00  2.60497137E-01  2.63858745E-01  3.73704573E-01
  0.00000000E+00  1.86145829E-02 -5.81042281E-02  8.67997231E-02  1.26368476E-01
  0.00000000E+00  2.60365998E-01 -2.64018493E-01 -3.73509256E-01  0.00000000E+00
  1.44404618E-02 -6.14260073E-02 -1.56123081E-02 -6.64453104E-02  0.00000000E+00
 -9.41190578E-02 -1.44975039E-02  6.16585374E-02 -1.54840568E-02 -6.69577454E-02
  0.00000000E+00  9.38581212E-02  9.19008852E-04 -2.75819048E-03 -2.04750215E-01
  8.01133268E-02  0.00000000E+00  1.44680106E-02  6.72914900E-01 -2.67061301E-01
  0.00000000E+00 -9.11548522E-04  2.73621156E-03 -2.05502814E-01  8.06351580E-02
  0.00000000E+00 -1.43469559E-02  6.75415215E-01 -2.68756217E-01  0.00000000E+00
  1.46715121E-02 -5.34140918E-02  4.70725121E-02 -1.05876465E-01  0.00000000E+00
  9.53557480E-02  1.46161222E-02 -5.31349296E-02 -4.71290453E-02  1.05599115E-01
  0.00000000E+00  9.58130685E-02 -1.34083930E-03  3.98861672E-03 -1.84824250E-01
  1.18922538E-01  0.00000000E+00 -2.12673560E-02  6.12743247E-01 -3.88010939E-01
  0.00000000E+00 -1.34365948E-03  3.99677908E-03  1.83976811E-01 -1.18583791E-01
  0.00000000E+00 -2.13157380E-02 -6.09958749E-01  3.86883466E-01  0.00000000E+00
  0.00000000E+00  0.00000000E+00  0.00000000E+00  0.00000000E+00 -2.97285932E-01
  0.00000000E+00  0.00000000E+00  0.00000000E+00  0.00000000E+00  0.00000000E+00
  2.97342407E-01  0.00000000E+00  0.00000000E+00  0.00000000E+00  0.00000000E+00
  0.00000000E+00 -2.00135643E-01  0.00000000E+00  0.00000000E+00  0.00000000E+00
  6.46348087E-01  0.00000000E+00  0.00000000E+00  0.00000000E+00  0.00000000E+00
  2.00105302E-01  0.00000000E+00  0.00000000E+00  0.00000000E+00 -6.46250413E-01
  0.00000000E+00  0.00000000E+00  0.00000000E+00  0.00000000E+00 -3.52901835E-01
  0.00000000E+00  0.00000000E+00  0.00000000E+00  0.00000000E+00  0.00000000E+00
 -3.52807688E-01  0.00000000E+00  0.00000000E+00  0.00000000E+00  0.00000000E+00
  0.00000000E+00 -1.99947458E-01  0.00000000E+00  0.00000000E+00  0.00000000E+00
  6.61807400E-01  0.00000000E+00  0.00000000E+00  0.00000000E+00  0.00000000E+00
 -1.99977803E-01  0.00000000E+00  0.00000000E+00  0.00000000E+00  6.61908566E-01
  0.00000000E+00  0.00000000E+00  0.00000000E+00  0.00000000E+00 -7.56389924E-01
  0.00000000E+00  0.00000000E+00  0.00000000E+00  0.00000000E+00  0.00000000E+00
  7.56499680E-01  0.00000000E+00  0.00000000E+00  0.00000000E+00  0.00000000E+00
  0.00000000E+00  1.02847169E-01  0.00000000E+00  0.00000000E+00  0.00000000E+00
 -3.53652405E-01  0.00000000E+00  0.00000000E+00  0.00000000E+00  0.00000000E+00
 -1.02827320E-01  0.00000000E+00  0.00000000E+00  0.00000000E+00  3.53584681E-01
  9.50700754E-02 -5.04505604E-01  3.01869290E-01  3.83384969E-01  0.00000000E+00
 -3.78777291E-02 -9.50254365E-02  5.04283556E-01  3.01851719E-01  3.83180273E-01
  0.00000000E+00  3.79814697E-02 -2.08378527E-02  6.20955575E-02 -7.74802567E-02
 -1.84311813E-01  0.00000000E+00 -3.32155389E-01  2.84773655E-01  6.77326956E-01
  0.00000000E+00  2.08454870E-02 -6.21180597E-02 -7.75141603E-02 -1.84368882E-01
  0.00000000E+00  3.32280551E-01  2.84900882E-01  6.77542290E-01  0.00000000E+00
 -1.06360141E-01  6.25893705E-01 -4.18414758E-03 -5.26241389E-01  0.00000000E+00
 -3.49879563E-01 -1.06785290E-01  6.28256017E-01  3.02880380E-03  5.25894563E-01
  0.00000000E+00 -3.52356117E-01 -1.85914263E-02  5.44933799E-02 -9.08383252E-02
 -1.48301203E-01  0.00000000E+00 -3.07586947E-01  3.37916980E-01  5.55235397E-01
  0.00000000E+00 -1.85768319E-02  5.44477019E-02  9.07495410E-02  1.48197027E-01
  0.00000000E+00 -3.07377491E-01 -3.37594332E-01 -5.54859274E-01  0.00000000E+00
 -1.28066046E-01  8.08108540E-01  4.69553894E-01  1.64603331E-01  0.00000000E+00
 -9.07280343E-01  1.27970853E-01 -8.07272546E-01  4.73449031E-01  1.67754050E-01
  0.00000000E+00  9.09536252E-01  2.11727410E-03 -7.03681760E-03  1.57421684E-02
  9.58183196E-03  0.00000000E+00  2.66158807E-02 -5.84363061E-02 -3.43072345E-02
  0.00000000E+00 -2.21580861E-03  7.31710202E-03  1.60373320E-02  1.03351910E-02
  0.00000000E+00 -2.83532115E-02 -5.95779920E-02 -3.72307260E-02  0.00000000E+00
 -5.16338335E-02  3.85759622E-01  8.27586834E-01  3.06970561E-01  0.00000000E+00
 -8.23035057E-01 -5.07174567E-02  3.79022055E-01 -8.25975592E-01 -3.04258855E-01
  0.00000000E+00 -8.17621051E-01  7.98106780E-03 -2.17189459E-02  7.70921342E-03
  5.89372799E-02  0.00000000E+00  1.52478857E-01 -3.38573943E-02 -2.38848082E-01
  0.00000000E+00  7.97355978E-03 -2.16918883E-02 -7.70093740E-03 -5.88861881E-02
  0.00000000E+00  1.52402785E-01  3.38331019E-02  2.38657872E-01  0.00000000E+00
 -1.13981844E-01  8.45595362E-01 -6.77655417E-01  8.99423389E-01  0.00000000E+00
  1.36720863E-01  1.14089920E-01 -8.46495508E-01 -6.75927361E-01  9.00060334E-01
  0.00000000E+00 -1.34944199E-01 -1.86555295E-03  5.09598785E-03 -3.01690497E-02
  9.10962899E-04  0.00000000E+00 -3.49244107E-02  1.19698435E-01 -3.65427856E-03
  0.00000000E+00  1.84966011E-03 -5.05300865E-03 -3.01535292E-02  1.02483052E-03
  0.00000000E+00  3.46174914E-02  1.19630507E-01 -4.12003957E-03  0.00000000E+00
Orthonormal basis                          R   N=         900
  1.14131647E-01  3.59870668E-01 -6.11328822E-02  1.18410433E-01  0.00000000E+00
  2.07405859E-01  1.13992360E-01  3.59527551E-01  6.16154435E-02 -1.18471483E-01
  0.00000000E+00  2.06760039E-01  9.95553444E-03  2.84065004E-02 -8.01272047E-03
 -3.01396191E-02  0.00000000E+00  9.48171767E-02 -3.19406324E-02 -1.21379997E-01
  0.00000000E+00  9.96188787E-03  2.84246017E-02  8.04585787E-03  3.01479083E-02
  0.00000000E+00  9.48770830E-02  3.20738238E-02  1.21413633E-01  0.00000000E+00
 -1.01465199E-01 -2.24688198E-01 -2.82913223E-01  7.16026432E-02  0.00000000E+00
 -3.25236143E-01  1.01729394E-01  2.25419241E-01 -2.82534367E-01  7.12834945E-02
  0.00000000E+00  3.25432122E-01  1.29987242E-02  2.82055256E-02 -3.82550278E-02
 -1.43736749E-02  0.00000000E+00  6.29319009E-02 -1.12711786E-01 -4.14887559E-02
  0.00000000E+00 -1.29517420E-02 -2.81031800E-02 -3.82460671E-02 -1.42630601E-02
  0.00000000E+00 -6.26952097E-02 -1.12684862E-01 -4.11626113E-02  0.00000000E+00
 -4.94003905E-02 -1.12668178E-01  2.23321735E-01  2.83373181E-01  0.00000000E+00
  7.69415073E-02  4.93728252E-02  1.12585824E-01  2.23283763E-01  2.83404685E-01
  0.00000000E+00 -7.70040483E-02  6.24383801E-02  1.23617083E-01 -2.74995980E-02
 -9.06081699E-02  0.00000000E+00  2.21037073E-01 -6.69707898E-02 -2.29648024E-01
  0.00000000E+00 -6.24456111E-02 -1.23631584E-01 -2.75008639E-02 -9.06228799E-02
  0.00000000E+00 -2.21066828E-01 -6.69742583E-02 -2.29687635E-01  0.00000000E+00
 -3.29994602E-02 -1.65165587E-02  1.66643873E-01 -3.63058406E-01  0.00000000E+00
  9.01083294E-02 -3.29873745E-02 -1.64765597E-02 -1.66698368E-01  3.63076058E-01
  0.00000000E+00  9.02164754E-02  1.48866552E-01  2.15494952E-01 -9.68159131E-02
 -4.41824215E-02  0.00000000E+00  2.09172979E-01 -1.78691621E-01 -7.40171903E-02
  0.00000000E+00  1.48855718E-01  2.15479182E-01  9.67966648E-02  4.41797535E-02
  0.00000000E+00  2.09156022E-01  1.78654757E-01  7.40122813E-02  0.00000000E+00
 -5.90087864E-03 -1.61296052E-02 -2.93434229E-01  9.08211924E-02  0.00000000E+00
 -2.31042846E-01 -5.92518492E-03 -1.62189877E-02  2.93592535E-01 -9.08438662E-02
  0.00000000E+00 -2.31290554E-01  2.44804743E-01  2.95034930E-01  9.42428021E-02
 -2.32518828E-02  0.00000000E+00  1.62547339E-01  1.46466523E-01 -3.37066262E-02
  0.00000000E+00  2.44878584E-01  2.95124130E-01 -9.41688628E-02  2.32281320E-02
  0.00000000E+00  1.62600443E-01 -1.46350230E-01  3.36704306E-02  0.00000000E+00
  3.76031747E-02  4.20366059E-02 -4.51001838E-02 -7.43327429E-02  0.00000000E+00
 -4.95859283E-03 -3.76074955E-02 -4.20443782E-02 -4.50569325E-02 -7.43669469E-02
  0.00000000E+00  4.93582721E-03  3.37057398E-01  3.80996086E-01  5.30791282E-02
  1.39139043E-01  0.00000000E+00  1.56730982E-01  7.52880155E-02  1.98413817E-01
  0.00000000E+00 -3.37000961E-01 -3.80932292E-01  5.30473223E-02  1.39127727E-01
  0.00000000E+00 -1.56704808E-01  7.52422787E-02  1.98397856E-01  0.00000000E+00
  1.10385505E-02  4.02071933E-03  2.14012780E-01  1.48815380E-01  0.00000000E+00
  1.89795863E-01  1.10404581E-02  4.07051620E-03 -2.14090446E-01 -1.48783202E-01
  0.00000000E+00  1.89962210E-01  1.66643747E-01  1.62136948E-01  7.55015121E-02
  2.91088585E-01  0.00000000E+00  1.83504305E-02  8.93017858E-02  3.48341456E-01
  0.00000000E+00  1.66657902E-01  1.62150614E-01 -7.56231120E-02 -2.91086403E-01
  0.00000000E+00  1.83500683E-02 -8.94518916E-02 -3.48338448E-01  0.00000000E+00
 -5.23467420E-02 -4.24796797E-02 -4.94747848E-02 -2.33938723E-02  0.00000000E+00
 -7.40545712E-02  5.23869245E-02  4.25356971E-02 -4.95041811E-02 -2.34540059E-02
  0.00000000E+00  7.41322079E-02  6.33267840E-03  4.91488626E-03  4.18124901E-01
 -1.71705040E-01  0.00000000E+00 -9.39616109E-04  3.96802753E-01 -1.64254506E-01
  0.00000000E+00 -6.32738784E-03 -4.91055396E-03  4.18249260E-01 -1.71837650E-01
  0.00000000E+00  9.43220375E-04  3.96922042E-01 -1.64377870E-01  0.00000000E+00
 -5.10537989E-02 -3.00048435E-02  1.78447033E-01 -1.07088277E-01  0.00000000E+00
  1.44155999E-01 -5.10763133E-02 -2.99877260E-02 -1.78477119E-01  1.07093443E-01
  0.00000000E+00  1.44311366E-01 -1.07227473E-02 -7.55837253E-03  4.00859670E-01
 -1.81173320E-01  0.00000000E+00  5.61798249E-03  3.50615408E-01 -1.57792520E-01
  0.00000000E+00 -1.07337426E-02 -7.56610660E-03 -4.00746655E-01  1.81077325E-01
  0.00000000E+00  5.62414861E-03 -3.50517453E-01  1.57708706E-01  0.00000000E+00
 -1.42943305E-01 -8.07827808E-02  7.02132244E-02  1.30017120E-01  0.00000000E+00
  3.63531224E-03  1.42966524E-01  8.08014489E-02  7.01661353E-02  1.30051123E-01
  0.00000000E+00 -3.61948996E-03 -2.63922015E-01 -1.17848974E-01  1.60587139E-01
  3.96892230E-01  0.00000000E+00  2.65485593E-01  8.90896515E-02  2.18819806E-01
  0.00000000E+00  2.63889576E-01  1.17834509E-01  1.60529601E-01  3.96860861E-01
  0.00000000E+00 -2.65452542E-01  8.90583445E-02  2.18802541E-01  0.00000000E+00
  8.09552556E-02  5.80416875E-02 -1.28148381E-01 -2.00441679E-01  0.00000000E+00
 -8.85437736E-02  8.10066066E-02  5.80381172E-02  1.28133969E-01  2.00409586E-01
  0.00000000E+00 -8.86360580E-02 -3.33523487E-01 -1.06127700E-01  1.53114972E-01
  2.82056498E-01  0.00000000E+00  3.78973127E-01  6.05784400E-02  1.13934805E-01
  0.00000000E+00 -3.33569125E-01 -1.06142188E-01 -1.53140776E-01 -2.82094164E-01
  0.00000000E+00  3.79025458E-01 -6.05882723E-02 -1.13950061E-01  0.00000000E+00
 -6.39202680E-01 -2.45732265E-02  6.54291477E-02 -6.11776062E-02  0.00000000E+00
  1.14069860E-01  6.39546686E-01  2.45646009E-02  6.52653658E-02 -6.11005715E-02
  0.00000000E+00 -1.14191238E-01  1.62247458E-01  1.04630349E-03 -4.34153207E-02
  4.71464169E-02  0.00000000E+00 -2.19750363E-01  1.41540314E-04 -4.33004818E-03
  0.00000000E+00 -1.62128600E-01 -1.04571253E-03 -4.35052476E-02  4.71706450E-02
  0.00000000E+00  2.19586209E-01  1.44442411E-04 -4.32986449E-03  0.00000000E+00
  6.64080648E-01 -4.65357456E-02  4.98711757E-02 -1.38207408E-01  0.00000000E+00
 -1.15444809E-01  6.63683788E-01 -4.65327607E-02 -4.99735747E-02  1.38220236E-01
  0.00000000E+00 -1.15497028E-01  1.15510945E-01 -1.17745117E-02  8.87904337E-02
  1.82888885E-02  0.00000000E+00 -1.66350682E-01 -1.40284556E-02 -1.19542420E-03
  0.00000000E+00  1.15619443E-01 -1.17852133E-02 -8.87646042E-02 -1.83588760E-02
  0.00000000E+00 -1.66500922E-01  1.40247602E-02  1.20735464E-03  0.00000000E+00
  1.88254850E-01 -7.27471641E-02  5.36860888E-02  1.79803695E-01  0.00000000E+00
 -5.61669443E-02 -1.88173035E-01  7.27235555E-02  5.37210437E-02  1.79802491E-01
  0.00000000E+00  5.62037603E-02  2.71102313E-01 -1.10134933E-01  2.15447087E-01
  4.33235715E-01  0.00000000E+00 -3.48387944E-01 -1.16052705E-01 -2.33347881E-01
  0.00000000E+00 -2.71117045E-01  1.10140867E-01  2.15476683E-01  4.33254041E-01
  0.00000000E+00  3.48406045E-01 -1.16068991E-01 -2.33358074E-01  0.00000000E+00
 -1.77451840E-01  1.06230118E-01 -1.15883286E-01 -1.63533251E-01  0.00000000E+00
 -1.58666482E-02 -1.77485847E-01  1.06243659E-01  1.15865039E-01  1.63547586E-01
  0.00000000E+00 -1.58844825E-02  2.21708150E-01 -1.05909796E-01  2.30419525E-01
  4.72378834E-01  0.00000000E+00 -2.74881043E-01 -1.44753326E-01 -2.95759322E-01
  0.00000000E+00  2.21692592E-01 -1.05902393E-01 -2.30390261E-01 -4.72352216E-01
  0.00000000E+00 -2.74862220E-01  1.44734735E-01  2.95742570E-01  0.00000000E+00
  4.08876621E-02 -3.54842949E-02 -5.52982906E-03 -3.13147308E-02  0.00000000E+00
 -9.04903394E-02 -4.07756576E-02  3.54111458E-02 -5.51597641E-03 -3.12251332E-02
  0.00000000E+00  9.06285592E-02 -2.83010814E-03  2.23128584E-03 -5.15499327E-01
  2.45172643E-01  0.00000000E+00  2.86962137E-03  5.27409735E-01 -2.51352254E-01
  0.00000000E+00  2.83612142E-03 -2.23620666E-03 -5.14928177E-01  2.44862235E-01
  0.00000000E+00 -2.87863878E-03  5.26823904E-01 -2.51036540E-01  0.00000000E+00
 -5.60327164E-02  4.63980637E-02 -4.54922233E-02  7.41866735E-02  0.00000000E+00
 -5.20590675E-02 -5.61272880E-02  4.64709676E-02  4.54166143E-02 -7.42183860E-02
  0.00000000E+00 -5.20337813E-02 -3.17221690E-03  2.67934250E-03  5.04165584E-01
 -2.55061917E-01  0.00000000E+00  5.23689372E-03 -5.26253352E-01  2.64622162E-01
  0.00000000E+00 -3.16785283E-03  2.67581884E-03 -5.04746331E-01  2.55365687E-01
  0.00000000E+00  5.23227624E-03  5.26858263E-01 -2.64939460E-01  0.00000000E+00
  3.49498490E-02 -5.18671385E-02  4.69689795E-02  1.31264004E-01  0.00000000E+00
 -3.98020298E-02 -3.49265460E-02  5.18385653E-02  4.70163379E-02  1.31261125E-01
  0.00000000E+00  3.98519046E-02  5.10813225E-01 -5.97404960E-01 -8.14940559E-02
 -1.71784492E-01  0.00000000E+00  2.09158657E-01  1.28638368E-01  2.70867291E-01
  0.00000000E+00 -5.10836535E-01  5.97432159E-01 -8.15103655E-02 -1.71788813E-01
  0.00000000E+00 -2.09169182E-01  1.28663646E-01  2.70873691E-01  0.00000000E+00
  3.67294099E-02 -7.09348729E-02  6.90058396E-02  1.03915569E-01  0.00000000E+00
  3.34483218E-04  3.67338389E-02 -7.09419438E-02 -6.89970052E-02 -1.03921946E-01
  0.00000000E+00  3.40730573E-04 -5.23591586E-01  6.22166635E-01  6.44734424E-02
  1.29455290E-01  0.00000000E+00 -2.48201156E-01 -1.03697164E-01 -2.08909503E-01
  0.00000000E+00 -5.23567343E-01  6.22137844E-01 -6.44680876E-02 -1.29450377E-01
  0.00000000E+00 -2.48189428E-01  1.03688653E-01  2.08901632E-01  0.00000000E+00
  5.97677309E-02 -1.19902099E-01  3.01552161E-01  5.20885674E-01  0.00000000E+00
 -2.90391474E-01 -5.95229652E-02  1.19230765E-01  3.02507982E-01  5.21001196E-01
  0.00000000E+00  2.91406757E-01 -1.34398454E-01  2.38761530E-01 -9.11727731E-02
 -2.08807137E-01  0.00000000E+00 -5.01519666E-01  2.28426031E-01  5.20755660E-01
  0.00000000E+00  1.34397186E-01 -2.38760986E-01 -9.12302118E-02 -2.08789791E-01
  0.00000000E+00  5.01490984E-01  2.28561751E-01  5.20702235E-01  0.00000000E+00
  1.33470402E-01 -4.39887501E-01  3.62198812E-01  5.69708418E-01  0.00000000E+00
 -5.76979930E-02  1.33405962E-01 -4.39726055E-01 -3.62560252E-01 -5.69388952E-01
  0.00000000E+00 -5.81306046E-02  9.33510579E-02 -1.82635798E-01  9.27345837E-02
  1.85981639E-01  0.00000000E+00  5.04665062E-01 -2.61592287E-01 -5.28110316E-01
  0.00000000E+00  9.33784605E-02 -1.82689865E-01 -9.27766024E-02 -1.86026819E-01
  0.00000000E+00  5.04807122E-01  2.61709898E-01  5.28236699E-01  0.00000000E+00
 -5.97169421E-02  1.68359664E-01  7.38265202E-01 -4.93498130E-01  0.00000000E+00
 -7.71659565E-01  6.12249746E-02 -1.74042257E-01  7.44199780E-01 -4.93415233E-01
  0.00000000E+00  7.78926301E-01  2.10636201E-02 -4.36546323E-02  5.02089182E-02
  3.08432558E-02  0.00000000E+00  1.25819865E-01 -1.48118373E-01 -9.10771528E-02
  0.00000000E+00 -2.09726115E-02  4.34569768E-02  4.98555616E-02  3.07067940E-02
  0.00000000E+00 -1.25396721E-01 -1.47112877E-01 -9.07281338E-02  0.00000000E+00
  1.45116206E-01 -6.67408512E-01 -7.20937674E-01 -5.41554324E-02  0.00000000E+00
  8.90632540E-01  1.45488739E-01 -6.69166710E-01  7.12168980E-01  5.97416220E-02
  0.00000000E+00  8.83193182E-01  2.93530173E-03 -7.79074588E-03  2.67128114E-02
  2.00069953E-03  0.00000000E+00  7.58894004E-03 -8.29368551E-02 -7.70096486E-05
  0.00000000E+00  2.94577484E-03 -7.81505290E-03 -2.69863153E-02 -1.88181457E-03
  0.00000000E+00  7.66195505E-03  8.38303650E-02 -3.10915758E-04  0.00000000E+00
 -2.43714040E-01  1.31498037E+00 -3.27344514E-01  6.34551146E-01  0.00000000E+00
 -3.65311468E-01  2.43322941E-01 -1.31264659E+00 -3.29742251E-01  6.34295156E-01
  0.00000000E+00  3.62158744E-01  1.15455506E-02 -2.90232272E-02  4.28668988E-03
  4.39803218E-02  0.00000000E+00  1.18734813E-01 -1.49338276E-02 -1.62172115E-01
  0.00000000E+00 -1.15467339E-02  2.90301134E-02  4.34483247E-03  4.39707342E-02
  0.00000000E+00 -1.18700063E-01 -1.51371452E-02 -1.62117457E-01  0.00000000E+00
  0.00000000E+00  0.00000000E+00  0.00000000E+00  0.00000000E+00  4.14448169E-01
  0.00000000E+00  0.00000000E+00  0.00000000E+00  0.00000000E+00  0.00000000E+00
  4.14448169E-01  0.00000000E+00  0.00000000E+00  0.00000000E+00  0.00000000E+00
  0.00000000E+00  2.66663849E-01  0.00000000E+00  0.00000000E+00  0.00000000E+00
  3.56269639E-01  0.00000000E+00  0.00000000E+00  0.00000000E+00  0.00000000E+00
  2.66663849E-01  0.00000000E+00  0.00000000E+00  0.00000000E+00  3.56269639E-01
  0.00000000E+00  0.00000000E+00  0.00000000E+00  0.00000000E+00 -1.00533358E-01
  0.00000000E+00  0.00000000E+00  0.00000000E+00  0.00000000E+00  0.00000000E+00
  1.00533358E-01  0.00000000E+00  0.00000000E+00  0.00000000E+00  0.00000000E+00
  0.00000000E+00  4.28024345E-01  0.00000000E+00  0.00000000E+00  0.00000000E+00
  4.47559958E-01  0.00000000E+00  0.00000000E+00  0.00000000E+00  0.00000000E+00
 -4.28024345E-01  0.00000000E+00  0.00000000E+00  0.00000000E+00 -4.47559958E-01
  0.00000000E+00  0.00000000E+00  0.00000000E+00  0.00000000E+00  4.65576025E-01
  0.00000000E+00  0.00000000E+00  0.00000000E+00  0.00000000E+00  0.00000000E+00
  4.65576025E-01  0.00000000E+00  0.00000000E+00  0.00000000E+00  0.00000000E+00
  0.00000000E+00 -3.94933826E-01  0.00000000E+00  0.00000000E+00  0.00000000E+00
 -2.46000634E-01  0.00000000E+00  0.00000000E+00  0.00000000E+00  0.00000000E+00
 -3.94933826E-01  0.00000000E+00  0.00000000E+00  0.00000000E+00 -2.46000634E-01
  0.00000000E+00  0.00000000E+00  0.00000000E+00  0.00000000E+00  5.68487707E-01
  0.00000000E+00  0.00000000E+00  0.00000000E+00  0.00000000E+00  0.00000000E+00
 -5.68487707E-01  0.00000000E+00  0.00000000E+00  0.00000000E+00  0.00000000E+00
  0.00000000E+00  4.44053508E-01  0.00000000E+00  0.00000000E+00  0.00000000E+00
 -2.96974139E-01  0.00000000E+00  0.00000000E+00  0.00000000E+00  0.00000000E+00
 -4.44053508E-01  0.00000000E+00  0.00000000E+00  0.00000000E+00  2.96974139E-01
  0.00000000E+00  0.00000000E+00  0.00000000E+00  0.00000000E+00 -1.55829730E-01
  0.00000000E+00  0.00000000E+00  0.00000000E+00  0.00000000E+00  0.00000000E+00
 -1.55829730E-01  0.00000000E+00  0.00000000E+00  0.00000000E+00  0.00000000E+00
  0.00000000E+00 -5.55701663E-01  0.00000000E+00  0.00000000E+00  0.00000000E+00
  5.97213085E-01  0.00000000E+00  0.00000000E+00  0.00000000E+00  0.00000000E+00
 -5.55701663E-01  0.00000000E+00  0.00000000E+00  0.00000000E+00  5.97213085E-01
  0.00000000E+00  0.00000000E+00  0.00000000E+00  0.00000000E+00  5.72126190E-01
  0.00000000E+00  0.00000000E+00  0.00000000E+00  0.00000000E+00  0.00000000E+00
 -5.72126190E-01  0.00000000E+00  0.00000000E+00  0.00000000E+00  0.00000000E+00
  0.00000000E+00 -3.94307307E-01  0.00000000E+00  0.00000000E+00  0.00000000E+00
  5.05610231E-01  0.00000000E+00  0.00000000E+00  0.00000000E+00  0.00000000E+00
  3.94307307E-01  0.00000000E+00  0.00000000E+00  0.00000000E+00 -5.05610231E-01
Total SCF Density                          R   N=         465
  2.07529391E+00 -2.46889700E-01  9.71523069E-01  6.09655568E-03 -3.92931263E-02
  6.42943568E-01  1.74888520E-02 -1.36490022E-01  3.83755887E-02  6.87043640E-01
  0.00000000E+00  0.00000000E+00  0.00000000E+00  0.00000000E+00  7.53518819E-01
 -1.09831711E-01  2.66930781E-01  5.43638472E-01  4.76362656E-02  0.00000000E+00
  5.90632823E-01  2.50764270E-02 -5.87081520E-02  6.21563829E-02 -9.72800930E-02
  0.00000000E+00  3.14133098E-02  2.07529401E+00 -5.86948653E-02  5.00800723E-02
 -1.52951581E-01  2.36583204E-01  0.00000000E+00 -1.23396639E-01 -2.46965477E-01
  9.71869563E-01 -6.21237413E-02  1.52891664E-01 -1.39996200E-01  2.28552095E-01
  0.00000000E+00 -1.23547172E-01 -6.11585333E-03  3.91560429E-02  6.42847054E-01
  9.72806224E-02 -2.36628436E-01  2.28585969E-01 -3.03022501E-01  0.00000000E+00
  5.32761821E-02 -1.75008694E-02  1.36533149E-01  3.83602502E-02  6.86981963E-01
  0.00000000E+00  0.00000000E+00  0.00000000E+00  0.00000000E+00  3.99799746E-01
  0.00000000E+00  0.00000000E+00  0.00000000E+00  0.00000000E+00  0.00000000E+00
  7.53319601E-01  3.14080512E-02 -1.23428008E-01  1.23583827E-01 -5.33111436E-02
  0.00000000E+00  1.26063758E-01 -1.09757073E-01  2.67046996E-01 -5.43765509E-01
 -4.76544407E-02  0.00000000E+00  5.90929855E-01  9.27140610E-04 -2.25546567E-03
 -2.75118712E-03 -5.20187248E-03  0.00000000E+00 -8.26224200E-04 -1.76914054E-03
  4.47873234E-04  5.27399879E-03  1.04409489E-02  0.00000000E+00 -3.67776236E-03
  2.26521738E+00 -3.39842270E-03  8.47749394E-03  8.02191751E-03  1.76940241E-02
  0.00000000E+00  3.77081476E-03  6.72284302E-03 -2.08348432E-03 -1.81825560E-02
 -3.68612848E-02  0.00000000E+00  1.33869000E-02 -7.97314090E-01  2.40065617E+00
 -6.19778997E-03  3.72163715E-02 -8.14035294E-03  7.80572425E-03  0.00000000E+00
 -1.31408929E-02 -1.93576319E-02  7.79925732E-02  2.49822830E-02  1.04827774E-01
  0.00000000E+00 -7.02121836E-02 -4.88431978E-03  1.45801612E-02  2.11699759E+00
  1.17614842E-02 -4.57919771E-02  1.27151097E-02 -4.68876488E-02  0.00000000E+00
 -2.01879523E-02 -3.90323293E-02  1.61283887E-01  9.81928526E-02  1.88711807E-01
  0.00000000E+00 -1.88536268E-02 -9.88987290E-03  2.94246935E-02 -4.77819162E-02
  2.04334271E+00  0.00000000E+00  0.00000000E+00  0.00000000E+00  0.00000000E+00
  8.57379798E-03  0.00000000E+00  0.00000000E+00  0.00000000E+00  0.00000000E+00
  0.00000000E+00 -2.37840173E-01  0.00000000E+00  0.00000000E+00  0.00000000E+00
  0.00000000E+00  0.00000000E+00  2.04239351E+00  7.29295089E-03 -6.39346809E-03
 -3.88880331E-02 -5.64509550E-02  0.00000000E+00 -1.07000814E-02  1.64645931E-02
 -1.78542186E-01 -1.55404273E-02 -4.63329329E-02  0.00000000E+00 -3.13438653E-02
  1.53880031E-01 -5.48060690E-01 -6.84763806E-02 -1.38969001E-01  0.00000000E+00
  2.11076713E+00  2.41683360E-02 -1.29208839E-01  2.90437701E-02 -3.59906714E-02
  0.00000000E+00  3.80276127E-02  5.06337200E-02 -1.80560392E-01 -9.14186246E-02
 -2.66033597E-01  0.00000000E+00  2.37595551E-01  1.55823834E-02 -4.68772462E-02
 -4.65861285E-01  1.65626476E-01  0.00000000E+00  1.97773087E-01  1.85945141E+00
 -3.88563882E-02  1.39678118E-01 -3.67215454E-02  1.60433758E-01  0.00000000E+00
  6.80003318E-02  1.01100826E-01 -3.71428737E-01 -2.46665622E-01 -5.03283820E-01
  0.00000000E+00  5.19060859E-02  3.14851058E-02 -9.43774781E-02  1.65829996E-01
 -2.10272841E-01  0.00000000E+00  3.99329507E-01 -5.56769215E-01  1.00160683E+00
  0.00000000E+00  0.00000000E+00  0.00000000E+00  0.00000000E+00 -3.68686377E-02
  0.00000000E+00  0.00000000E+00  0.00000000E+00  0.00000000E+00  0.00000000E+00
  7.31272833E-01  0.00000000E+00  0.00000000E+00  0.00000000E+00  0.00000000E+00
  0.00000000E+00 -2.21373805E-01  0.00000000E+00  0.00000000E+00  0.00000000E+00
  1.05038808E+00 -1.76945699E-03  4.51388562E-04 -5.27380280E-03 -1.04414970E-02
  0.00000000E+00 -3.67824873E-03  9.27031557E-04 -2.25549874E-03  2.75199007E-03
  5.20157478E-03  0.00000000E+00 -8.27878573E-04  4.45623208E-05 -1.87278321E-04
 -4.28472374E-05  1.16632032E-03  0.00000000E+00 -8.90846201E-05  3.36262240E-04
 -3.47410706E-03  0.00000000E+00  2.26521733E+00  6.72359254E-03 -2.09431796E-03
  1.81822659E-02  3.68634706E-02  0.00000000E+00  1.33878712E-02 -3.39799819E-03
  8.47795418E-03 -8.02511183E-03 -1.76928356E-02  0.00000000E+00  3.77538124E-03
 -1.87278715E-04  7.45421969E-04  3.18084750E-05 -3.93885134E-03  0.00000000E+00
 -2.65325701E-04 -7.80459934E-04  1.18821065E-02  0.00000000E+00 -7.97313928E-01
  2.40065568E+00  1.93483748E-02 -7.79839750E-02  2.50067282E-02  1.04829585E-01
  0.00000000E+00  7.01800305E-02  6.20226921E-03 -3.72291602E-02 -8.14729418E-03
  7.81543304E-03  0.00000000E+00  1.31526026E-02  4.29293594E-05 -3.20798057E-05
  2.06621974E-03 -1.29152612E-03  0.00000000E+00  1.75497627E-03 -7.46594473E-03
  3.39358023E-03  0.00000000E+00  4.88411550E-03 -1.45795024E-02  2.11700283E+00
  3.90303720E-02 -1.61276708E-01  9.81952975E-02  1.88720509E-01  0.00000000E+00
  1.88346526E-02 -1.17576176E-02  4.57837960E-02  1.27057043E-02 -4.68773960E-02
  0.00000000E+00  2.01997891E-02 -1.16621881E-03  3.93852303E-03 -1.29154922E-03
 -1.67184068E-02  0.00000000E+00 -1.22872068E-02  3.08966631E-03  5.53738691E-02
  0.00000000E+00  9.89002135E-03 -2.94251652E-02 -4.77792981E-02  2.04334393E+00
  0.00000000E+00  0.00000000E+00  0.00000000E+00  0.00000000E+00 -2.37846635E-01
  0.00000000E+00  0.00000000E+00  0.00000000E+00  0.00000000E+00  0.00000000E+00
  8.58257869E-03  0.00000000E+00  0.00000000E+00  0.00000000E+00  0.00000000E+00
  0.00000000E+00 -5.87789819E-02  0.00000000E+00  0.00000000E+00  0.00000000E+00
  1.91878442E-01  0.00000000E+00  0.00000000E+00  0.00000000E+00  0.00000000E+00
  2.04237741E+00  1.64559942E-02 -1.78482012E-01  1.55508827E-02  4.63309584E-02
  0.00000000E+00 -3.13639556E-02  7.29387228E-03 -6.40968392E-03  3.89046813E-02
  5.64527717E-02  0.00000000E+00 -1.07100234E-02 -8.90868197E-05 -2.65329114E-04
 -1.75389655E-03  1.22885000E-02  0.00000000E+00 -1.03705677E-02  7.74486580E-03
 -3.36456491E-02  0.00000000E+00  1.53879196E-01 -5.48058076E-01  6.84740408E-02
  1.38971433E-01  0.00000000E+00  2.11075424E+00 -5.06037477E-02  1.80536165E-01
 -9.15058209E-02 -2.66039633E-01  0.00000000E+00 -2.37483204E-01 -2.41830001E-02
  1.29253526E-01  2.90660252E-02 -3.60215713E-02  0.00000000E+00 -3.80704341E-02
 -3.36555466E-04  7.81427496E-04 -7.46601116E-03  3.08942690E-03  0.00000000E+00
 -7.74885802E-03  2.63218192E-02 -7.20815481E-03  0.00000000E+00 -1.55818292E-02
  4.68754348E-02 -4.65879089E-01  1.65618381E-01  0.00000000E+00 -1.97767321E-01
  1.85951183E+00 -1.01099174E-01  3.71423979E-01 -2.46663882E-01 -5.03310814E-01
  0.00000000E+00 -5.18573879E-02  3.88456488E-02 -1.39665143E-01 -3.66843307E-02
  1.60404206E-01  0.00000000E+00 -6.80306538E-02  3.47379114E-03 -1.18810936E-02
  3.39388512E-03  5.53741855E-02  0.00000000E+00  3.36416213E-02 -7.20985283E-03
 -1.81047223E-01  0.00000000E+00 -3.14858407E-02  9.43798166E-02  1.65821922E-01
 -2.10275854E-01  0.00000000E+00 -3.99341087E-01 -5.56744972E-01  1.00161268E+00
  0.00000000E+00  0.00000000E+00  0.00000000E+00  0.00000000E+00  7.31288768E-01
  0.00000000E+00  0.00000000E+00  0.00000000E+00  0.00000000E+00  0.00000000E+00
 -3.68970320E-02  0.00000000E+00  0.00000000E+00  0.00000000E+00  0.00000000E+00
  0.00000000E+00  1.91878624E-01  0.00000000E+00  0.00000000E+00  0.00000000E+00
 -6.26094678E-01  0.00000000E+00  0.00000000E+00  0.00000000E+00  0.00000000E+00
 -2.21321145E-01  0.00000000E+00  0.00000000E+00  0.00000000E+00  1.05021604E+00
Mulliken Charges                           R   N=           6
 -1.51490023E-01  7.47017486E-02 -1.51199868E-01  7.45496815E-02  7.66656519E-02
  7.67728092E-02
ONIOM Charges                              I   N=          16
           0           0           0           0           0           0
           0           0           0           0           0           0
           0           0           0           0
ONIOM Multiplicities                       I   N=          16
           1           0           0           0           0           0
           0           0           0           0           0           0
           0           0           0           0
Atom Layers                                I   N=           6
           1           1           1           1           1           1
Atom Modifiers                             I   N=           6
           0           0           0           0           0           0
Int Atom Modified Types                    I   N=           6
           0           0           0           0           0           0
Force Field                                I                0
Atom Modified Types                        C   N=           6
                                                            
            
Link Atoms                                 I   N=           6
           0           0           0           0           0           0
Atom Modified MM Charges                   R   N=           6
  0.00000000E+00  0.00000000E+00  0.00000000E+00  0.00000000E+00  0.00000000E+00
  0.00000000E+00
Link Distances                             R   N=          24
  0.00000000E+00  0.00000000E+00  0.00000000E+00  0.00000000E+00  0.00000000E+00
  0.00000000E+00  0.00000000E+00  0.00000000E+00  0.00000000E+00  0.00000000E+00
  0.00000000E+00  0.00000000E+00  0.00000000E+00  0.00000000E+00  0.00000000E+00
  0.00000000E+00  0.00000000E+00  0.00000000E+00  0.00000000E+00  0.00000000E+00
  0.00000000E+00  0.00000000E+00  0.00000000E+00  0.00000000E+00
Cartesian Gradient                         R   N=          18
  0.00000000E+00  0.00000000E+00  0.00000000E+00  0.00000000E+00  0.00000000E+00
  0.00000000E+00  0.00000000E+00  0.00000000E+00  0.00000000E+00  0.00000000E+00
  0.00000000E+00  0.00000000E+00  0.00000000E+00  0.00000000E+00  0.00000000E+00
  0.00000000E+00  0.00000000E+00  0.00000000E+00
Nonadiabatic coupling                      R   N=          18
  0.00000000E+00  0.00000000E+00  0.00000000E+00  0.00000000E+00  0.00000000E+00
  0.00000000E+00  0.00000000E+00  0.00000000E+00  0.00000000E+00  0.00000000E+00
  0.00000000E+00  0.00000000E+00  0.00000000E+00  0.00000000E+00  0.00000000E+00
  0.00000000E+00  0.00000000E+00  0.00000000E+00
Dipole Moment                              R   N=           3
 -1.45245077E-04 -3.21785099E-04  0.00000000E+00
Quadrupole Moment                          R   N=           6
  5.69519119E-01 -2.42416381E+00  1.85464469E+00 -3.38332842E-01  0.00000000E+00
  0.00000000E+00
QEq coupling tensors                       R   N=          36
 -4.44426516E-02  3.89122380E-02  7.99682298E-04  0.00000000E+00  0.00000000E+00
  4.36429693E-02 -3.57090444E-01 -3.46249093E-02  1.76459822E-01  0.00000000E+00
  0.00000000E+00  1.80630621E-01 -4.42742658E-02  3.89021613E-02  8.71499605E-04
  0.00000000E+00  0.00000000E+00  4.34027662E-02 -3.54835941E-01 -3.43376623E-02
  1.75355628E-01  0.00000000E+00  0.00000000E+00  1.79480313E-01  2.85596690E+00
 -2.74495406E+00 -1.37854816E+00  0.00000000E+00  0.00000000E+00 -1.47741875E+00
  2.85645067E+00 -2.74480127E+00 -1.37828059E+00  0.00000000E+00  0.00000000E+00
 -1.47817008E+00
ClPar MaxAn                                I              200
ClPar NIntPar                              I                4
ClPar NRealPar                             I               16
ClPar NBits                                I               30
ClPar LenBitVec                            I                1
ClPar Read BitMap                          I   N=         200
           0           0           0           0           0           0
           0           0           0           0           0           0
           0           0           0           0           0           0
           0           0           0           0           0           0
           0           0           0           0           0           0
           0           0           0           0           0           0
           0           0           0           0           0           0
           0           0           0           0           0           0
           0           0           0           0           0           0
           0           0           0           0           0           0
           0           0           0           0           0           0
           0           0           0           0           0           0
           0           0           0           0           0           0
           0           0           0           0           0           0
           0           0           0           0           0           0
           0           0           0           0           0           0
           0           0           0           0           0           0
           0           0           0           0           0           0
           0           0           0           0           0           0
           0           0           0           0           0           0
           0           0           0           0           0           0
           0           0           0           0           0           0
           0           0           0           0           0           0
           0           0           0           0           0           0
           0           0           0           0           0           0
           0           0           0           0           0           0
           0           0           0           0           0           0
           0           0           0           0           0           0
           0           0           0           0           0           0
           0           0           0           0           0           0
           0           0           0           0           0           0
           0           0           0           0           0           0
           0           0           0           0           0           0
           0           0
ClPar Default BitMap                       I   N=         200
        2016        2016        2016        2016        2016        2016
        2016        2016        2016        2016        2016        2016
        2016        2016        2016        2016        2016        2016
        2016        2016        2016        2016        2016        2016
        2016        2016        2016        2016        2016        2016
        2016        2016        2016        2016        2016        2016
        2016        2016        2016        2016        2016        2016
        2016        2016        2016        2016        2016        2016
        2016        2016        2016        2016        2016        2016
        2016        2016        2016        2016        2016        2016
        2016        2016        2016        2016        2016        2016
        2016        2016        2016        2016        2016        2016
        2016        2016        2016        2016        2016        2016
        2016        2016        2016        2016        2016        2016
        2016        2016         480         480         480         480
         480         480         480         480         480         480
         480         480         480         480         480         480
         480         480         480         480         480         480
         480         480         480         480         480         480
         480         480         480         480         480         480
         480         480         480         480         480         480
         480         480         480         480         480         480
         480         480         480         480         480         480
         480         480         480         480         480         480
         480         480         480         480         480         480
         480         480         480         480         480         480
         480         480         480         480         480         480
         480         480         480         480         480         480
         480         480         480         480         480         480
         480         480         480         480         480         480
         480         480         480         480         480         480
         480         480         480         480         480         480
         480         480         480         480         480         480
         480         480
ClPar Int Params                           I   N=         800
           0           0           0           0           0           0
           0           0           0           0           0           0
           0           0           0           0           0           0
           0           0           0           0           0           0
           0           0           0           0           0           0
           0           0           0           0           0           0
           0           0           0           0           0           0
           0           0           0           0           0           0
           0           0           0           0           0           0
           0           0           0           0           0           0
           0           0           0           0           0           0
           0           0           0           0           0           0
           0           0           0           0           0           0
           0           0           0           0           0           0
           0           0           0           0           0           0
           0           0           0           0           0           0
           0           0           0           0           0           0
           0           0           0           0           0           0
           0           0           0           0           0           0
           0           0           0           0           0           0
           0           0           0           0           0           0
           0           0           0           0           0           0
           0           0           0           0           0           0
           0           0           0           0           0           0
           0           0           0           0           0           0
           0           0           0           0           0           0
           0           0           0           0           0           0
           0           0           0           0           0           0
           0           0           0           0           0           0
           0           0           0           0           0           0
           0           0           0           0           0           0
           0           0           0           0           0           0
           0           0           0           0           0           0
           0           0           0           0           0           0
           0           0           0           0           0           0
           0           0           0           0           0           0
           0           0           0           0           0           0
           0           0           0           0           0           0
           0           0           0           0           0           0
           0           0           0           0           0           0
           0           0           0           0           0           0
           0           0           0           0           0           0
           0           0           0           0           0           0
           0           0           0           0           0           0
           0           0           0           0           0           0
           0           0           0           0           0           0
           0           0           0           0           0           0
           0           0           0           0           0           0
           0           0           0           0           0           0
           0           0           0           0           0           0
           0           0           0           0           0           0
           0           0           0           0           0           0
           0           0           0           0           0           0
           0           0           0           0           0           0
           0           0           0           0           0           0
           0           0           0           0           0           0
           0           0           0           0           0           0
           0           0           0           0           0           0
           0           0           0           0           0           0
           0           0           0           0           0           0
           0           0           0           0           0           0
           0           0           0           0           0           0
           0           0           0           0           0           0
           0           0           0           0           0           0
           0           0           0           0           0           0
           0           0           0           0           0           0
           0           0           0           0           0           0
           0           0           0           0           0           0
           0           0           0           0           0           0
           0           0           0           0           0           0
           0           0           0           0           0           0
           0           0           0           0           0           0
           0           0           0           0           0           0
           0           0           0           0           0           0
           0           0           0           0           0           0
           0           0           0           0           0           0
           0           0           0           0           0           0
           0           0           0           0           0           0
           0           0           0           0           0           0
           0           0           0           0           0           0
           0           0           0           0           0           0
           0           0           0           0           0           0
           0           0           0           0           0           0
           0           0           0           0           0           0
           0           0           0           0           0           0
           0           0           0           0           0           0
           0           0           0           0           0           0
           0           0           0           0           0           0
           0           0           0           0           0           0
           0           0           0           0           0           0
           0           0           0           0           0           0
           0           0           0           0           0           0
           0           0           0           0           0           0
           0           0           0           0           0           0
           0           0           0           0           0           0
           0           0           0           0           0           0
           0           0           0           0           0           0
           0           0           0           0           0           0
           0           0           0           0           0           0
           0           0           0           0           0           0
           0           0           0           0           0           0
           0           0           0           0           0           0
           0           0           0           0           0           0
           0           0           0           0           0           0
           0           0           0           0           0           0
           0           0           0           0           0           0
           0           0           0           0           0           0
           0           0           0           0           0           0
           0           0           0           0           0           0
           0           0           0           0           0           0
           0           0           0           0           0           0
           0           0           0           0           0           0
           0           0           0           0           0           0
           0           0           0           0           0           0
           0           0           0           0           0           0
           0           0           0           0           0           0
           0           0           0           0           0           0
           0           0           0           0           0           0
           0           0           0           0           0           0
           0           0           0           0           0           0
           0           0           0           0           0           0
           0           0           0           0           0           0
           0           0           0           0           0           0
           0           0           0           0           0           0
           0           0           0           0           0           0
           0           0           0           0           0           0
           0           0           0           0           0           0
           0           0           0           0           0           0
           0           0           0           0           0           0
           0           0           0           0           0           0
           0           0           0           0           0           0
           0           0           0           0           0           0
           0           0           0           0           0           0
           0           0
ClPar Real Params                          R   N=        3200
  0.00000000E+00  0.00000000E+00  0.00000000E+00  0.00000000E+00  0.00000000E+00
  0.00000000E+00  0.00000000E+00  0.00000000E+00  0.00000000E+00  0.00000000E+00
  0.00000000E+00  0.00000000E+00  0.00000000E+00  0.00000000E+00  0.00000000E+00
  0.00000000E+00  0.00000000E+00  0.00000000E+00  0.00000000E+00  0.00000000E+00
  0.00000000E+00  0.00000000E+00  0.00000000E+00  0.00000000E+00  0.00000000E+00
  0.00000000E+00  0.00000000E+00  0.00000000E+00  0.00000000E+00  0.00000000E+00
  0.00000000E+00  0.00000000E+00  0.00000000E+00  0.00000000E+00  0.00000000E+00
  0.00000000E+00  0.00000000E+00  0.00000000E+00  0.00000000E+00  0.00000000E+00
  0.00000000E+00  0.00000000E+00  0.00000000E+00  0.00000000E+00  0.00000000E+00
  0.00000000E+00  0.00000000E+00  0.00000000E+00  0.00000000E+00  0.00000000E+00
  0.00000000E+00  0.00000000E+00  0.00000000E+00  0.00000000E+00  0.00000000E+00
  0.00000000E+00  0.00000000E+00  0.00000000E+00  0.00000000E+00  0.00000000E+00
  0.00000000E+00  0.00000000E+00  0.00000000E+00  0.00000000E+00  0.00000000E+00
  0.00000000E+00  0.00000000E+00  0.00000000E+00  0.00000000E+00  0.00000000E+00
  0.00000000E+00  0.00000000E+00  0.00000000E+00  0.00000000E+00  0.00000000E+00
  0.00000000E+00  0.00000000E+00  0.00000000E+00  0.00000000E+00  0.00000000E+00
  0.00000000E+00  0.00000000E+00  0.00000000E+00  0.00000000E+00  0.00000000E+00
  0.00000000E+00  0.00000000E+00  0.00000000E+00  0.00000000E+00  0.00000000E+00
  0.00000000E+00  0.00000000E+00  0.00000000E+00  0.00000000E+00  0.00000000E+00
  0.00000000E+00  0.00000000E+00  0.00000000E+00  0.00000000E+00  0.00000000E+00
  0.00000000E+00  0.00000000E+00  0.00000000E+00  0.00000000E+00  0.00000000E+00
  0.00000000E+00  0.00000000E+00  0.00000000E+00  0.00000000E+00  0.00000000E+00
  0.00000000E+00  0.00000000E+00  0.00000000E+00  0.00000000E+00  0.00000000E+00
  0.00000000E+00  0.00000000E+00  0.00000000E+00  0.00000000E+00  0.00000000E+00
  0.00000000E+00  0.00000000E+00  0.00000000E+00  0.00000000E+00  0.00000000E+00
  0.00000000E+00  0.00000000E+00  0.00000000E+00  0.00000000E+00  0.00000000E+00
  0.00000000E+00  0.00000000E+00  0.00000000E+00  0.00000000E+00  0.00000000E+00
  0.00000000E+00  0.00000000E+00  0.00000000E+00  0.00000000E+00  0.00000000E+00
  0.00000000E+00  0.00000000E+00  0.00000000E+00  0.00000000E+00  0.00000000E+00
  0.00000000E+00  0.00000000E+00  0.00000000E+00  0.00000000E+00  0.00000000E+00
  0.00000000E+00  0.00000000E+00  0.00000000E+00  0.00000000E+00  0.00000000E+00
  0.00000000E+00  0.00000000E+00  0.00000000E+00  0.00000000E+00  0.00000000E+00
  0.00000000E+00  0.00000000E+00  0.00000000E+00  0.00000000E+00  0.00000000E+00
  0.00000000E+00  0.00000000E+00  0.00000000E+00  0.00000000E+00  0.00000000E+00
  0.00000000E+00  0.00000000E+00  0.00000000E+00  0.00000000E+00  0.00000000E+00
  0.00000000E+00  0.00000000E+00  0.00000000E+00  0.00000000E+00  0.00000000E+00
  0.00000000E+00  0.00000000E+00  0.00000000E+00  0.00000000E+00  0.00000000E+00
  0.00000000E+00  0.00000000E+00  0.00000000E+00  0.00000000E+00  0.00000000E+00
  0.00000000E+00  0.00000000E+00  0.00000000E+00  0.00000000E+00  0.00000000E+00
  0.00000000E+00  0.00000000E+00  0.00000000E+00  0.00000000E+00  0.00000000E+00
  2.26000000E-01  4.43000000E-01  1.01000000E-01  1.47000000E-01  1.92000000E-01
  2.40000000E-01  2.75000000E-01  3.03000000E-01  3.25000000E-01  4.13000000E-01
  9.60000000E-02  1.35000000E-01  1.73000000E-01  2.11000000E-01  2.48000000E-01
  2.86000000E-01  3.23000000E-01  3.60000000E-01  8.20000000E-02  1.04000000E-01
  1.17000000E-01  1.23000000E-01  1.29000000E-01  1.34000000E-01  1.40000000E-01
  1.44000000E-01  1.48000000E-01  1.52000000E-01  1.55000000E-01  1.76000000E-01
  1.98000000E-01  2.19000000E-01  2.39000000E-01  2.60000000E-01  2.80000000E-01
  3.00000000E-01  7.90000000E-02  9.90000000E-02  1.19000000E-01  1.26000000E-01
  1.33000000E-01  1.40000000E-01  1.47000000E-01  1.53000000E-01  1.58000000E-01
  1.63000000E-01  1.57000000E-01  1.70000000E-01  1.87000000E-01  2.03000000E-01
  2.19000000E-01  2.34000000E-01  2.50000000E-01  2.65000000E-01  7.40000000E-02
  9.20000000E-02  1.05000000E-01  1.06000000E-01  1.07000000E-01  1.08000000E-01
  1.09000000E-01  1.10000000E-01  1.11000000E-01  1.12000000E-01  1.13000000E-01
  1.14000000E-01  1.15000000E-01  1.16000000E-01  1.17000000E-01  1.17000000E-01
  1.26000000E-01  1.36000000E-01  1.46000000E-01  1.55000000E-01  1.65000000E-01
  1.73000000E-01  1.82000000E-01  1.90000000E-01  1.62000000E-01  1.78000000E-01
  1.10000000E-01  1.35000000E-01  1.59000000E-01  1.83000000E-01  2.07000000E-01
  2.31000000E-01  6.90000000E-02  9.40000000E-02  1.02000000E-01  1.03000000E-01
  1.05000000E-01  1.07000000E-01  1.09000000E-01  1.11000000E-01  1.13000000E-01
  1.15000000E-01  1.17000000E-01  1.19000000E-01  1.20000000E-01  1.22000000E-01
  1.24000000E-01  1.26000000E-01  1.28000000E-01  1.28000000E-01  1.28000000E-01
  1.28000000E-01  1.28000000E-01  1.28000000E-01  1.28000000E-01  1.28000000E-01
  1.28000000E-01  1.28000000E-01  1.28000000E-01  1.28000000E-01  1.28000000E-01
  1.28000000E-01  1.28000000E-01  1.28000000E-01  1.28000000E-01  1.28000000E-01
  1.28000000E-01  1.28000000E-01  1.28000000E-01  1.28000000E-01  1.28000000E-01
  1.28000000E-01  1.28000000E-01  1.28000000E-01  1.28000000E-01  1.28000000E-01
  1.28000000E-01  1.28000000E-01  1.28000000E-01  1.28000000E-01  1.28000000E-01
  1.28000000E-01  1.28000000E-01  1.28000000E-01  1.28000000E-01  1.28000000E-01
  1.28000000E-01  1.28000000E-01  1.28000000E-01  1.28000000E-01  1.28000000E-01
  1.28000000E-01  1.28000000E-01  1.28000000E-01  1.28000000E-01  1.28000000E-01
  1.28000000E-01  1.28000000E-01  1.28000000E-01  1.28000000E-01  1.28000000E-01
  1.28000000E-01  1.28000000E-01  1.28000000E-01  1.28000000E-01  1.28000000E-01
  1.28000000E-01  1.28000000E-01  1.28000000E-01  1.28000000E-01  1.28000000E-01
  1.28000000E-01  1.28000000E-01  1.28000000E-01  1.28000000E-01  1.28000000E-01
  1.28000000E-01  1.28000000E-01  1.28000000E-01  1.28000000E-01  1.28000000E-01
  1.28000000E-01  1.28000000E-01  1.28000000E-01  1.28000000E-01  1.28000000E-01
  1.28000000E-01  1.28000000E-01  1.28000000E-01  1.28000000E-01  1.28000000E-01
  1.28000000E-01  1.28000000E-01  1.28000000E-01  1.28000000E-01  1.28000000E-01
  1.28000000E-01  1.28000000E-01  1.28000000E-01  1.28000000E-01  1.28000000E-01
  1.28000000E-01  1.28000000E-01  1.28000000E-01  1.28000000E-01  1.28000000E-01
  5.47000000E-01  5.92000000E-01  5.99000000E-01  6.68000000E-01  6.98000000E-01
  7.18000000E-01  7.26000000E-01  7.36000000E-01  7.43000000E-01  7.45000000E-01
  6.07000000E-01  6.66000000E-01  6.93000000E-01  7.09000000E-01  7.20000000E-01
  7.29000000E-01  7.35000000E-01  7.40000000E-01  6.08000000E-01  7.34000000E-01
  7.46000000E-01  7.55000000E-01  7.61000000E-01  7.65000000E-01  7.67000000E-01
  7.60000000E-01  7.49000000E-01  7.33000000E-01  7.08000000E-01  6.48000000E-01
  6.88000000E-01  7.09000000E-01  7.22000000E-01  7.31000000E-01  7.38000000E-01
  7.44000000E-01  6.09000000E-01  7.30000000E-01  7.41000000E-01  7.52000000E-01
  7.58000000E-01  7.63000000E-01  7.66000000E-01  7.58000000E-01  7.48000000E-01
  7.33000000E-01  7.01000000E-01  6.45000000E-01  6.86000000E-01  7.08000000E-01
  7.22000000E-01  7.31000000E-01  7.38000000E-01  7.44000000E-01  6.08000000E-01
  7.28000000E-01  7.32000000E-01  7.32000000E-01  7.32000000E-01  7.32000000E-01
  7.32000000E-01  7.32000000E-01  7.32000000E-01  7.32000000E-01  7.32000000E-01
  7.31000000E-01  7.31000000E-01  7.31000000E-01  7.31000000E-01  7.46000000E-01
  7.37000000E-01  7.46000000E-01  7.51000000E-01  7.55000000E-01  7.58000000E-01
  7.47000000E-01  7.32000000E-01  7.11000000E-01  7.41000000E-01  7.07000000E-01
  7.47000000E-01  7.43000000E-01  7.42000000E-01  7.42000000E-01  7.43000000E-01
  7.44000000E-01  6.05000000E-01  7.24000000E-01  7.26000000E-01  7.26000000E-01
  7.27000000E-01  7.27000000E-01  7.27000000E-01  7.28000000E-01  7.28000000E-01
  7.28000000E-01  7.28000000E-01  7.28000000E-01  7.29000000E-01  7.29000000E-01
  7.29000000E-01  7.29000000E-01  7.29000000E-01  7.29000000E-01  7.29000000E-01
  7.29000000E-01  7.29000000E-01  7.29000000E-01  7.29000000E-01  7.29000000E-01
  7.29000000E-01  7.29000000E-01  7.29000000E-01  7.29000000E-01  7.29000000E-01
  7.29000000E-01  7.29000000E-01  7.29000000E-01  7.29000000E-01  7.29000000E-01
  7.29000000E-01  7.29000000E-01  7.29000000E-01  7.29000000E-01  7.29000000E-01
  7.29000000E-01  7.29000000E-01  7.29000000E-01  7.29000000E-01  7.29000000E-01
  7.29000000E-01  7.29000000E-01  7.29000000E-01  7.29000000E-01  7.29000000E-01
  7.29000000E-01  7.29000000E-01  7.29000000E-01  7.29000000E-01  7.29000000E-01
  7.29000000E-01  7.29000000E-01  7.29000000E-01  7.29000000E-01  7.29000000E-01
  7.29000000E-01  7.29000000E-01  7.29000000E-01  7.29000000E-01  7.29000000E-01
  7.29000000E-01  7.29000000E-01  7.29000000E-01  7.29000000E-01  7.29000000E-01
  7.29000000E-01  7.29000000E-01  7.29000000E-01  7.29000000E-01  7.29000000E-01
  7.29000000E-01  7.29000000E-01  7.29000000E-01  7.29000000E-01  7.29000000E-01
  7.29000000E-01  7.29000000E-01  7.29000000E-01  7.29000000E-01  7.29000000E-01
  7.29000000E-01  7.29000000E-01  7.29000000E-01  7.29000000E-01  7.29000000E-01
  7.29000000E-01  7.29000000E-01  7.29000000E-01  7.29000000E-01  7.29000000E-01
  7.29000000E-01  7.29000000E-01  7.29000000E-01  7.29000000E-01  7.29000000E-01
  7.29000000E-01  7.29000000E-01  7.29000000E-01  7.29000000E-01  7.29000000E-01
  7.29000000E-01  7.29000000E-01  7.29000000E-01  7.29000000E-01  7.29000000E-01
  7.29000000E-01  7.29000000E-01  7.29000000E-01  7.29000000E-01  7.29000000E-01
  1.00000000E+00  1.70400000E+00  3.23000000E-01  3.89000000E-01  4.67000000E-01
  5.67000000E-01  6.36000000E-01  6.64000000E-01  6.96000000E-01  8.79000000E-01
  3.07000000E-01  3.48000000E-01  4.00000000E-01  4.54000000E-01  5.09000000E-01
  5.65000000E-01  6.21000000E-01  6.77000000E-01  2.56000000E-01  3.50000000E-01
  3.64000000E-01  3.62000000E-01  3.62000000E-01  3.62000000E-01  3.62000000E-01
  3.65000000E-01  3.69000000E-01  3.75000000E-01  3.86000000E-01  4.46000000E-01
  4.55000000E-01  4.74000000E-01  4.96000000E-01  5.20000000E-01  5.45000000E-01
  5.70000000E-01  2.45000000E-01  3.22000000E-01  3.55000000E-01  3.59000000E-01
  3.64000000E-01  3.70000000E-01  3.76000000E-01  3.85000000E-01  3.95000000E-01
  4.08000000E-01  3.76000000E-01  4.23000000E-01  4.22000000E-01  4.32000000E-01
  4.45000000E-01  4.59000000E-01  4.75000000E-01  4.91000000E-01  2.28000000E-01
  2.92000000E-01  2.89000000E-01  2.92000000E-01  2.95000000E-01  2.98000000E-01
  3.00000000E-01  3.03000000E-01  3.06000000E-01  3.09000000E-01  3.12000000E-01
  3.15000000E-01  3.18000000E-01  3.21000000E-01  3.24000000E-01  3.61000000E-01
  3.69000000E-01  3.70000000E-01  3.72000000E-01  3.75000000E-01  3.78000000E-01
  3.85000000E-01  3.94000000E-01  4.07000000E-01  5.26000000E-01  6.21000000E-01
  3.36000000E-01  3.54000000E-01  3.71000000E-01  3.86000000E-01  4.02000000E-01
  4.17000000E-01  2.09000000E-01  2.94000000E-01  2.65000000E-01  2.72000000E-01
  2.78000000E-01  2.84000000E-01  2.91000000E-01  2.97000000E-01  3.03000000E-01
  3.10000000E-01  3.16000000E-01  3.22000000E-01  3.29000000E-01  3.35000000E-01
  3.41000000E-01  3.48000000E-01  3.54000000E-01  3.54000000E-01  3.54000000E-01
  3.54000000E-01  3.54000000E-01  3.54000000E-01  3.54000000E-01  3.54000000E-01
  3.54000000E-01  3.54000000E-01  3.54000000E-01  3.54000000E-01  3.54000000E-01
  3.54000000E-01  3.54000000E-01  3.54000000E-01  3.54000000E-01  3.54000000E-01
  3.54000000E-01  3.54000000E-01  3.54000000E-01  3.54000000E-01  3.54000000E-01
  3.54000000E-01  3.54000000E-01  3.54000000E-01  3.54000000E-01  3.54000000E-01
  3.54000000E-01  3.54000000E-01  3.54000000E-01  3.54000000E-01  3.54000000E-01
  3.54000000E-01  3.54000000E-01  3.54000000E-01  3.54000000E-01  3.54000000E-01
  3.54000000E-01  3.54000000E-01  3.54000000E-01  3.54000000E-01  3.54000000E-01
  3.54000000E-01  3.54000000E-01  3.54000000E-01  3.54000000E-01  3.54000000E-01
  3.54000000E-01  3.54000000E-01  3.54000000E-01  3.54000000E-01  3.54000000E-01
  3.54000000E-01  3.54000000E-01  3.54000000E-01  3.54000000E-01  3.54000000E-01
  3.54000000E-01  3.54000000E-01  3.54000000E-01  3.54000000E-01  3.54000000E-01
  3.54000000E-01  3.54000000E-01  3.54000000E-01  3.54000000E-01  3.54000000E-01
  3.54000000E-01  3.54000000E-01  3.54000000E-01  3.54000000E-01  3.54000000E-01
  3.54000000E-01  3.54000000E-01  3.54000000E-01  3.54000000E-01  3.54000000E-01
  3.54000000E-01  3.54000000E-01  3.54000000E-01  3.54000000E-01  3.54000000E-01
  3.54000000E-01  3.54000000E-01  3.54000000E-01  3.54000000E-01  3.54000000E-01
  3.54000000E-01  3.54000000E-01  3.54000000E-01  3.54000000E-01  3.54000000E-01
  3.54000000E-01  3.54000000E-01  3.54000000E-01  3.54000000E-01  3.54000000E-01
  2.74000000E-01  2.96000000E-01  5.80000000E-02  4.40000000E-02  3.90000000E-02
  3.90000000E-02  3.60000000E-02  3.20000000E-02  2.90000000E-02  3.30000000E-02
  5.50000000E-02  3.90000000E-02  3.30000000E-02  3.00000000E-02  2.80000000E-02
  2.60000000E-02  2.50000000E-02  2.50000000E-02  4.50000000E-02  4.40000000E-02
  3.30000000E-02  2.50000000E-02  2.10000000E-02  1.80000000E-02  1.50000000E-02
  1.80000000E-02  2.10000000E-02  2.50000000E-02  3.30000000E-02  5.00000000E-02
  3.80000000E-02  3.10000000E-02  2.70000000E-02  2.40000000E-02  2.20000000E-02
  2.10000000E-02  4.30000000E-02  4.00000000E-02  3.20000000E-02  2.50000000E-02
  2.10000000E-02  1.80000000E-02  1.60000000E-02  1.90000000E-02  2.20000000E-02
  2.80000000E-02  3.10000000E-02  4.70000000E-02  3.40000000E-02  2.80000000E-02
  2.40000000E-02  2.10000000E-02  1.90000000E-02  1.80000000E-02  3.90000000E-02
  3.60000000E-02  2.50000000E-02  2.50000000E-02  2.50000000E-02  2.60000000E-02
  2.60000000E-02  2.60000000E-02  2.70000000E-02  2.70000000E-02  2.70000000E-02
  2.70000000E-02  2.80000000E-02  2.80000000E-02  2.80000000E-02  3.30000000E-02
  3.30000000E-02  2.60000000E-02  2.10000000E-02  1.80000000E-02  1.60000000E-02
  1.80000000E-02  2.20000000E-02  2.60000000E-02  4.90000000E-02  8.20000000E-02
  3.00000000E-02  2.40000000E-02  2.10000000E-02  1.80000000E-02  1.60000000E-02
  1.50000000E-02  3.50000000E-02  3.60000000E-02  2.20000000E-02  2.30000000E-02
  2.40000000E-02  2.40000000E-02  2.50000000E-02  2.50000000E-02  2.60000000E-02
  2.70000000E-02  2.70000000E-02  2.80000000E-02  2.80000000E-02  2.90000000E-02
  3.00000000E-02  3.00000000E-02  3.10000000E-02  3.10000000E-02  3.10000000E-02
  3.10000000E-02  3.10000000E-02  3.10000000E-02  3.10000000E-02  3.10000000E-02
  3.10000000E-02  3.10000000E-02  3.10000000E-02  3.10000000E-02  3.10000000E-02
  3.10000000E-02  3.10000000E-02  3.10000000E-02  3.10000000E-02  3.10000000E-02
  3.10000000E-02  3.10000000E-02  3.10000000E-02  3.10000000E-02  3.10000000E-02
  3.10000000E-02  3.10000000E-02  3.10000000E-02  3.10000000E-02  3.10000000E-02
  3.10000000E-02  3.10000000E-02  3.10000000E-02  3.10000000E-02  3.10000000E-02
  3.10000000E-02  3.10000000E-02  3.10000000E-02  3.10000000E-02  3.10000000E-02
  3.10000000E-02  3.10000000E-02  3.10000000E-02  3.10000000E-02  3.10000000E-02
  3.10000000E-02  3.10000000E-02  3.10000000E-02  3.10000000E-02  3.10000000E-02
  3.10000000E-02  3.10000000E-02  3.10000000E-02  3.10000000E-02  3.10000000E-02
  3.10000000E-02  3.10000000E-02  3.10000000E-02  3.10000000E-02  3.10000000E-02
  3.10000000E-02  3.10000000E-02  3.10000000E-02  3.10000000E-02  3.10000000E-02
  3.10000000E-02  3.10000000E-02  3.10000000E-02  3.10000000E-02  3.10000000E-02
  3.10000000E-02  3.10000000E-02  3.10000000E-02  3.10000000E-02  3.10000000E-02
  3.10000000E-02  3.10000000E-02  3.10000000E-02  3.10000000E-02  3.10000000E-02
  3.10000000E-02  3.10000000E-02  3.10000000E-02  3.10000000E-02  3.10000000E-02
  3.10000000E-02  3.10000000E-02  3.10000000E-02  3.10000000E-02  3.10000000E-02
  3.10000000E-02  3.10000000E-02  3.10000000E-02  3.10000000E-02  3.10000000E-02
  3.10000000E-02  3.10000000E-02  3.10000000E-02  3.10000000E-02  3.10000000E-02
 -5.92770000E-01 -9.17860000E-01 -2.48668000E+00 -8.36430000E-01 -3.18470000E-01
 -4.55790000E-01 -5.70730000E-01 -6.77940000E-01 -7.69860000E-01 -8.51140000E-01
 -1.51908000E+00 -3.18830000E-01 -2.17900000E-01 -3.01260000E-01 -3.72750000E-01
 -4.15890000E-01 -4.45930000E-01 -5.91320000E-01 -9.56370000E-01 -2.88450000E-01
 -4.87320000E-01 -6.34280000E-01 -7.17490000E-01 -7.91980000E-01 -8.68490000E-01
 -9.17520000E-01 -9.54890000E-01 -9.88460000E-01 -1.50055000E+00 -2.92560000E-01
 -2.14960000E-01 -2.91180000E-01 -3.42080000E-01 -3.84480000E-01 -4.34940000E-01
 -5.24310000E-01 -8.10070000E-01 -2.58460000E-01 -4.35550000E-01 -5.32740000E-01
 -6.08450000E-01 -6.10260000E-01 -7.58920000E-01 -8.90130000E-01 -8.45780000E-01
 -8.69340000E-01 -1.38234000E+00 -2.64850000E-01 -1.97280000E-01 -2.65040000E-01
 -2.94470000E-01 -3.16570000E-01 -3.63590000E-01 -4.57840000E-01 -8.61830000E-01
 -1.33004000E+00 -6.82880000E-01 -6.25540000E-01 -6.35430000E-01 -8.79690000E-01
 -9.02690000E-01 -9.59650000E-01 -1.01869000E+00 -6.81170000E-01 -7.96500000E-01
 -9.04950000E-01 -8.34790000E-01 -9.01560000E-01 -9.74130000E-01 -1.03326000E+00
 -7.15490000E-01 -7.83960000E-01 -8.28380000E-01 -5.61040000E-01 -1.03841000E+00
 -8.62500000E-01 -9.59300000E-01 -1.01755000E+00 -7.64900000E-01 -1.29467000E+00
 -1.92740000E-01 -2.56010000E-01 -3.19820000E-01 -1.94660000E-01 -2.60090000E-01
 -4.27990000E-01  0.00000000E+00  0.00000000E+00  0.00000000E+00  0.00000000E+00
  0.00000000E+00  0.00000000E+00  0.00000000E+00  0.00000000E+00  0.00000000E+00
  0.00000000E+00  0.00000000E+00  0.00000000E+00  0.00000000E+00  0.00000000E+00
  0.00000000E+00  0.00000000E+00  0.00000000E+00  0.00000000E+00  0.00000000E+00
  0.00000000E+00  0.00000000E+00  0.00000000E+00  0.00000000E+00  0.00000000E+00
  0.00000000E+00  0.00000000E+00  0.00000000E+00  0.00000000E+00  0.00000000E+00
  0.00000000E+00  0.00000000E+00  0.00000000E+00  0.00000000E+00  0.00000000E+00
  0.00000000E+00  0.00000000E+00  0.00000000E+00  0.00000000E+00  0.00000000E+00
  0.00000000E+00  0.00000000E+00  0.00000000E+00  0.00000000E+00  0.00000000E+00
  0.00000000E+00  0.00000000E+00  0.00000000E+00  0.00000000E+00  0.00000000E+00
  0.00000000E+00  0.00000000E+00  0.00000000E+00  0.00000000E+00  0.00000000E+00
  0.00000000E+00  0.00000000E+00  0.00000000E+00  0.00000000E+00  0.00000000E+00
  0.00000000E+00  0.00000000E+00  0.00000000E+00  0.00000000E+00  0.00000000E+00
  0.00000000E+00  0.00000000E+00  0.00000000E+00  0.00000000E+00  0.00000000E+00
  0.00000000E+00  0.00000000E+00  0.00000000E+00  0.00000000E+00  0.00000000E+00
  0.00000000E+00  0.00000000E+00  0.00000000E+00  0.00000000E+00  0.00000000E+00
  0.00000000E+00  0.00000000E+00  0.00000000E+00  0.00000000E+00  0.00000000E+00
  0.00000000E+00  0.00000000E+00  0.00000000E+00  0.00000000E+00  0.00000000E+00
  0.00000000E+00  0.00000000E+00  0.00000000E+00  0.00000000E+00  0.00000000E+00
  0.00000000E+00  0.00000000E+00  0.00000000E+00  0.00000000E+00  0.00000000E+00
  0.00000000E+00  0.00000000E+00  0.00000000E+00  0.00000000E+00  0.00000000E+00
  0.00000000E+00  0.00000000E+00  0.00000000E+00  0.00000000E+00  0.00000000E+00
  0.00000000E+00  0.00000000E+00  0.00000000E+00  0.00000000E+00  0.00000000E+00
  1.90440000E+00  1.36430000E+00  4.84000000E-01  7.31600000E+00  9.24030000E+00
  8.78200000E+00  5.61290000E+00  4.83340000E+00  3.24870000E+00  2.71090000E+00
  2.01130000E+00  1.50282000E+01  1.46788000E+01  2.13546000E+01  2.38290000E+01
  1.98022000E+01  1.50468000E+01  1.09745000E+01  1.27219000E+01  1.51949000E+01
  1.57342000E+01  2.79222000E+01  1.61366000E+01  2.21252000E+01  2.45676000E+01
  1.96016000E+01  1.79818000E+01  1.72396000E+01  5.01500000E+00  1.92898000E+01
  2.34477000E+01  2.23993000E+01  2.96586000E+01  2.60081000E+01  2.15580000E+01
  1.69594000E+01  1.56479000E+01  1.86897000E+01  1.93530000E+01  3.43444000E+01
  1.98480000E+01  2.72140000E+01  3.02182000E+01  2.41099000E+01  2.21176000E+01
  2.12047000E+01  7.56690000E+00  2.37264000E+01  2.93879000E+01  3.01278000E+01
  4.19382000E+01  3.85203000E+01  3.39511000E+01  2.75774000E+01  1.56460000E+01
  1.04460000E+01  2.01830000E+01  4.99540000E+01  4.76430000E+01  1.18690000E+01
  1.08670000E+01  9.96100000E+00  9.18700000E+00  3.67980000E+01  1.34070000E+01
  9.38200000E+00  9.81700000E+00  8.90800000E+00  8.40700000E+00  8.05800000E+00
  1.29600000E+01  2.67920000E+01  2.49300000E+01  3.45630000E+01  1.11860000E+01
  1.09440000E+01  1.01270000E+01  9.40400000E+00  1.36660000E+01  7.81000000E+00
  6.93600000E+01  5.86630000E+01  4.79690000E+01  4.52740000E+01  3.92290000E+01
  3.30660000E+01  0.00000000E+00  0.00000000E+00  0.00000000E+00  0.00000000E+00
  0.00000000E+00  0.00000000E+00  0.00000000E+00  0.00000000E+00  0.00000000E+00
  0.00000000E+00  0.00000000E+00  0.00000000E+00  0.00000000E+00  0.00000000E+00
  0.00000000E+00  0.00000000E+00  0.00000000E+00  0.00000000E+00  0.00000000E+00
  0.00000000E+00  0.00000000E+00  0.00000000E+00  0.00000000E+00  0.00000000E+00
  0.00000000E+00  0.00000000E+00  0.00000000E+00  0.00000000E+00  0.00000000E+00
  0.00000000E+00  0.00000000E+00  0.00000000E+00  0.00000000E+00  0.00000000E+00
  0.00000000E+00  0.00000000E+00  0.00000000E+00  0.00000000E+00  0.00000000E+00
  0.00000000E+00  0.00000000E+00  0.00000000E+00  0.00000000E+00  0.00000000E+00
  0.00000000E+00  0.00000000E+00  0.00000000E+00  0.00000000E+00  0.00000000E+00
  0.00000000E+00  0.00000000E+00  0.00000000E+00  0.00000000E+00  0.00000000E+00
  0.00000000E+00  0.00000000E+00  0.00000000E+00  0.00000000E+00  0.00000000E+00
  0.00000000E+00  0.00000000E+00  0.00000000E+00  0.00000000E+00  0.00000000E+00
  0.00000000E+00  0.00000000E+00  0.00000000E+00  0.00000000E+00  0.00000000E+00
  0.00000000E+00  0.00000000E+00  0.00000000E+00  0.00000000E+00  0.00000000E+00
  0.00000000E+00  0.00000000E+00  0.00000000E+00  0.00000000E+00  0.00000000E+00
  0.00000000E+00  0.00000000E+00  0.00000000E+00  0.00000000E+00  0.00000000E+00
  0.00000000E+00  0.00000000E+00  0.00000000E+00  0.00000000E+00  0.00000000E+00
  0.00000000E+00  0.00000000E+00  0.00000000E+00  0.00000000E+00  0.00000000E+00
  0.00000000E+00  0.00000000E+00  0.00000000E+00  0.00000000E+00  0.00000000E+00
  0.00000000E+00  0.00000000E+00  0.00000000E+00  0.00000000E+00  0.00000000E+00
  0.00000000E+00  0.00000000E+00  0.00000000E+00  0.00000000E+00  0.00000000E+00
  0.00000000E+00  0.00000000E+00  0.00000000E+00  0.00000000E+00  0.00000000E+00
  0.00000000E+00  0.00000000E+00  0.00000000E+00  0.00000000E+00  0.00000000E+00
  0.00000000E+00  0.00000000E+00  0.00000000E+00  0.00000000E+00  0.00000000E+00
  0.00000000E+00  0.00000000E+00  0.00000000E+00  0.00000000E+00  0.00000000E+00
  0.00000000E+00  0.00000000E+00  0.00000000E+00  0.00000000E+00  0.00000000E+00
  0.00000000E+00  0.00000000E+00  0.00000000E+00  0.00000000E+00  0.00000000E+00
  0.00000000E+00  0.00000000E+00  0.00000000E+00  0.00000000E+00  0.00000000E+00
  0.00000000E+00  0.00000000E+00  0.00000000E+00  0.00000000E+00  0.00000000E+00
  0.00000000E+00  0.00000000E+00  0.00000000E+00  0.00000000E+00  0.00000000E+00
  0.00000000E+00  0.00000000E+00  0.00000000E+00  0.00000000E+00  0.00000000E+00
  0.00000000E+00  0.00000000E+00  0.00000000E+00  0.00000000E+00  0.00000000E+00
  0.00000000E+00  0.00000000E+00  0.00000000E+00  0.00000000E+00  0.00000000E+00
  0.00000000E+00  0.00000000E+00  0.00000000E+00  0.00000000E+00  0.00000000E+00
  0.00000000E+00  0.00000000E+00  0.00000000E+00  0.00000000E+00  0.00000000E+00
  0.00000000E+00  0.00000000E+00  0.00000000E+00  0.00000000E+00  0.00000000E+00
  0.00000000E+00  0.00000000E+00  0.00000000E+00  0.00000000E+00  0.00000000E+00
  0.00000000E+00  0.00000000E+00  0.00000000E+00  0.00000000E+00  0.00000000E+00
  0.00000000E+00  0.00000000E+00  0.00000000E+00  0.00000000E+00  0.00000000E+00
  0.00000000E+00  0.00000000E+00  0.00000000E+00  0.00000000E+00  0.00000000E+00
  0.00000000E+00  0.00000000E+00  0.00000000E+00  0.00000000E+00  0.00000000E+00
  0.00000000E+00  0.00000000E+00  0.00000000E+00  0.00000000E+00  0.00000000E+00
  0.00000000E+00  0.00000000E+00  0.00000000E+00  0.00000000E+00  0.00000000E+00
  0.00000000E+00  0.00000000E+00  0.00000000E+00  0.00000000E+00  0.00000000E+00
  0.00000000E+00  0.00000000E+00  0.00000000E+00  0.00000000E+00  0.00000000E+00
  0.00000000E+00  0.00000000E+00  0.00000000E+00  0.00000000E+00  0.00000000E+00
  0.00000000E+00  0.00000000E+00  0.00000000E+00  0.00000000E+00  0.00000000E+00
  0.00000000E+00  0.00000000E+00  0.00000000E+00  0.00000000E+00  0.00000000E+00
  0.00000000E+00  0.00000000E+00  0.00000000E+00  0.00000000E+00  0.00000000E+00
  0.00000000E+00  0.00000000E+00  0.00000000E+00  0.00000000E+00  0.00000000E+00
  0.00000000E+00  0.00000000E+00  0.00000000E+00  0.00000000E+00  0.00000000E+00
  0.00000000E+00  0.00000000E+00  0.00000000E+00  0.00000000E+00  0.00000000E+00
  0.00000000E+00  0.00000000E+00  0.00000000E+00  0.00000000E+00  0.00000000E+00
  0.00000000E+00  0.00000000E+00  0.00000000E+00  0.00000000E+00  0.00000000E+00
  0.00000000E+00  0.00000000E+00  0.00000000E+00  0.00000000E+00  0.00000000E+00
  0.00000000E+00  0.00000000E+00  0.00000000E+00  0.00000000E+00  0.00000000E+00
  0.00000000E+00  0.00000000E+00  0.00000000E+00  0.00000000E+00  0.00000000E+00
  0.00000000E+00  0.00000000E+00  0.00000000E+00  0.00000000E+00  0.00000000E+00
  0.00000000E+00  0.00000000E+00  0.00000000E+00  0.00000000E+00  0.00000000E+00
  0.00000000E+00  0.00000000E+00  0.00000000E+00  0.00000000E+00  0.00000000E+00
  0.00000000E+00  0.00000000E+00  0.00000000E+00  0.00000000E+00  0.00000000E+00
  0.00000000E+00  0.00000000E+00  0.00000000E+00  0.00000000E+00  0.00000000E+00
  0.00000000E+00  0.00000000E+00  0.00000000E+00  0.00000000E+00  0.00000000E+00
  0.00000000E+00  0.00000000E+00  0.00000000E+00  0.00000000E+00  0.00000000E+00
  0.00000000E+00  0.00000000E+00  0.00000000E+00  0.00000000E+00  0.00000000E+00
  0.00000000E+00  0.00000000E+00  0.00000000E+00  0.00000000E+00  0.00000000E+00
  0.00000000E+00  0.00000000E+00  0.00000000E+00  0.00000000E+00  0.00000000E+00
  0.00000000E+00  0.00000000E+00  0.00000000E+00  0.00000000E+00  0.00000000E+00
  0.00000000E+00  0.00000000E+00  0.00000000E+00  0.00000000E+00  0.00000000E+00
  0.00000000E+00  0.00000000E+00  0.00000000E+00  0.00000000E+00  0.00000000E+00
  0.00000000E+00  0.00000000E+00  0.00000000E+00  0.00000000E+00  0.00000000E+00
  0.00000000E+00  0.00000000E+00  0.00000000E+00  0.00000000E+00  0.00000000E+00
  0.00000000E+00  0.00000000E+00  0.00000000E+00  0.00000000E+00  0.00000000E+00
  0.00000000E+00  0.00000000E+00  0.00000000E+00  0.00000000E+00  0.00000000E+00
  0.00000000E+00  0.00000000E+00  0.00000000E+00  0.00000000E+00  0.00000000E+00
  0.00000000E+00  0.00000000E+00  0.00000000E+00  0.00000000E+00  0.00000000E+00
  0.00000000E+00  0.00000000E+00  0.00000000E+00  0.00000000E+00  0.00000000E+00
  0.00000000E+00  0.00000000E+00  0.00000000E+00  0.00000000E+00  0.00000000E+00
  0.00000000E+00  0.00000000E+00  0.00000000E+00  0.00000000E+00  0.00000000E+00
  0.00000000E+00  0.00000000E+00  0.00000000E+00  0.00000000E+00  0.00000000E+00
  0.00000000E+00  0.00000000E+00  0.00000000E+00  0.00000000E+00  0.00000000E+00
  0.00000000E+00  0.00000000E+00  0.00000000E+00  0.00000000E+00  0.00000000E+00
  0.00000000E+00  0.00000000E+00  0.00000000E+00  0.00000000E+00  0.00000000E+00
  0.00000000E+00  0.00000000E+00  0.00000000E+00  0.00000000E+00  0.00000000E+00
  0.00000000E+00  0.00000000E+00  0.00000000E+00  0.00000000E+00  0.00000000E+00
  0.00000000E+00  0.00000000E+00  0.00000000E+00  0.00000000E+00  0.00000000E+00
  0.00000000E+00  0.00000000E+00  0.00000000E+00  0.00000000E+00  0.00000000E+00
  0.00000000E+00  0.00000000E+00  0.00000000E+00  0.00000000E+00  0.00000000E+00
  0.00000000E+00  0.00000000E+00  0.00000000E+00  0.00000000E+00  0.00000000E+00
  0.00000000E+00  0.00000000E+00  0.00000000E+00  0.00000000E+00  0.00000000E+00
  0.00000000E+00  0.00000000E+00  0.00000000E+00  0.00000000E+00  0.00000000E+00
  0.00000000E+00  0.00000000E+00  0.00000000E+00  0.00000000E+00  0.00000000E+00
  0.00000000E+00  0.00000000E+00  0.00000000E+00  0.00000000E+00  0.00000000E+00
  0.00000000E+00  0.00000000E+00  0.00000000E+00  0.00000000E+00  0.00000000E+00
  0.00000000E+00  0.00000000E+00  0.00000000E+00  0.00000000E+00  0.00000000E+00
  0.00000000E+00  0.00000000E+00  0.00000000E+00  0.00000000E+00  0.00000000E+00
  0.00000000E+00  0.00000000E+00  0.00000000E+00  0.00000000E+00  0.00000000E+00
  0.00000000E+00  0.00000000E+00  0.00000000E+00  0.00000000E+00  0.00000000E+00
  0.00000000E+00  0.00000000E+00  0.00000000E+00  0.00000000E+00  0.00000000E+00
  0.00000000E+00  0.00000000E+00  0.00000000E+00  0.00000000E+00  0.00000000E+00
  0.00000000E+00  0.00000000E+00  0.00000000E+00  0.00000000E+00  0.00000000E+00
  0.00000000E+00  0.00000000E+00  0.00000000E+00  0.00000000E+00  0.00000000E+00
  0.00000000E+00  0.00000000E+00  0.00000000E+00  0.00000000E+00  0.00000000E+00
  0.00000000E+00  0.00000000E+00  0.00000000E+00  0.00000000E+00  0.00000000E+00
  0.00000000E+00  0.00000000E+00  0.00000000E+00  0.00000000E+00  0.00000000E+00
  0.00000000E+00  0.00000000E+00  0.00000000E+00  0.00000000E+00  0.00000000E+00
  0.00000000E+00  0.00000000E+00  0.00000000E+00  0.00000000E+00  0.00000000E+00
  0.00000000E+00  0.00000000E+00  0.00000000E+00  0.00000000E+00  0.00000000E+00
  0.00000000E+00  0.00000000E+00  0.00000000E+00  0.00000000E+00  0.00000000E+00
  0.00000000E+00  0.00000000E+00  0.00000000E+00  0.00000000E+00  0.00000000E+00
  0.00000000E+00  0.00000000E+00  0.00000000E+00  0.00000000E+00  0.00000000E+00
  0.00000000E+00  0.00000000E+00  0.00000000E+00  0.00000000E+00  0.00000000E+00
  0.00000000E+00  0.00000000E+00  0.00000000E+00  0.00000000E+00  0.00000000E+00
  0.00000000E+00  0.00000000E+00  0.00000000E+00  0.00000000E+00  0.00000000E+00
  0.00000000E+00  0.00000000E+00  0.00000000E+00  0.00000000E+00  0.00000000E+00
  0.00000000E+00  0.00000000E+00  0.00000000E+00  0.00000000E+00  0.00000000E+00
  0.00000000E+00  0.00000000E+00  0.00000000E+00  0.00000000E+00  0.00000000E+00
  0.00000000E+00  0.00000000E+00  0.00000000E+00  0.00000000E+00  0.00000000E+00
  0.00000000E+00  0.00000000E+00  0.00000000E+00  0.00000000E+00  0.00000000E+00
  0.00000000E+00  0.00000000E+00  0.00000000E+00  0.00000000E+00  0.00000000E+00
  0.00000000E+00  0.00000000E+00  0.00000000E+00  0.00000000E+00  0.00000000E+00
  0.00000000E+00  0.00000000E+00  0.00000000E+00  0.00000000E+00  0.00000000E+00
  0.00000000E+00  0.00000000E+00  0.00000000E+00  0.00000000E+00  0.00000000E+00
  0.00000000E+00  0.00000000E+00  0.00000000E+00  0.00000000E+00  0.00000000E+00
  0.00000000E+00  0.00000000E+00  0.00000000E+00  0.00000000E+00  0.00000000E+00
  0.00000000E+00  0.00000000E+00  0.00000000E+00  0.00000000E+00  0.00000000E+00
  0.00000000E+00  0.00000000E+00  0.00000000E+00  0.00000000E+00  0.00000000E+00
  0.00000000E+00  0.00000000E+00  0.00000000E+00  0.00000000E+00  0.00000000E+00
  0.00000000E+00  0.00000000E+00  0.00000000E+00  0.00000000E+00  0.00000000E+00
  0.00000000E+00  0.00000000E+00  0.00000000E+00  0.00000000E+00  0.00000000E+00
  0.00000000E+00  0.00000000E+00  0.00000000E+00  0.00000000E+00  0.00000000E+00
  0.00000000E+00  0.00000000E+00  0.00000000E+00  0.00000000E+00  0.00000000E+00
  0.00000000E+00  0.00000000E+00  0.00000000E+00  0.00000000E+00  0.00000000E+00
  0.00000000E+00  0.00000000E+00  0.00000000E+00  0.00000000E+00  0.00000000E+00
  0.00000000E+00  0.00000000E+00  0.00000000E+00  0.00000000E+00  0.00000000E+00
  0.00000000E+00  0.00000000E+00  0.00000000E+00  0.00000000E+00  0.00000000E+00
  0.00000000E+00  0.00000000E+00  0.00000000E+00  0.00000000E+00  0.00000000E+00
  0.00000000E+00  0.00000000E+00  0.00000000E+00  0.00000000E+00  0.00000000E+00
  0.00000000E+00  0.00000000E+00  0.00000000E+00  0.00000000E+00  0.00000000E+00
  0.00000000E+00  0.00000000E+00  0.00000000E+00  0.00000000E+00  0.00000000E+00
  0.00000000E+00  0.00000000E+00  0.00000000E+00  0.00000000E+00  0.00000000E+00
  0.00000000E+00  0.00000000E+00  0.00000000E+00  0.00000000E+00  0.00000000E+00
  0.00000000E+00  0.00000000E+00  0.00000000E+00  0.00000000E+00  0.00000000E+00
  0.00000000E+00  0.00000000E+00  0.00000000E+00  0.00000000E+00  0.00000000E+00
  0.00000000E+00  0.00000000E+00  0.00000000E+00  0.00000000E+00  0.00000000E+00
  0.00000000E+00  0.00000000E+00  0.00000000E+00  0.00000000E+00  0.00000000E+00
  0.00000000E+00  0.00000000E+00  0.00000000E+00  0.00000000E+00  0.00000000E+00
  0.00000000E+00  0.00000000E+00  0.00000000E+00  0.00000000E+00  0.00000000E+00
  0.00000000E+00  0.00000000E+00  0.00000000E+00  0.00000000E+00  0.00000000E+00
  0.00000000E+00  0.00000000E+00  0.00000000E+00  0.00000000E+00  0.00000000E+00
  0.00000000E+00  0.00000000E+00  0.00000000E+00  0.00000000E+00  0.00000000E+00
  0.00000000E+00  0.00000000E+00  0.00000000E+00  0.00000000E+00  0.00000000E+00
  0.00000000E+00  0.00000000E+00  0.00000000E+00  0.00000000E+00  0.00000000E+00
  0.00000000E+00  0.00000000E+00  0.00000000E+00  0.00000000E+00  0.00000000E+00
  0.00000000E+00  0.00000000E+00  0.00000000E+00  0.00000000E+00  0.00000000E+00
  0.00000000E+00  0.00000000E+00  0.00000000E+00  0.00000000E+00  0.00000000E+00
  0.00000000E+00  0.00000000E+00  0.00000000E+00  0.00000000E+00  0.00000000E+00
  0.00000000E+00  0.00000000E+00  0.00000000E+00  0.00000000E+00  0.00000000E+00
  0.00000000E+00  0.00000000E+00  0.00000000E+00  0.00000000E+00  0.00000000E+00
  0.00000000E+00  0.00000000E+00  0.00000000E+00  0.00000000E+00  0.00000000E+00
  0.00000000E+00  0.00000000E+00  0.00000000E+00  0.00000000E+00  0.00000000E+00
  0.00000000E+00  0.00000000E+00  0.00000000E+00  0.00000000E+00  0.00000000E+00
  0.00000000E+00  0.00000000E+00  0.00000000E+00  0.00000000E+00  0.00000000E+00
  0.00000000E+00  0.00000000E+00  0.00000000E+00  0.00000000E+00  0.00000000E+00
  0.00000000E+00  0.00000000E+00  0.00000000E+00  0.00000000E+00  0.00000000E+00
  0.00000000E+00  0.00000000E+00  0.00000000E+00  0.00000000E+00  0.00000000E+00
  0.00000000E+00  0.00000000E+00  0.00000000E+00  0.00000000E+00  0.00000000E+00
  0.00000000E+00  0.00000000E+00  0.00000000E+00  0.00000000E+00  0.00000000E+00
  0.00000000E+00  0.00000000E+00  0.00000000E+00  0.00000000E+00  0.00000000E+00
  0.00000000E+00  0.00000000E+00  0.00000000E+00  0.00000000E+00  0.00000000E+00
  0.00000000E+00  0.00000000E+00  0.00000000E+00  0.00000000E+00  0.00000000E+00
  0.00000000E+00  0.00000000E+00  0.00000000E+00  0.00000000E+00  0.00000000E+00
  0.00000000E+00  0.00000000E+00  0.00000000E+00  0.00000000E+00  0.00000000E+00
  0.00000000E+00  0.00000000E+00  0.00000000E+00  0.00000000E+00  0.00000000E+00
  0.00000000E+00  0.00000000E+00  0.00000000E+00  0.00000000E+00  0.00000000E+00
  0.00000000E+00  0.00000000E+00  0.00000000E+00  0.00000000E+00  0.00000000E+00
  0.00000000E+00  0.00000000E+00  0.00000000E+00  0.00000000E+00  0.00000000E+00
  0.00000000E+00  0.00000000E+00  0.00000000E+00  0.00000000E+00  0.00000000E+00
  0.00000000E+00  0.00000000E+00  0.00000000E+00  0.00000000E+00  0.00000000E+00
  0.00000000E+00  0.00000000E+00  0.00000000E+00  0.00000000E+00  0.00000000E+00
  0.00000000E+00  0.00000000E+00  0.00000000E+00  0.00000000E+00  0.00000000E+00
  0.00000000E+00  0.00000000E+00  0.00000000E+00  0.00000000E+00  0.00000000E+00
  0.00000000E+00  0.00000000E+00  0.00000000E+00  0.00000000E+00  0.00000000E+00
  0.00000000E+00  0.00000000E+00  0.00000000E+00  0.00000000E+00  0.00000000E+00
  0.00000000E+00  0.00000000E+00  0.00000000E+00  0.00000000E+00  0.00000000E+00
  0.00000000E+00  0.00000000E+00  0.00000000E+00  0.00000000E+00  0.00000000E+00
  0.00000000E+00  0.00000000E+00  0.00000000E+00  0.00000000E+00  0.00000000E+00
  0.00000000E+00  0.00000000E+00  0.00000000E+00  0.00000000E+00  0.00000000E+00
  0.00000000E+00  0.00000000E+00  0.00000000E+00  0.00000000E+00  0.00000000E+00
  0.00000000E+00  0.00000000E+00  0.00000000E+00  0.00000000E+00  0.00000000E+00
  0.00000000E+00  0.00000000E+00  0.00000000E+00  0.00000000E+00  0.00000000E+00
  0.00000000E+00  0.00000000E+00  0.00000000E+00  0.00000000E+00  0.00000000E+00
  0.00000000E+00  0.00000000E+00  0.00000000E+00  0.00000000E+00  0.00000000E+00
  0.00000000E+00  0.00000000E+00  0.00000000E+00  0.00000000E+00  0.00000000E+00
  0.00000000E+00  0.00000000E+00  0.00000000E+00  0.00000000E+00  0.00000000E+00
  0.00000000E+00  0.00000000E+00  0.00000000E+00  0.00000000E+00  0.00000000E+00
  0.00000000E+00  0.00000000E+00  0.00000000E+00  0.00000000E+00  0.00000000E+00
  0.00000000E+00  0.00000000E+00  0.00000000E+00  0.00000000E+00  0.00000000E+00
  0.00000000E+00  0.00000000E+00  0.00000000E+00  0.00000000E+00  0.00000000E+00
  0.00000000E+00  0.00000000E+00  0.00000000E+00  0.00000000E+00  0.00000000E+00
  0.00000000E+00  0.00000000E+00  0.00000000E+00  0.00000000E+00  0.00000000E+00
  0.00000000E+00  0.00000000E+00  0.00000000E+00  0.00000000E+00  0.00000000E+00
  0.00000000E+00  0.00000000E+00  0.00000000E+00  0.00000000E+00  0.00000000E+00
  0.00000000E+00  0.00000000E+00  0.00000000E+00  0.00000000E+00  0.00000000E+00
  0.00000000E+00  0.00000000E+00  0.00000000E+00  0.00000000E+00  0.00000000E+00
  0.00000000E+00  0.00000000E+00  0.00000000E+00  0.00000000E+00  0.00000000E+00
  0.00000000E+00  0.00000000E+00  0.00000000E+00  0.00000000E+00  0.00000000E+00
  0.00000000E+00  0.00000000E+00  0.00000000E+00  0.00000000E+00  0.00000000E+00
  0.00000000E+00  0.00000000E+00  0.00000000E+00  0.00000000E+00  0.00000000E+00
  0.00000000E+00  0.00000000E+00  0.00000000E+00  0.00000000E+00  0.00000000E+00
  0.00000000E+00  0.00000000E+00  0.00000000E+00  0.00000000E+00  0.00000000E+00
  0.00000000E+00  0.00000000E+00  0.00000000E+00  0.00000000E+00  0.00000000E+00
  0.00000000E+00  0.00000000E+00  0.00000000E+00  0.00000000E+00  0.00000000E+00
  0.00000000E+00  0.00000000E+00  0.00000000E+00  0.00000000E+00  0.00000000E+00
  0.00000000E+00  0.00000000E+00  0.00000000E+00  0.00000000E+00  0.00000000E+00
  0.00000000E+00  0.00000000E+00  0.00000000E+00  0.00000000E+00  0.00000000E+00
  0.00000000E+00  0.00000000E+00  0.00000000E+00  0.00000000E+00  0.00000000E+00
  0.00000000E+00  0.00000000E+00  0.00000000E+00  0.00000000E+00  0.00000000E+00
  0.00000000E+00  0.00000000E+00  0.00000000E+00  0.00000000E+00  0.00000000E+00
  0.00000000E+00  0.00000000E+00  0.00000000E+00  0.00000000E+00  0.00000000E+00
  0.00000000E+00  0.00000000E+00  0.00000000E+00  0.00000000E+00  0.00000000E+00
  0.00000000E+00  0.00000000E+00  0.00000000E+00  0.00000000E+00  0.00000000E+00
  0.00000000E+00  0.00000000E+00  0.00000000E+00  0.00000000E+00  0.00000000E+00
  0.00000000E+00  0.00000000E+00  0.00000000E+00  0.00000000E+00  0.00000000E+00
  0.00000000E+00  0.00000000E+00  0.00000000E+00  0.00000000E+00  0.00000000E+00
  0.00000000E+00  0.00000000E+00  0.00000000E+00  0.00000000E+00  0.00000000E+00
  0.00000000E+00  0.00000000E+00  0.00000000E+00  0.00000000E+00  0.00000000E+00
  0.00000000E+00  0.00000000E+00  0.00000000E+00  0.00000000E+00  0.00000000E+00
  0.00000000E+00  0.00000000E+00  0.00000000E+00  0.00000000E+00  0.00000000E+00
  0.00000000E+00  0.00000000E+00  0.00000000E+00  0.00000000E+00  0.00000000E+00
  0.00000000E+00  0.00000000E+00  0.00000000E+00  0.00000000E+00  0.00000000E+00
  0.00000000E+00  0.00000000E+00  0.00000000E+00  0.00000000E+00  0.00000000E+00
  0.00000000E+00  0.00000000E+00  0.00000000E+00  0.00000000E+00  0.00000000E+00
  0.00000000E+00  0.00000000E+00  0.00000000E+00  0.00000000E+00  0.00000000E+00
  0.00000000E+00  0.00000000E+00  0.00000000E+00  0.00000000E+00  0.00000000E+00
  0.00000000E+00  0.00000000E+00  0.00000000E+00  0.00000000E+00  0.00000000E+00
  0.00000000E+00  0.00000000E+00  0.00000000E+00  0.00000000E+00  0.00000000E+00
  0.00000000E+00  0.00000000E+00  0.00000000E+00  0.00000000E+00  0.00000000E+00
  0.00000000E+00  0.00000000E+00  0.00000000E+00  0.00000000E+00  0.00000000E+00
  0.00000000E+00  0.00000000E+00  0.00000000E+00  0.00000000E+00  0.00000000E+00
  0.00000000E+00  0.00000000E+00  0.00000000E+00  0.00000000E+00  0.00000000E+00
  0.00000000E+00  0.00000000E+00  0.00000000E+00  0.00000000E+00  0.00000000E+00
  0.00000000E+00  0.00000000E+00  0.00000000E+00  0.00000000E+00  0.00000000E+00
  0.00000000E+00  0.00000000E+00  0.00000000E+00  0.00000000E+00  0.00000000E+00
  0.00000000E+00  0.00000000E+00  0.00000000E+00  0.00000000E+00  0.00000000E+00
  0.00000000E+00  0.00000000E+00  0.00000000E+00  0.00000000E+00  0.00000000E+00
  0.00000000E+00  0.00000000E+00  0.00000000E+00  0.00000000E+00  0.00000000E+00
  0.00000000E+00  0.00000000E+00  0.00000000E+00  0.00000000E+00  0.00000000E+00
  0.00000000E+00  0.00000000E+00  0.00000000E+00  0.00000000E+00  0.00000000E+00
  0.00000000E+00  0.00000000E+00  0.00000000E+00  0.00000000E+00  0.00000000E+00
  0.00000000E+00  0.00000000E+00  0.00000000E+00  0.00000000E+00  0.00000000E+00
  0.00000000E+00  0.00000000E+00  0.00000000E+00  0.00000000E+00  0.00000000E+00
  0.00000000E+00  0.00000000E+00  0.00000000E+00  0.00000000E+00  0.00000000E+00
  0.00000000E+00  0.00000000E+00  0.00000000E+00  0.00000000E+00  0.00000000E+00
  0.00000000E+00  0.00000000E+00  0.00000000E+00  0.00000000E+00  0.00000000E+00
  0.00000000E+00  0.00000000E+00  0.00000000E+00  0.00000000E+00  0.00000000E+00
  0.00000000E+00  0.00000000E+00  0.00000000E+00  0.00000000E+00  0.00000000E+00
  0.00000000E+00  0.00000000E+00  0.00000000E+00  0.00000000E+00  0.00000000E+00
  0.00000000E+00  0.00000000E+00  0.00000000E+00  0.00000000E+00  0.00000000E+00
  0.00000000E+00  0.00000000E+00  0.00000000E+00  0.00000000E+00  0.00000000E+00
  0.00000000E+00  0.00000000E+00  0.00000000E+00  0.00000000E+00  0.00000000E+00
  0.00000000E+00  0.00000000E+00  0.00000000E+00  0.00000000E+00  0.00000000E+00
  0.00000000E+00  0.00000000E+00  0.00000000E+00  0.00000000E+00  0.00000000E+00
  0.00000000E+00  0.00000000E+00  0.00000000E+00  0.00000000E+00  0.00000000E+00
  0.00000000E+00  0.00000000E+00  0.00000000E+00  0.00000000E+00  0.00000000E+00
  0.00000000E+00  0.00000000E+00  0.00000000E+00  0.00000000E+00  0.00000000E+00
  0.00000000E+00  0.00000000E+00  0.00000000E+00  0.00000000E+00  0.00000000E+00
  0.00000000E+00  0.00000000E+00  0.00000000E+00  0.00000000E+00  0.00000000E+00
  0.00000000E+00  0.00000000E+00  0.00000000E+00  0.00000000E+00  0.00000000E+00
  0.00000000E+00  0.00000000E+00  0.00000000E+00  0.00000000E+00  0.00000000E+00
  0.00000000E+00  0.00000000E+00  0.00000000E+00  0.00000000E+00  0.00000000E+00
  0.00000000E+00  0.00000000E+00  0.00000000E+00  0.00000000E+00  0.00000000E+00
  0.00000000E+00  0.00000000E+00  0.00000000E+00  0.00000000E+00  0.00000000E+00
  0.00000000E+00  0.00000000E+00  0.00000000E+00  0.00000000E+00  0.00000000E+00
  0.00000000E+00  0.00000000E+00  0.00000000E+00  0.00000000E+00  0.00000000E+00
  0.00000000E+00  0.00000000E+00  0.00000000E+00  0.00000000E+00  0.00000000E+00
  0.00000000E+00  0.00000000E+00  0.00000000E+00  0.00000000E+00  0.00000000E+00
  0.00000000E+00  0.00000000E+00  0.00000000E+00  0.00000000E+00  0.00000000E+00
  0.00000000E+00  0.00000000E+00  0.00000000E+00  0.00000000E+00  0.00000000E+00
  0.00000000E+00  0.00000000E+00  0.00000000E+00  0.00000000E+00  0.00000000E+00
  0.00000000E+00  0.00000000E+00  0.00000000E+00  0.00000000E+00  0.00000000E+00
  0.00000000E+00  0.00000000E+00  0.00000000E+00  0.00000000E+00  0.00000000E+00
  0.00000000E+00  0.00000000E+00  0.00000000E+00  0.00000000E+00  0.00000000E+00
  0.00000000E+00  0.00000000E+00  0.00000000E+00  0.00000000E+00  0.00000000E+00
  0.00000000E+00  0.00000000E+00  0.00000000E+00  0.00000000E+00  0.00000000E+00
  0.00000000E+00  0.00000000E+00  0.00000000E+00  0.00000000E+00  0.00000000E+00
  0.00000000E+00  0.00000000E+00  0.00000000E+00  0.00000000E+00  0.00000000E+00
  0.00000000E+00  0.00000000E+00  0.00000000E+00  0.00000000E+00  0.00000000E+00
  0.00000000E+00  0.00000000E+00  0.00000000E+00  0.00000000E+00  0.00000000E+00
  0.00000000E+00  0.00000000E+00  0.00000000E+00  0.00000000E+00  0.00000000E+00
  0.00000000E+00  0.00000000E+00  0.00000000E+00  0.00000000E+00  0.00000000E+00
  0.00000000E+00  0.00000000E+00  0.00000000E+00  0.00000000E+00  0.00000000E+00
  0.00000000E+00  0.00000000E+00  0.00000000E+00  0.00000000E+00  0.00000000E+00
  0.00000000E+00  0.00000000E+00  0.00000000E+00  0.00000000E+00  0.00000000E+00
  0.00000000E+00  0.00000000E+00  0.00000000E+00  0.00000000E+00  0.00000000E+00
  0.00000000E+00  0.00000000E+00  0.00000000E+00  0.00000000E+00  0.00000000E+00
  0.00000000E+00  0.00000000E+00  0.00000000E+00  0.00000000E+00  0.00000000E+00
  0.00000000E+00  0.00000000E+00  0.00000000E+00  0.00000000E+00  0.00000000E+00
  0.00000000E+00  0.00000000E+00  0.00000000E+00  0.00000000E+00  0.00000000E+00
  0.00000000E+00  0.00000000E+00  0.00000000E+00  0.00000000E+00  0.00000000E+00
  0.00000000E+00  0.00000000E+00  0.00000000E+00  0.00000000E+00  0.00000000E+00
  0.00000000E+00  0.00000000E+00  0.00000000E+00  0.00000000E+00  0.00000000E+00
  0.00000000E+00  0.00000000E+00  0.00000000E+00  0.00000000E+00  0.00000000E+00
  0.00000000E+00  0.00000000E+00  0.00000000E+00  0.00000000E+00  0.00000000E+00
  0.00000000E+00  0.00000000E+00  0.00000000E+00  0.00000000E+00  0.00000000E+00
  0.00000000E+00  0.00000000E+00  0.00000000E+00  0.00000000E+00  0.00000000E+00
  0.00000000E+00  0.00000000E+00  0.00000000E+00  0.00000000E+00  0.00000000E+00
  0.00000000E+00  0.00000000E+00  0.00000000E+00  0.00000000E+00  0.00000000E+00
  0.00000000E+00  0.00000000E+00  0.00000000E+00  0.00000000E+00  0.00000000E+00
  0.00000000E+00  0.00000000E+00  0.00000000E+00  0.00000000E+00  0.00000000E+00
  0.00000000E+00  0.00000000E+00  0.00000000E+00  0.00000000E+00  0.00000000E+00
  0.00000000E+00  0.00000000E+00  0.00000000E+00  0.00000000E+00  0.00000000E+00
  0.00000000E+00  0.00000000E+00  0.00000000E+00  0.00000000E+00  0.00000000E+00
  0.00000000E+00  0.00000000E+00  0.00000000E+00  0.00000000E+00  0.00000000E+00
  0.00000000E+00  0.00000000E+00  0.00000000E+00  0.00000000E+00  0.00000000E+00
  0.00000000E+00  0.00000000E+00  0.00000000E+00  0.00000000E+00  0.00000000E+00
  0.00000000E+00  0.00000000E+00  0.00000000E+00  0.00000000E+00  0.00000000E+00
  0.00000000E+00  0.00000000E+00  0.00000000E+00  0.00000000E+00  0.00000000E+00
  0.00000000E+00  0.00000000E+00  0.00000000E+00  0.00000000E+00  0.00000000E+00
  0.00000000E+00  0.00000000E+00  0.00000000E+00  0.00000000E+00  0.00000000E+00
  0.00000000E+00  0.00000000E+00  0.00000000E+00  0.00000000E+00  0.00000000E+00
  0.00000000E+00  0.00000000E+00  0.00000000E+00  0.00000000E+00  0.00000000E+00
  0.00000000E+00  0.00000000E+00  0.00000000E+00  0.00000000E+00  0.00000000E+00
  0.00000000E+00  0.00000000E+00  0.00000000E+00  0.00000000E+00  0.00000000E+00
  0.00000000E+00  0.00000000E+00  0.00000000E+00  0.00000000E+00  0.00000000E+00
  0.00000000E+00  0.00000000E+00  0.00000000E+00  0.00000000E+00  0.00000000E+00
  0.00000000E+00  0.00000000E+00  0.00000000E+00  0.00000000E+00  0.00000000E+00
  0.00000000E+00  0.00000000E+00  0.00000000E+00  0.00000000E+00  0.00000000E+00
  0.00000000E+00  0.00000000E+00  0.00000000E+00  0.00000000E+00  0.00000000E+00
  0.00000000E+00  0.00000000E+00  0.00000000E+00  0.00000000E+00  0.00000000E+00
  0.00000000E+00  0.00000000E+00  0.00000000E+00  0.00000000E+00  0.00000000E+00
  0.00000000E+00  0.00000000E+00  0.00000000E+00  0.00000000E+00  0.00000000E+00
  0.00000000E+00  0.00000000E+00  0.00000000E+00  0.00000000E+00  0.00000000E+00
  0.00000000E+00  0.00000000E+00  0.00000000E+00  0.00000000E+00  0.00000000E+00
  0.00000000E+00  0.00000000E+00  0.00000000E+00  0.00000000E+00  0.00000000E+00
  0.00000000E+00  0.00000000E+00  0.00000000E+00  0.00000000E+00  0.00000000E+00
  0.00000000E+00  0.00000000E+00  0.00000000E+00  0.00000000E+00  0.00000000E+00
  0.00000000E+00  0.00000000E+00  0.00000000E+00  0.00000000E+00  0.00000000E+00
  0.00000000E+00  0.00000000E+00  0.00000000E+00  0.00000000E+00  0.00000000E+00
  0.00000000E+00  0.00000000E+00  0.00000000E+00  0.00000000E+00  0.00000000E+00
  0.00000000E+00  0.00000000E+00  0.00000000E+00  0.00000000E+00  0.00000000E+00
  0.00000000E+00  0.00000000E+00  0.00000000E+00  0.00000000E+00  0.00000000E+00
  0.00000000E+00  0.00000000E+00  0.00000000E+00  0.00000000E+00  0.00000000E+00
  0.00000000E+00  0.00000000E+00  0.00000000E+00  0.00000000E+00  0.00000000E+00
  0.00000000E+00  0.00000000E+00  0.00000000E+00  0.00000000E+00  0.00000000E+00
  0.00000000E+00  0.00000000E+00  0.00000000E+00  0.00000000E+00  0.00000000E+00
  0.00000000E+00  0.00000000E+00  0.00000000E+00  0.00000000E+00  0.00000000E+00
  0.00000000E+00  0.00000000E+00  0.00000000E+00  0.00000000E+00  0.00000000E+00
  0.00000000E+00  0.00000000E+00  0.00000000E+00  0.00000000E+00  0.00000000E+00
  0.00000000E+00  0.00000000E+00  0.00000000E+00  0.00000000E+00  0.00000000E+00
  0.00000000E+00  0.00000000E+00  0.00000000E+00  0.00000000E+00  0.00000000E+00
  0.00000000E+00  0.00000000E+00  0.00000000E+00  0.00000000E+00  0.00000000E+00
  0.00000000E+00  0.00000000E+00  0.00000000E+00  0.00000000E+00  0.00000000E+00
  0.00000000E+00  0.00000000E+00  0.00000000E+00  0.00000000E+00  0.00000000E+00
  0.00000000E+00  0.00000000E+00  0.00000000E+00  0.00000000E+00  0.00000000E+00
  0.00000000E+00  0.00000000E+00  0.00000000E+00  0.00000000E+00  0.00000000E+00
  0.00000000E+00  0.00000000E+00  0.00000000E+00  0.00000000E+00  0.00000000E+00
  0.00000000E+00  0.00000000E+00  0.00000000E+00  0.00000000E+00  0.00000000E+00
  0.00000000E+00  0.00000000E+00  0.00000000E+00  0.00000000E+00  0.00000000E+00
  0.00000000E+00  0.00000000E+00  0.00000000E+00  0.00000000E+00  0.00000000E+00
  0.00000000E+00  0.00000000E+00  0.00000000E+00  0.00000000E+00  0.00000000E+00
  0.00000000E+00  0.00000000E+00  0.00000000E+00  0.00000000E+00  0.00000000E+00
  0.00000000E+00  0.00000000E+00  0.00000000E+00  0.00000000E+00  0.00000000E+00
  0.00000000E+00  0.00000000E+00  0.00000000E+00  0.00000000E+00  0.00000000E+00
  0.00000000E+00  0.00000000E+00  0.00000000E+00  0.00000000E+00  0.00000000E+00
  0.00000000E+00  0.00000000E+00  0.00000000E+00  0.00000000E+00  0.00000000E+00
  0.00000000E+00  0.00000000E+00  0.00000000E+00  0.00000000E+00  0.00000000E+00
  0.00000000E+00  0.00000000E+00  0.00000000E+00  0.00000000E+00  0.00000000E+00
  0.00000000E+00  0.00000000E+00  0.00000000E+00  0.00000000E+00  0.00000000E+00
  0.00000000E+00  0.00000000E+00  0.00000000E+00  0.00000000E+00  0.00000000E+00
  0.00000000E+00  0.00000000E+00  0.00000000E+00  0.00000000E+00  0.00000000E+00
  0.00000000E+00  0.00000000E+00  0.00000000E+00  0.00000000E+00  0.00000000E+00
  0.00000000E+00  0.00000000E+00  0.00000000E+00  0.00000000E+00  0.00000000E+00
  0.00000000E+00  0.00000000E+00  0.00000000E+00  0.00000000E+00  0.00000000E+00
  0.00000000E+00  0.00000000E+00  0.00000000E+00  0.00000000E+00  0.00000000E+00
  0.00000000E+00  0.00000000E+00  0.00000000E+00  0.00000000E+00  0.00000000E+00
  0.00000000E+00  0.00000000E+00  0.00000000E+00  0.00000000E+00  0.00000000E+00
  0.00000000E+00  0.00000000E+00  0.00000000E+00  0.00000000E+00  0.00000000E+00
  0.00000000E+00  0.00000000E+00  0.00000000E+00  0.00000000E+00  0.00000000E+00
  0.00000000E+00  0.00000000E+00  0.00000000E+00  0.00000000E+00  0.00000000E+00
  0.00000000E+00  0.00000000E+00  0.00000000E+00  0.00000000E+00  0.00000000E+00
  0.00000000E+00  0.00000000E+00  0.00000000E+00  0.00000000E+00  0.00000000E+00
Gaussian Version                           C   N=           2
ES64L-G16RevC.01        
