%nproc=7
%mem=10GB
%chk=GauExternal.chk
#P hf/sto-3g scf=xqc

External Calculation

0 1
C 0.0 0.0 0.7704099999502892
H 0.0 1.0129331110464854 1.1744399999240687
H 0.8763597810968295 -0.5059665555231437 1.1744399999240687
H -0.8763597810968295 -0.5059665555231437 1.1744399999240687
C 0.0 0.0 -0.7704099999502892
H 0.8763597810968295 -0.5059665555231437 -1.1744399999240687
H -0.8763597810968295 -0.5059665555231437 -1.1744399999240687
H 0.0 1.0119331110468166 -1.1744399999240687

!normalmode
!fakekey
! scf=xqc 





