External Calculation                                                    
SP        RHF                                                         STO-3G              
Number of atoms                            I                6
Info1-9                                    I   N=           9
          20          15           0           0           0         110
           1           1           2
Full Title                                 C   N=           2
External Calculation    
Route                                      C   N=           2
#P hf/sto-3g scf=xqc    
Charge                                     I                0
Multiplicity                               I                1
Number of electrons                        I               46
Number of alpha electrons                  I               23
Number of beta electrons                   I               23
Number of basis functions                  I               30
Number of independent functions            I               30
Number of point charges in /Mol/           I                0
Number of translation vectors              I                0
Atomic numbers                             I   N=           6
           6           1           6           1          16          16
Nuclear charges                            R   N=           6
  6.00000000E+00  1.00000000E+00  6.00000000E+00  1.00000000E+00  1.60000000E+01
  1.60000000E+01
Current cartesian coordinates              R   N=          18
 -1.15319268E-03 -1.28140556E+00  9.22038961E-33 -1.75254107E+00 -2.28815140E+00
  9.86076132E-32 -9.66542027E-49  1.28061748E+00 -7.89241459E-33  1.75294808E+00
  2.28842954E+00 -4.93038066E-32 -2.90664497E+00  2.97353710E+00  9.86076132E-32
  2.90705198E+00 -2.97325895E+00 -2.46519033E-31
Number of symbols in /Mol/                 I                0
Int Atom Types                             I   N=           6
           0           0           0           0           0           0
Force Field                                I                0
Atom Types                                 C   N=           6
                                                            
            
MM charges                                 R   N=           6
  0.00000000E+00  0.00000000E+00  0.00000000E+00  0.00000000E+00  0.00000000E+00
  0.00000000E+00
Integer atomic weights                     I   N=           6
          12           1          12           1          32          32
Real atomic weights                        R   N=           6
  1.20000000E+01  1.00782504E+00  1.20000000E+01  1.00782504E+00  3.19720718E+01
  3.19720718E+01
Atom fragment info                         I   N=           6
           0           0           0           0           0           0
Atom residue num                           I   N=           6
           0           0           0           0           0           0
Nuclear spins                              I   N=           6
           0           1           0           1           0           0
Nuclear ZEff                               R   N=           6
 -3.60000000E+00 -1.00000000E+00 -3.60000000E+00 -1.00000000E+00 -1.36000000E+01
 -1.36000000E+01
Nuclear ZNuc                               R   N=           6
  6.00000000E+00  1.00000000E+00  6.00000000E+00  1.00000000E+00  1.60000000E+01
  1.60000000E+01
Nuclear QMom                               R   N=           6
  0.00000000E+00  0.00000000E+00  0.00000000E+00  0.00000000E+00  0.00000000E+00
  0.00000000E+00
Nuclear GFac                               R   N=           6
  0.00000000E+00  2.79284600E+00  0.00000000E+00  2.79284600E+00  0.00000000E+00
  0.00000000E+00
MicOpt                                     I   N=           6
          -1          -1          -1          -1          -1          -1
Number of residues                         I                0
Number of secondary structures             I                0
SymInf integers                            I   N=          26
           1           2           1           1           1           1
           1          -1           0           0           0           0
           0           0           0           0           0           0
           0           0           0           0           0           0
           0           0
RotTr to input orientation                 R   N=          12
  8.25623267E-01  5.64221784E-01 -1.22464680E-16  5.64221784E-01 -8.25623267E-01
  0.00000000E+00 -1.01109689E-16 -6.90972402E-17 -1.00000000E+00 -2.46486016E-04
  0.00000000E+00  0.00000000E+00
Number of contracted shells                I               12
Number of primitive shells                 I               36
Pure/Cartesian d shells                    I                0
Pure/Cartesian f shells                    I                0
Highest angular momentum                   I                1
Largest degree of contraction              I                3
Shell types                                I   N=          12
           0          -1           0           0          -1           0
           0          -1          -1           0          -1          -1
Number of primitives per shell             I   N=          12
           3           3           3           3           3           3
           3           3           3           3           3           3
Shell to atom map                          I   N=          12
           1           1           2           3           3           4
           5           5           5           6           6           6
Primitive exponents                        R   N=          36
  7.16168373E+01  1.30450963E+01  3.53051216E+00  2.94124936E+00  6.83483096E-01
  2.22289916E-01  3.42525091E+00  6.23913730E-01  1.68855404E-01  7.16168373E+01
  1.30450963E+01  3.53051216E+00  2.94124936E+00  6.83483096E-01  2.22289916E-01
  3.42525091E+00  6.23913730E-01  1.68855404E-01  5.33125736E+02  9.71095183E+01
  2.62816254E+01  3.33297517E+01  7.74511752E+00  2.51895260E+00  2.02919427E+00
  5.66140052E-01  2.21583379E-01  5.33125736E+02  9.71095183E+01  2.62816254E+01
  3.33297517E+01  7.74511752E+00  2.51895260E+00  2.02919427E+00  5.66140052E-01
  2.21583379E-01
Contraction coefficients                   R   N=          36
  1.54328967E-01  5.35328142E-01  4.44634542E-01 -9.99672292E-02  3.99512826E-01
  7.00115469E-01  1.54328967E-01  5.35328142E-01  4.44634542E-01  1.54328967E-01
  5.35328142E-01  4.44634542E-01 -9.99672292E-02  3.99512826E-01  7.00115469E-01
  1.54328967E-01  5.35328142E-01  4.44634542E-01  1.54328967E-01  5.35328142E-01
  4.44634542E-01 -9.99672292E-02  3.99512826E-01  7.00115469E-01 -2.19620369E-01
  2.25595434E-01  9.00398426E-01  1.54328967E-01  5.35328142E-01  4.44634542E-01
 -9.99672292E-02  3.99512826E-01  7.00115469E-01 -2.19620369E-01  2.25595434E-01
  9.00398426E-01
P(S=P) Contraction coefficients            R   N=          36
  0.00000000E+00  0.00000000E+00  0.00000000E+00  1.55916275E-01  6.07683719E-01
  3.91957393E-01  0.00000000E+00  0.00000000E+00  0.00000000E+00  0.00000000E+00
  0.00000000E+00  0.00000000E+00  1.55916275E-01  6.07683719E-01  3.91957393E-01
  0.00000000E+00  0.00000000E+00  0.00000000E+00  0.00000000E+00  0.00000000E+00
  0.00000000E+00  1.55916275E-01  6.07683719E-01  3.91957393E-01  1.05876043E-02
  5.95167005E-01  4.62001012E-01  0.00000000E+00  0.00000000E+00  0.00000000E+00
  1.55916275E-01  6.07683719E-01  3.91957393E-01  1.05876043E-02  5.95167005E-01
  4.62001012E-01
Coordinates of each shell                  R   N=          36
 -1.15319268E-03 -1.28140556E+00  7.93991410E-33 -1.15319268E-03 -1.28140556E+00
  7.93991410E-33 -1.75254107E+00 -2.28815140E+00  7.89070311E-32  0.00000000E+00
  1.28061748E+00 -7.89241459E-33  0.00000000E+00  1.28061748E+00 -7.89241459E-33
  1.75294808E+00  2.28842954E+00 -7.89237956E-32 -2.90664497E+00  2.97353710E+00
  8.91556588E-32 -2.90664497E+00  2.97353710E+00  8.91556588E-32 -2.90664497E+00
  2.97353710E+00  8.91556588E-32  2.90705198E+00 -2.97325895E+00 -8.91724233E-32
  2.90705198E+00 -2.97325895E+00 -8.91724233E-32  2.90705198E+00 -2.97325895E+00
 -8.91724233E-32
Num ILSW                                   I              100
ILSW                                       I   N=         100
           0           0           0           0           2           0
           0           0           0           0           0          -1
           5           0           0           0           0           0
           0           0           0           0           0           0
           1           0           0           0           0           0
           0           0      100000           0          -1           0
           0           0           0           0           0           0
           0           0           0           1           0           0
           0 -2000000000           1           0           0           0
           0           0           4          52           0           0
           0           0           0           0           0           0
           0           0           0           6           0           1
           0           0           0           0           0           0
           0           0           0           0           0           0
           0           0           0           0           0           0
           0           0           0           0           0           0
           0           0           0           0
Num RLSW                                   I               52
RLSW                                       R   N=          52
  1.00000000E+00  1.00000000E+00  1.00000000E+00  1.00000000E+00  1.00000000E+00
  0.00000000E+00  0.00000000E+00  1.00000000E+00  0.00000000E+00  0.00000000E+00
  0.00000000E+00  0.00000000E+00  1.00000000E+00  0.00000000E+00  0.00000000E+00
  0.00000000E+00  0.00000000E+00  1.00000000E+00  0.00000000E+00  0.00000000E+00
  0.00000000E+00  0.00000000E+00  1.00000000E+00  0.00000000E+00  0.00000000E+00
  0.00000000E+00  0.00000000E+00  1.00000000E+00  0.00000000E+00  0.00000000E+00
  0.00000000E+00  0.00000000E+00  1.00000000E+00  0.00000000E+00  0.00000000E+00
  0.00000000E+00  0.00000000E+00  0.00000000E+00  1.00000000E+00  1.00000000E+00
  0.00000000E+00  1.00000000E+00  0.00000000E+00  0.00000000E+00  0.00000000E+00
  0.00000000E+00  0.00000000E+00  0.00000000E+00  0.00000000E+00  0.00000000E+00
  0.00000000E+00  0.00000000E+00
MxBond                                     I                3
NBond                                      I   N=           6
           3           1           3           1           1           1
IBond                                      I   N=          18
           2           3           6           1           0           0
           1           4           5           3           0           0
           3           0           0           1           0           0
RBond                                      R   N=          18
  1.00000000E+00  2.00000000E+00  1.00000000E+00  1.00000000E+00  0.00000000E+00
  0.00000000E+00  2.00000000E+00  1.00000000E+00  1.00000000E+00  1.00000000E+00
  0.00000000E+00  0.00000000E+00  1.00000000E+00  0.00000000E+00  0.00000000E+00
  1.00000000E+00  0.00000000E+00  0.00000000E+00
Virial Ratio                               R      2.010923681987912E+00
SCF Energy                                 R     -8.621594812725494E+02
Total Energy                               R     -8.621594812725494E+02
RMS Density                                R      7.528623601625033E-09
Job Status                                 I                1
Nuclear derivative order                   I                0
External E-field                           R   N=          35
  0.00000000E+00  0.00000000E+00  0.00000000E+00  0.00000000E+00  0.00000000E+00
  0.00000000E+00  0.00000000E+00  0.00000000E+00  0.00000000E+00  0.00000000E+00
  0.00000000E+00  0.00000000E+00  0.00000000E+00  0.00000000E+00  0.00000000E+00
  0.00000000E+00  0.00000000E+00  0.00000000E+00  0.00000000E+00  0.00000000E+00
  0.00000000E+00  0.00000000E+00  0.00000000E+00  0.00000000E+00  0.00000000E+00
  0.00000000E+00  0.00000000E+00  0.00000000E+00  0.00000000E+00  0.00000000E+00
  0.00000000E+00  0.00000000E+00  0.00000000E+00  0.00000000E+00  0.00000000E+00
IOpCl                                      I                0
IROHF                                      I                0
Alpha Orbital Energies                     R   N=          30
 -9.07030177E+01 -9.07029952E+01 -1.10470893E+01 -1.10466423E+01 -8.61370638E+00
 -8.61365880E+00 -6.24450901E+00 -6.24448597E+00 -6.24429458E+00 -6.24425115E+00
 -6.24045869E+00 -6.24043426E+00 -1.02976092E+00 -8.75068709E-01 -7.52817468E-01
 -7.08394340E-01 -5.46607345E-01 -4.63954868E-01 -3.75816427E-01 -3.61253839E-01
 -2.52678385E-01 -2.45653278E-01 -1.93329806E-01  7.59939261E-02  3.17887166E-01
  4.48515514E-01  5.22152818E-01  6.58383564E-01  8.58572488E-01  9.21368484E-01
Alpha MO coefficients                      R   N=         900
 -6.57194378E-05  4.70798401E-04  3.87006756E-04 -2.18610786E-04  0.00000000E+00
  9.99860718E-06  1.93767562E-06 -3.64666449E-05 -1.74250410E-05 -1.79773007E-05
  0.00000000E+00  4.52288466E-05 -2.87482799E-02 -4.95726642E-04 -4.22315633E-06
  3.59938962E-06  0.00000000E+00  7.04650427E-05  9.13455957E-06 -1.04275926E-05
  0.00000000E+00  9.93749183E-01  1.71021959E-02 -1.35825208E-04  7.81360117E-05
  0.00000000E+00 -2.29217247E-03  2.66399100E-04 -1.55778218E-04  0.00000000E+00
 -1.85993159E-06 -9.28166570E-06  3.99383031E-05  5.36563031E-06  0.00000000E+00
  4.59123394E-05 -6.57429258E-05  4.69899302E-04 -3.88760080E-04  2.18274354E-04
  0.00000000E+00  1.25929959E-05  9.93749185E-01  1.71021723E-02  1.35843006E-04
 -7.81835947E-05  0.00000000E+00 -2.29224573E-03 -2.66532755E-04  1.55742360E-04
  0.00000000E+00  2.87488318E-02  4.93784467E-04 -3.63559173E-06  9.23343856E-07
  0.00000000E+00 -6.21625856E-05  6.28260845E-06  1.41272888E-06  0.00000000E+00
  6.99126249E-01  1.90689677E-02 -7.80736003E-04 -1.86424060E-03  0.00000000E+00
 -4.90464328E-03  7.04745608E-01  1.93044847E-02  7.79232866E-04  1.82494475E-03
  0.00000000E+00 -4.93750925E-03 -5.49429820E-05  1.09493348E-04  3.18431485E-04
 -2.14574326E-04  0.00000000E+00 -2.82888731E-03 -2.42972321E-03  1.54403925E-03
  0.00000000E+00 -5.44971431E-05  1.08985704E-04 -3.15886074E-04  2.12875553E-04
  0.00000000E+00 -2.80296983E-03  2.40878238E-03 -1.52979237E-03  0.00000000E+00
  7.04244351E-01  3.02109857E-02 -6.28934176E-04  4.81225771E-03  0.00000000E+00
 -5.02999005E-03 -6.98621760E-01 -3.00520783E-02 -6.13852432E-04  4.82808096E-03
  0.00000000E+00  4.98309078E-03  5.31116088E-05 -7.91547441E-05 -3.25242971E-04
  1.81354531E-04  0.00000000E+00  2.96079458E-03  2.56600342E-03 -1.50307597E-03
  0.00000000E+00 -5.35193552E-05  8.01432373E-05 -3.27792484E-04  1.82704204E-04
  0.00000000E+00 -2.98048818E-03  2.58469988E-03 -1.51233173E-03  0.00000000E+00
  9.66226361E-04 -7.16192255E-03 -5.09244451E-03  3.09384349E-03  0.00000000E+00
  2.36836998E-04 -6.04162941E-04  4.80832646E-03 -3.20040405E-03  2.12328934E-03
  0.00000000E+00 -5.20201795E-04  1.99903557E-01 -5.69681805E-01 -5.13155193E-03
  2.94360890E-03  0.00000000E+00 -2.72662714E-02 -3.01212362E-03  1.82225358E-03
  0.00000000E+00 -3.08399142E-01  8.78871351E-01 -7.91953167E-03  4.54253792E-03
  0.00000000E+00  4.19830539E-02 -4.60605236E-03  2.73253989E-03  0.00000000E+00
  6.80249475E-04 -4.24381707E-03 -3.55008427E-03  1.72280508E-03  0.00000000E+00
 -7.44660521E-04  1.01552664E-03 -6.80426644E-03  5.31994354E-03 -2.83981170E-03
  0.00000000E+00 -5.82699184E-04 -3.08405134E-01  8.78889504E-01  7.92419146E-03
 -4.56158118E-03  0.00000000E+00  4.18765367E-02  4.55400686E-03 -2.63075042E-03
  0.00000000E+00 -1.99913257E-01  5.69710993E-01 -5.13846370E-03  2.95773109E-03
  0.00000000E+00  2.70921814E-02 -2.92546793E-03  1.65438362E-03  0.00000000E+00
  0.00000000E+00  0.00000000E+00  0.00000000E+00  0.00000000E+00 -3.79910779E-03
  0.00000000E+00  0.00000000E+00  0.00000000E+00  0.00000000E+00  0.00000000E+00
 -8.12739546E-04  0.00000000E+00  0.00000000E+00  0.00000000E+00  0.00000000E+00
  0.00000000E+00  2.61087497E-01  0.00000000E+00  0.00000000E+00  0.00000000E+00
  1.40332802E-02  0.00000000E+00  0.00000000E+00  0.00000000E+00  0.00000000E+00
  9.49894442E-01  0.00000000E+00  0.00000000E+00  0.00000000E+00  5.09839653E-02
  0.00000000E+00  0.00000000E+00  0.00000000E+00  0.00000000E+00  1.31515222E-03
  0.00000000E+00  0.00000000E+00  0.00000000E+00  0.00000000E+00  0.00000000E+00
 -3.94018645E-03  0.00000000E+00  0.00000000E+00  0.00000000E+00  0.00000000E+00
  0.00000000E+00  9.49897762E-01  0.00000000E+00  0.00000000E+00  0.00000000E+00
  5.09735092E-02  0.00000000E+00  0.00000000E+00  0.00000000E+00  0.00000000E+00
 -2.61100507E-01  0.00000000E+00  0.00000000E+00  0.00000000E+00 -1.39913506E-02
 -1.16567134E-03  1.14457379E-02  7.68270351E-03 -4.53061243E-03  0.00000000E+00
 -2.98266115E-04  7.24531891E-04 -7.55227972E-03  4.78869163E-03 -2.96195812E-03
  0.00000000E+00  5.07372126E-04  2.65945884E-03 -7.75411749E-03  4.56958589E-01
 -2.71340111E-01  0.00000000E+00  3.94653697E-03  2.80981297E-02 -1.67094049E-02
  0.00000000E+00 -4.13123100E-03  1.20445970E-02  7.13594331E-01 -4.18845283E-01
  0.00000000E+00 -6.05330880E-03  4.38213611E-02 -2.57225147E-02  0.00000000E+00
  8.05892417E-04 -6.87935412E-03 -5.28726353E-03  2.79296429E-03  0.00000000E+00
 -5.67863497E-04  1.21743668E-03 -1.10251049E-02  8.00336961E-03 -4.42959160E-03
  0.00000000E+00 -3.91518912E-04  4.12273728E-03 -1.20184431E-02  7.16020560E-01
 -4.14725442E-01  0.00000000E+00  5.94089452E-03  4.39041933E-02 -2.53772446E-02
  0.00000000E+00  2.64191199E-03 -7.70112240E-03 -4.61280240E-01  2.63998818E-01
  0.00000000E+00  3.75715088E-03 -2.82474923E-02  1.61086555E-02  0.00000000E+00
 -2.38846182E-06 -4.30629493E-04 -1.98522755E-03 -3.63792936E-03  0.00000000E+00
 -2.16952707E-04  4.90353178E-05  9.77690435E-04 -1.05440518E-03 -1.43624767E-03
  0.00000000E+00 -6.84770443E-04  2.30740419E-05 -7.20418990E-05  1.62591055E-01
  2.69408051E-01  0.00000000E+00 -1.15421156E-04  8.24018311E-03  1.38287349E-02
  0.00000000E+00 -2.63991601E-05  7.82908681E-05  4.71707671E-01  8.06517842E-01
  0.00000000E+00  4.23988387E-05  2.40928009E-02  4.11769106E-02  0.00000000E+00
 -5.95799479E-05 -9.02957500E-04  1.85453360E-04  9.59830511E-04  0.00000000E+00
  1.02347130E-03 -3.44102948E-05 -2.00964603E-04 -1.69381800E-03 -3.47950974E-03
  0.00000000E+00  7.89389684E-04  1.54982348E-05 -4.32307135E-05  4.69479137E-01
  8.07823225E-01  0.00000000E+00  3.51895424E-05  2.40291337E-02  4.11879829E-02
  0.00000000E+00 -8.71086671E-06  3.03620998E-05 -1.54397800E-01 -2.74203148E-01
  0.00000000E+00  1.13232622E-04 -7.96754304E-03 -1.39065718E-02  0.00000000E+00
 -1.66544701E-01  4.50808891E-01  1.22074414E-02  9.61216928E-02  0.00000000E+00
  1.04027911E-01 -1.66514260E-01  4.50758480E-01 -1.24132566E-02 -9.61353189E-02
  0.00000000E+00  1.03804678E-01  2.43397187E-02 -8.37433266E-02 -2.49865816E-02
  1.78629690E-02  0.00000000E+00  2.22324867E-01  5.61314462E-02 -3.99369906E-02
  0.00000000E+00  2.43196210E-02 -8.36723406E-02  2.49737191E-02 -1.78326560E-02
  0.00000000E+00  2.22160506E-01 -5.61082487E-02  3.98747324E-02  0.00000000E+00
  8.99476484E-02 -2.76185330E-01 -8.74181205E-02  1.21534327E-01  0.00000000E+00
 -8.11840790E-02 -8.98784644E-02  2.76022964E-01 -8.76378240E-02  1.21695518E-01
  0.00000000E+00  8.09692556E-02  5.30010299E-02 -1.80519364E-01 -3.36005333E-02
  1.73573326E-02  0.00000000E+00  5.21518098E-01  7.79742122E-02 -4.03923700E-02
  0.00000000E+00 -5.29589367E-02  1.80373069E-01 -3.35758445E-02  1.73222510E-02
  0.00000000E+00 -5.21137114E-01  7.79276955E-02 -4.03162232E-02  0.00000000E+00
  6.25390847E-02 -1.76228679E-01  1.14664461E-01 -1.89384909E-01  0.00000000E+00
 -7.11228522E-02  6.22587572E-02 -1.75411155E-01 -1.13679591E-01  1.89775668E-01
  0.00000000E+00 -7.00811313E-02  5.96126780E-02 -2.00632685E-01 -6.48374639E-03
 -3.46575415E-03  0.00000000E+00  6.27532257E-01  1.31618060E-02  1.17754561E-02
  0.00000000E+00  5.97520497E-02 -2.01100269E-01  6.44691244E-03  3.42803877E-03
  0.00000000E+00  6.29018208E-01 -1.30543615E-02 -1.16751637E-02  0.00000000E+00
 -9.07375169E-02  2.89253624E-01 -2.55536349E-01 -1.31380988E-01  0.00000000E+00
  3.08188373E-01  9.10581739E-02 -2.90303424E-01 -2.55438266E-01 -1.29821729E-01
  0.00000000E+00 -3.07817461E-01  2.47144277E-02 -8.27399382E-02  1.67506407E-02
  1.20549183E-02  0.00000000E+00  2.67088400E-01 -4.76229834E-02 -3.34841759E-02
  0.00000000E+00 -2.45165477E-02  8.20771175E-02  1.67353375E-02  1.21346589E-02
  0.00000000E+00 -2.64955241E-01 -4.75751333E-02 -3.37078208E-02  0.00000000E+00
 -4.70454623E-04  2.04369205E-02 -1.95876466E-01 -4.22384425E-01  0.00000000E+00
  3.43133343E-01 -6.50605215E-04  2.11948001E-02  1.96242822E-01  4.22711721E-01
  0.00000000E+00  3.43758206E-01 -8.93650514E-03  2.91648012E-02 -3.08746647E-02
 -2.31554605E-02  0.00000000E+00 -1.07398087E-01  8.84233282E-02  6.98170274E-02
  0.00000000E+00 -8.88251034E-03  2.89895109E-02  3.07067453E-02  2.31327093E-02
  0.00000000E+00 -1.06736764E-01 -8.79475403E-02 -6.97323765E-02  0.00000000E+00
 -6.31331112E-02  2.55821657E-01  3.20708901E-01 -9.60886057E-02  0.00000000E+00
 -7.66670625E-02  6.31217737E-02 -2.55752857E-01  3.20784892E-01 -9.59334138E-02
  0.00000000E+00  7.68932267E-02  3.39193500E-02 -1.09072299E-01  9.98645839E-02
 -8.04191726E-02  0.00000000E+00  4.31601064E-01 -2.84393756E-01  2.35061999E-01
  0.00000000E+00 -3.39130252E-02  1.09055358E-01  9.99101539E-02 -8.03224989E-02
  0.00000000E+00 -4.31481356E-01 -2.84551423E-01  2.34792331E-01  0.00000000E+00
  0.00000000E+00  0.00000000E+00  0.00000000E+00  0.00000000E+00  5.36864298E-01
  0.00000000E+00  0.00000000E+00  0.00000000E+00  0.00000000E+00  0.00000000E+00
  5.36939365E-01  0.00000000E+00  0.00000000E+00  0.00000000E+00  0.00000000E+00
  0.00000000E+00 -1.03388339E-01  0.00000000E+00  0.00000000E+00  0.00000000E+00
  3.23773414E-01  0.00000000E+00  0.00000000E+00  0.00000000E+00  0.00000000E+00
 -1.03321734E-01  0.00000000E+00  0.00000000E+00  0.00000000E+00  3.23574218E-01
  2.28579554E-02 -1.32929671E-01 -3.40272263E-01  1.96428372E-01  0.00000000E+00
  1.90347317E-01  2.28188717E-02 -1.32689870E-01  3.40226639E-01 -1.96320875E-01
  0.00000000E+00  1.90566257E-01  1.86151708E-02 -5.81060340E-02  1.42985557E-01
 -5.53085960E-02  0.00000000E+00  2.60372598E-01 -4.28789377E-01  1.59255431E-01
  0.00000000E+00  1.86167533E-02 -5.81142503E-02 -1.43084857E-01  5.51464169E-02
  0.00000000E+00  2.60356154E-01  4.29113909E-01 -1.58760489E-01  0.00000000E+00
 -1.44378892E-02  6.13652604E-02 -5.02984407E-02  4.61351308E-02  0.00000000E+00
  9.39640180E-02  1.44852856E-02 -6.15600119E-02 -5.05843664E-02  4.64731839E-02
  0.00000000E+00 -9.39500489E-02 -9.19714963E-04  2.76035991E-03 -1.23888522E-01
 -1.81719210E-01  0.00000000E+00 -1.44788615E-02  4.05033296E-01  6.00335977E-01
  0.00000000E+00  9.13742114E-04 -2.74362867E-03 -1.24032014E-01 -1.82541498E-01
  0.00000000E+00  1.43709557E-02  4.05535569E-01  6.03029287E-01  0.00000000E+00
 -1.46663388E-02  5.34035578E-02 -2.10382386E-02  1.14081285E-01  0.00000000E+00
 -9.51587935E-02 -1.46163313E-02  5.31408892E-02  2.08079860E-02 -1.13856160E-01
  0.00000000E+00 -9.56060219E-02  1.34312616E-03 -3.99506333E-03 -8.53749618E-02
 -2.02445663E-01  0.00000000E+00  2.13084054E-02  2.86583004E-01  6.65996943E-01
  0.00000000E+00  1.34618314E-03 -4.00457451E-03  8.48157569E-02  2.01859423E-01
  0.00000000E+00  2.13523378E-02 -2.84748683E-01 -6.64062069E-01  0.00000000E+00
  0.00000000E+00  0.00000000E+00  0.00000000E+00  0.00000000E+00  2.97475928E-01
  0.00000000E+00  0.00000000E+00  0.00000000E+00  0.00000000E+00  0.00000000E+00
 -2.97262456E-01  0.00000000E+00  0.00000000E+00  0.00000000E+00  0.00000000E+00
  0.00000000E+00  2.00094174E-01  0.00000000E+00  0.00000000E+00  0.00000000E+00
 -6.46214172E-01  0.00000000E+00  0.00000000E+00  0.00000000E+00  0.00000000E+00
 -2.00128824E-01  0.00000000E+00  0.00000000E+00  0.00000000E+00  6.46331369E-01
  0.00000000E+00  0.00000000E+00  0.00000000E+00  0.00000000E+00 -3.53176692E-01
  0.00000000E+00  0.00000000E+00  0.00000000E+00  0.00000000E+00  0.00000000E+00
 -3.52840025E-01  0.00000000E+00  0.00000000E+00  0.00000000E+00  0.00000000E+00
  0.00000000E+00 -1.99910889E-01  0.00000000E+00  0.00000000E+00  0.00000000E+00
  6.61688482E-01  0.00000000E+00  0.00000000E+00  0.00000000E+00  0.00000000E+00
 -1.99961431E-01  0.00000000E+00  0.00000000E+00  0.00000000E+00  6.61851232E-01
  0.00000000E+00  0.00000000E+00  0.00000000E+00  0.00000000E+00 -7.56178654E-01
  0.00000000E+00  0.00000000E+00  0.00000000E+00  0.00000000E+00  0.00000000E+00
  7.56385568E-01  0.00000000E+00  0.00000000E+00  0.00000000E+00  0.00000000E+00
  0.00000000E+00  1.02905839E-01  0.00000000E+00  0.00000000E+00  0.00000000E+00
 -3.53840730E-01  0.00000000E+00  0.00000000E+00  0.00000000E+00  0.00000000E+00
 -1.02798454E-01  0.00000000E+00  0.00000000E+00  0.00000000E+00  3.53461968E-01
 -9.52807170E-02  5.05636252E-01  4.66002980E-01 -1.47411535E-01  0.00000000E+00
  3.65999445E-02  9.48093458E-02 -5.03052018E-01  4.64626568E-01 -1.45667171E-01
  0.00000000E+00 -3.81291335E-02  2.08015495E-02 -6.19888411E-02 -1.67636061E-01
  1.08294311E-01  0.00000000E+00  3.31559818E-01  6.16074410E-01 -3.97939649E-01
  0.00000000E+00 -2.08794420E-02  6.22250278E-02 -1.68433388E-01  1.08521315E-01
  0.00000000E+00 -3.32749500E-01  6.18958126E-01 -3.98756190E-01  0.00000000E+00
 -1.06152456E-01  6.24570720E-01  2.99293406E-01 -4.31879229E-01  0.00000000E+00
 -3.50084019E-01 -1.06957341E-01  6.29046768E-01 -3.00480372E-01  4.32572708E-01
  0.00000000E+00 -3.51743135E-01 -1.86352942E-02  5.46237368E-02  1.59031034E-01
 -7.14188559E-02  0.00000000E+00 -3.08289293E-01 -5.93580087E-01  2.68607416E-01
  0.00000000E+00 -1.85246619E-02  5.43012727E-02 -1.58247220E-01  7.08190527E-02
  0.00000000E+00 -3.06430602E-01  5.90611041E-01 -2.66348014E-01  0.00000000E+00
 -1.28159923E-01  8.08707691E-01 -4.80744086E-01 -1.27098806E-01  0.00000000E+00
 -9.06930666E-01  1.28137431E-01 -8.08314155E-01 -4.85554016E-01 -1.26983983E-01
  0.00000000E+00  9.09424308E-01  2.10772091E-03 -7.00869333E-03 -1.83336715E-02
 -9.78725798E-04  0.00000000E+00  2.64586883E-02  6.73328495E-02  4.66991964E-03
  0.00000000E+00 -2.19244441E-03  7.24967924E-03 -1.88865726E-02 -5.80293563E-04
  0.00000000E+00 -2.79542726E-02  6.94748444E-02  3.11689886E-03  0.00000000E+00
  5.17344204E-02 -3.86487494E-01  8.56196521E-01  2.13012570E-01  0.00000000E+00
  8.23126234E-01  5.07019787E-02 -3.78901923E-01 -8.53433244E-01 -2.15225191E-01
  0.00000000E+00  8.17825715E-01 -7.97435450E-03  2.16995414E-02  3.95843999E-02
 -4.42862511E-02  0.00000000E+00 -1.52362828E-01 -1.62577606E-01  1.78001834E-01
  0.00000000E+00 -7.96649090E-03  2.16743521E-02 -3.95917049E-02  4.41927593E-02
  0.00000000E+00 -1.52242452E-01  1.62601374E-01 -1.77617211E-01  0.00000000E+00
 -1.13782977E-01  8.43406983E-01  5.39530835E-02  1.12454307E+00  0.00000000E+00
  1.38571248E-01  1.13895290E-01 -8.44382228E-01  5.13370072E-02  1.12408598E+00
  0.00000000E+00 -1.36197481E-01 -1.86711734E-03  5.10301596E-03  2.44058735E-02
  1.77815413E-02  0.00000000E+00 -3.49234648E-02 -9.67951497E-02 -7.05816343E-02
  0.00000000E+00  1.83483793E-03 -5.01719431E-03  2.42055977E-02  1.79256239E-02
  0.00000000E+00  3.42763592E-02 -9.59580693E-02 -7.11725511E-02  0.00000000E+00
Orthonormal basis                          R   N=         900
  1.14138837E-01  3.59851389E-01 -1.62478809E-02  1.32282999E-01  0.00000000E+00
  2.07364600E-01  1.14040461E-01  3.59621107E-01  1.58637662E-02 -1.32490185E-01
  0.00000000E+00  2.06813907E-01  9.97505931E-03  2.84522319E-02  2.36552481E-02
 -2.03888826E-02  0.00000000E+00  9.49178638E-02  9.49511446E-02 -8.22618800E-02
  0.00000000E+00  9.96957262E-03  2.84373696E-02 -2.36684349E-02  2.03559685E-02
  0.00000000E+00  9.48843254E-02 -9.50111311E-02  8.21350308E-02  0.00000000E+00
 -1.01547150E-01 -2.24884574E-01  1.93204411E-01  2.18500248E-01  0.00000000E+00
 -3.25325290E-01  1.01729850E-01  2.25432012E-01  1.92992399E-01  2.18303791E-01
  0.00000000E+00  3.25437090E-01  1.30120060E-02  2.82298869E-02  3.97184897E-02
  9.71960138E-03  0.00000000E+00  6.29665395E-02  1.16516029E-01  2.93455090E-02
  0.00000000E+00 -1.29302731E-02 -2.80535620E-02  3.95846706E-02  9.81828928E-03
  0.00000000E+00 -6.25927431E-02  1.16137215E-01  2.96305263E-02  0.00000000E+00
  4.93996237E-02  1.12668488E-01  3.44208475E-01 -1.07839519E-01  0.00000000E+00
 -7.69347428E-02 -4.93151027E-02 -1.12471182E-01  3.44271959E-01 -1.08249940E-01
  0.00000000E+00  7.70139403E-02 -6.24967846E-02 -1.23706267E-01 -7.38700435E-02
  5.93088231E-02  0.00000000E+00 -2.21120441E-01 -1.84927221E-01  1.51820450E-01
  0.00000000E+00  6.24601966E-02  1.23636107E-01 -7.38752885E-02  5.92743384E-02
  0.00000000E+00  2.21043328E-01 -1.84965745E-01  1.51752425E-01  0.00000000E+00
  3.29131985E-02  1.64540571E-02 -6.68799380E-02  3.94127186E-01  0.00000000E+00
 -9.05098882E-02  3.30561055E-02  1.66687182E-02  6.67266763E-02 -3.93956261E-01
  0.00000000E+00 -9.04229077E-02 -1.48774322E-01 -2.15315235E-01 -1.04772784E-01
 -1.83332022E-02  0.00000000E+00 -2.08883713E-01 -1.89092293E-01 -4.00460446E-02
  0.00000000E+00 -1.48861026E-01 -2.15442410E-01  1.04845997E-01  1.83202840E-02
  0.00000000E+00 -2.09042382E-01  1.89239441E-01  4.00132996E-02  0.00000000E+00
 -6.02267244E-03 -1.62138578E-02  1.91549088E-01  2.40288434E-01  0.00000000E+00
 -2.31343274E-01 -5.99066447E-03 -1.62273803E-02 -1.91747002E-01 -2.40335630E-01
  0.00000000E+00 -2.31558490E-01  2.44587887E-01  2.94889024E-01 -6.42162561E-02
 -7.24529687E-02  0.00000000E+00  1.62719408E-01 -1.01239506E-01 -1.10627694E-01
  0.00000000E+00  2.44764360E-01  2.95102038E-01  6.40649000E-02  7.22907077E-02
  0.00000000E+00  1.62842369E-01  1.01004739E-01  1.10378285E-01  0.00000000E+00
  3.75875841E-02  4.20374987E-02  7.92537977E-02 -3.59127520E-02  0.00000000E+00
 -5.00913603E-03 -3.75886931E-02 -4.20286760E-02  7.91618742E-02 -3.60283957E-02
  0.00000000E+00  4.92414241E-03  3.37098827E-01  3.81040675E-01 -1.22350392E-01
  8.49365309E-02  0.00000000E+00  1.56744075E-01 -1.74138389E-01  1.21347314E-01
  0.00000000E+00 -3.36942397E-01 -3.80863486E-01 -1.22338387E-01  8.48893631E-02
  0.00000000E+00 -1.56663612E-01 -1.74124759E-01  1.21282982E-01  0.00000000E+00
  1.10775845E-02  4.03353706E-03 -2.60562927E-01  2.62057901E-03  0.00000000E+00
  1.89552325E-01  1.10647147E-02  4.08675947E-03  2.60597777E-01 -2.53142525E-03
  0.00000000E+00  1.89726418E-01  1.66928147E-01  1.62446240E-01 -2.26853483E-01
  1.97255153E-01  0.00000000E+00  1.84466436E-02 -2.70671168E-01  2.36680419E-01
  0.00000000E+00  1.66924237E-01  1.62441457E-01  2.27313430E-01 -1.96809665E-01
  0.00000000E+00  1.84254900E-02  2.71242639E-01 -2.36142276E-01  0.00000000E+00
  5.22891949E-02  4.24418690E-02 -5.39720391E-02 -8.69923410E-03  0.00000000E+00
  7.40472590E-02 -5.24636401E-02 -4.25944503E-02 -5.41113561E-02 -8.39779618E-03
  0.00000000E+00 -7.40906188E-02 -6.34171870E-03 -4.92237455E-03  2.48206140E-01
  3.77128325E-01  0.00000000E+00  9.35778338E-04  2.34820644E-01  3.58993730E-01
  0.00000000E+00  6.32286371E-03  4.90676425E-03  2.48290789E-01  3.78514954E-01
  0.00000000E+00 -9.52453081E-04  2.34911627E-01  3.60304669E-01  0.00000000E+00
  5.11169313E-02  3.01128342E-02  8.64823042E-02  1.88881223E-01  0.00000000E+00
 -1.43618079E-01  5.10241919E-02  3.00081948E-02 -8.66961864E-02 -1.88885873E-01
  0.00000000E+00 -1.43976506E-01  1.06344955E-02  7.49941680E-03  2.28597579E-01
  3.76572915E-01  0.00000000E+00 -5.54577845E-03  2.00388084E-01  3.28910035E-01
  0.00000000E+00  1.06399131E-02  7.50326674E-03 -2.27748546E-01 -3.75691448E-01
  0.00000000E+00 -5.54806541E-03 -1.99647553E-01 -3.28140225E-01  0.00000000E+00
  1.42921535E-01  8.07793367E-02  1.31390213E-01 -6.77749180E-02  0.00000000E+00
 -3.66737189E-03 -1.42931509E-01 -8.07951602E-02  1.31344452E-01 -6.78165822E-02
  0.00000000E+00  3.63311198E-03  2.63986885E-01  1.17871963E-01  3.56553917E-01
 -2.37125000E-01  0.00000000E+00 -2.65558379E-01  1.97026966E-01 -1.30415986E-01
  0.00000000E+00 -2.63837791E-01 -1.17804614E-01  3.56521784E-01 -2.36839520E-01
  0.00000000E+00  2.65423500E-01  1.97002228E-01 -1.30254583E-01  0.00000000E+00
  8.09867172E-02  5.80431227E-02  2.18861215E-01 -9.34841242E-02  0.00000000E+00
 -8.83739494E-02  8.08330276E-02  5.79568757E-02 -2.18770418E-01  9.34254153E-02
  0.00000000E+00 -8.84909587E-02 -3.33498213E-01 -1.06122649E-01 -2.85622728E-01
  1.46312012E-01  0.00000000E+00  3.78936753E-01 -1.14327972E-01  5.98270244E-02
  0.00000000E+00 -3.33573564E-01 -1.06145144E-01  2.85905703E-01 -1.46129241E-01
  0.00000000E+00  3.79051052E-01  1.14425480E-01 -5.97494561E-02  0.00000000E+00
 -6.39267815E-01 -2.45869865E-02 -1.95272628E-02 -8.75231645E-02  0.00000000E+00
  1.14175410E-01  6.39504960E-01  2.45861435E-02 -1.94499476E-02 -8.73291513E-02
  0.00000000E+00 -1.14247954E-01  1.62130064E-01  1.04891922E-03  9.27595830E-03
  6.34312914E-02  0.00000000E+00 -2.19589379E-01  2.32452723E-03 -3.65272248E-03
  0.00000000E+00 -1.62128505E-01 -1.04857357E-03  9.31377311E-03  6.34733697E-02
  0.00000000E+00  2.19594602E-01  2.31956873E-03 -3.65061464E-03  0.00000000E+00
  6.63955518E-01 -4.65194513E-02  3.69215092E-02 -1.42232092E-01  0.00000000E+00
 -1.15530277E-01  6.63761298E-01 -4.65298278E-02 -3.67726632E-02  1.42234024E-01
  0.00000000E+00 -1.15599575E-01  1.15494321E-01 -1.17632951E-02 -8.35929139E-02
 -3.49934974E-02  0.00000000E+00 -1.66329504E-01  1.22425196E-02  6.92444021E-03
  0.00000000E+00  1.15654443E-01 -1.17789515E-02  8.36197250E-02  3.49785562E-02
  0.00000000E+00 -1.66549607E-01 -1.22472942E-02 -6.92224475E-03  0.00000000E+00
 -1.88330409E-01  7.28064663E-02  1.45949395E-01 -1.18271802E-01  0.00000000E+00
  5.61370513E-02  1.87915049E-01 -7.26013288E-02  1.45700961E-01 -1.18193032E-01
  0.00000000E+00 -5.61864980E-02 -2.71024400E-01  1.10084719E-01  4.22073115E-01
 -2.35994255E-01  0.00000000E+00  3.48300111E-01 -2.27306542E-01  1.27085734E-01
  0.00000000E+00  2.71274424E-01 -1.10185157E-01  4.22653997E-01 -2.36023610E-01
  0.00000000E+00 -3.48601408E-01 -2.27629251E-01  1.27106357E-01  0.00000000E+00
  1.77422984E-01 -1.06213446E-01 -1.87888980E-01  6.96870188E-02  0.00000000E+00
  1.58076485E-02  1.77616724E-01 -1.06279987E-01  1.87982350E-01 -6.97860712E-02
  0.00000000E+00  1.57902487E-02 -2.21872775E-01  1.05972544E-01  4.57019330E-01
 -2.60040724E-01  0.00000000E+00  2.75097614E-01 -2.86503916E-01  1.62513953E-01
  0.00000000E+00 -2.21588530E-01  1.05835673E-01 -4.56695567E-01  2.59417373E-01
  0.00000000E+00  2.74725176E-01  2.86311828E-01 -1.62127555E-01  0.00000000E+00
 -4.08371428E-02  3.54341952E-02 -2.21550402E-02  2.26757629E-02  0.00000000E+00
  9.04668195E-02  4.08464049E-02 -3.54560647E-02 -2.21973386E-02  2.27651040E-02
  0.00000000E+00 -9.05965941E-02  2.83245247E-03 -2.23339117E-03 -2.87014813E-01
 -4.92681222E-01  0.00000000E+00 -2.87716298E-03  2.93345813E-01  5.04478125E-01
  0.00000000E+00 -2.83991316E-03  2.23847196E-03 -2.86989549E-01 -4.93455072E-01
  0.00000000E+00  2.87146694E-03  2.93324312E-01  5.05267826E-01  0.00000000E+00
 -5.60534470E-02  4.64371470E-02 -4.40378052E-03  8.69811165E-02  0.00000000E+00
 -5.17977843E-02 -5.60402972E-02  4.64089286E-02  4.40566754E-03 -8.68577073E-02
  0.00000000E+00 -5.20465256E-02 -3.15823781E-03  2.66870374E-03 -2.72551987E-01
 -4.95672579E-01  0.00000000E+00  5.23272042E-03  2.85403767E-01  5.16051177E-01
  0.00000000E+00 -3.15927545E-03  2.66933601E-03  2.71949014E-01  4.95283060E-01
  0.00000000E+00  5.23028191E-03 -2.84774795E-01 -5.15646926E-01  0.00000000E+00
  3.49794850E-02 -5.19249445E-02 -1.13007362E-01  8.20375772E-02  0.00000000E+00
 -3.97611595E-02 -3.48493523E-02  5.17170862E-02 -1.12788232E-01  8.19213051E-02
  0.00000000E+00  3.98404509E-02  5.10438441E-01 -5.96953694E-01  1.64141739E-01
 -9.58075684E-02  0.00000000E+00  2.08959863E-01 -2.58925249E-01  1.50984411E-01
  0.00000000E+00 -5.11154146E-01  5.97789874E-01  1.64452939E-01 -9.58479258E-02
  0.00000000E+00 -2.09266498E-01 -2.59409095E-01  1.51045216E-01  0.00000000E+00
  3.67361140E-02 -7.09309958E-02 -1.15593239E-01  4.68897425E-02  0.00000000E+00
  3.29858286E-04  3.67625802E-02 -7.09778722E-02  1.15684057E-01 -4.69517414E-02
  0.00000000E+00  2.87547127E-04 -5.23946639E-01  6.22580169E-01 -1.26405081E-01
  7.05602901E-02  0.00000000E+00 -2.48338302E-01  2.03696113E-01 -1.14061796E-01
  0.00000000E+00 -5.23178100E-01  6.21666189E-01  1.26283766E-01 -7.03720882E-02
  0.00000000E+00 -2.47986575E-01 -2.03494247E-01  1.13755825E-01  0.00000000E+00
 -5.99546386E-02  1.20393280E-01  5.43323441E-01 -2.61407571E-01  0.00000000E+00
  2.89424065E-01  5.91607573E-02 -1.18204840E-01  5.42404519E-01 -2.60170476E-01
  0.00000000E+00 -2.90593711E-01  1.34289691E-01 -2.38529369E-01 -1.92837000E-01
  1.20768034E-01  0.00000000E+00  5.00798334E-01  4.81692763E-01 -3.00534911E-01
  0.00000000E+00 -1.34717503E-01  2.39294010E-01 -1.93606088E-01  1.20972207E-01
  0.00000000E+00 -5.02323445E-01  4.83575453E-01 -3.01031684E-01  0.00000000E+00
  1.33519097E-01 -4.39788041E-01 -6.18756461E-01  2.66689377E-01  0.00000000E+00
 -5.59212057E-02  1.33408195E-01 -4.39428735E-01  6.21923853E-01 -2.64783707E-01
  0.00000000E+00 -6.00070439E-02  9.35471690E-02 -1.82975397E-01 -1.81748318E-01
  1.01428945E-01  0.00000000E+00  5.05287545E-01  5.14495340E-01 -2.88902116E-01
  0.00000000E+00  9.33193366E-02 -1.82535921E-01  1.81451981E-01 -1.00936692E-01
  0.00000000E+00  5.03969218E-01 -5.13614275E-01  2.87496346E-01  0.00000000E+00
  5.92585515E-02 -1.66973785E-01  3.33144934E-01  8.23499867E-01  0.00000000E+00
  7.72019555E-01 -6.11395224E-02  1.73961157E-01  3.35831311E-01  8.27618767E-01
  0.00000000E+00 -7.78790643E-01 -2.10791620E-02  4.36835482E-02  5.89028705E-02
  2.87399655E-03  0.00000000E+00 -1.25917105E-01 -1.73812943E-01 -8.39745052E-03
  0.00000000E+00  2.07173937E-02 -4.29356036E-02  5.79280726E-02  3.12775828E-03
  0.00000000E+00  1.23732347E-01 -1.70946090E-01 -9.15153959E-03  0.00000000E+00
  1.45126253E-01 -6.67474061E-01  6.25743449E-01  3.61689882E-01  0.00000000E+00
  8.90616201E-01  1.45518835E-01 -6.69260708E-01 -6.21536521E-01 -3.52573872E-01
  0.00000000E+00  8.83289025E-01  2.95301442E-03 -7.83041053E-03 -2.32167652E-02
 -1.33832030E-02  0.00000000E+00  7.72592202E-03  6.86272795E-02  4.66139249E-02
  0.00000000E+00  2.92877231E-03 -7.77800744E-03  2.32728419E-02  1.36830541E-02
  0.00000000E+00  7.51439362E-03 -6.88004421E-02 -4.75864370E-02  0.00000000E+00
 -2.43817845E-01  1.31411554E+00 -8.73217934E-02  7.07435353E-01  0.00000000E+00
 -3.65657159E-01  2.43461384E-01 -1.31197470E+00 -8.50913877E-02  7.08451433E-01
  0.00000000E+00  3.62563098E-01  1.15872452E-02 -2.91150074E-02 -2.84722943E-02
  3.39440751E-02  0.00000000E+00  1.19084228E-01  1.04232565E-01 -1.25612819E-01
  0.00000000E+00 -1.15768423E-02  2.90939144E-02 -2.85040925E-02  3.38539197E-02
  0.00000000E+00 -1.18920885E-01  1.04328511E-01 -1.25268397E-01  0.00000000E+00
  0.00000000E+00  0.00000000E+00  0.00000000E+00  0.00000000E+00  4.14139453E-01
  0.00000000E+00  0.00000000E+00  0.00000000E+00  0.00000000E+00  0.00000000E+00
  4.14276311E-01  0.00000000E+00  0.00000000E+00  0.00000000E+00  0.00000000E+00
  0.00000000E+00  2.67031850E-01  0.00000000E+00  0.00000000E+00  0.00000000E+00
  3.56619549E-01  0.00000000E+00  0.00000000E+00  0.00000000E+00  0.00000000E+00
  2.66753469E-01  0.00000000E+00  0.00000000E+00  0.00000000E+00  3.56251998E-01
  0.00000000E+00  0.00000000E+00  0.00000000E+00  0.00000000E+00  1.00604774E-01
  0.00000000E+00  0.00000000E+00  0.00000000E+00  0.00000000E+00  0.00000000E+00
 -1.00458445E-01  0.00000000E+00  0.00000000E+00  0.00000000E+00  0.00000000E+00
  0.00000000E+00 -4.27845669E-01  0.00000000E+00  0.00000000E+00  0.00000000E+00
 -4.47362889E-01  0.00000000E+00  0.00000000E+00  0.00000000E+00  0.00000000E+00
  4.28215247E-01  0.00000000E+00  0.00000000E+00  0.00000000E+00  4.47750519E-01
  0.00000000E+00  0.00000000E+00  0.00000000E+00  0.00000000E+00  4.65923454E-01
  0.00000000E+00  0.00000000E+00  0.00000000E+00  0.00000000E+00  0.00000000E+00
  4.65807037E-01  0.00000000E+00  0.00000000E+00  0.00000000E+00  0.00000000E+00
  0.00000000E+00 -3.94888126E-01  0.00000000E+00  0.00000000E+00  0.00000000E+00
 -2.45845589E-01  0.00000000E+00  0.00000000E+00  0.00000000E+00  0.00000000E+00
 -3.94662493E-01  0.00000000E+00  0.00000000E+00  0.00000000E+00 -2.45700985E-01
  0.00000000E+00  0.00000000E+00  0.00000000E+00  0.00000000E+00  5.68958541E-01
  0.00000000E+00  0.00000000E+00  0.00000000E+00  0.00000000E+00  0.00000000E+00
 -5.68829943E-01  0.00000000E+00  0.00000000E+00  0.00000000E+00  0.00000000E+00
  0.00000000E+00  4.43866072E-01  0.00000000E+00  0.00000000E+00  0.00000000E+00
 -2.96669333E-01  0.00000000E+00  0.00000000E+00  0.00000000E+00  0.00000000E+00
 -4.43572069E-01  0.00000000E+00  0.00000000E+00  0.00000000E+00  2.96477451E-01
  0.00000000E+00  0.00000000E+00  0.00000000E+00  0.00000000E+00 -1.56037672E-01
  0.00000000E+00  0.00000000E+00  0.00000000E+00  0.00000000E+00  0.00000000E+00
 -1.55647516E-01  0.00000000E+00  0.00000000E+00  0.00000000E+00  0.00000000E+00
  0.00000000E+00 -5.55363044E-01  0.00000000E+00  0.00000000E+00  0.00000000E+00
  5.96836895E-01  0.00000000E+00  0.00000000E+00  0.00000000E+00  0.00000000E+00
 -5.56045208E-01  0.00000000E+00  0.00000000E+00  0.00000000E+00  5.97569532E-01
  0.00000000E+00  0.00000000E+00  0.00000000E+00  0.00000000E+00 -5.71395004E-01
  0.00000000E+00  0.00000000E+00  0.00000000E+00  0.00000000E+00  0.00000000E+00
  5.71676163E-01  0.00000000E+00  0.00000000E+00  0.00000000E+00  0.00000000E+00
  0.00000000E+00  3.94985423E-01  0.00000000E+00  0.00000000E+00  0.00000000E+00
 -5.06235161E-01  0.00000000E+00  0.00000000E+00  0.00000000E+00  0.00000000E+00
 -3.94366962E-01  0.00000000E+00  0.00000000E+00  0.00000000E+00  5.05439253E-01
Total SCF Density                          R   N=         465
  2.07529047E+00 -2.46957355E-01  9.71813410E-01 -1.48922112E-02  1.09462053E-01
  6.92695807E-01  1.10270136E-02 -9.05049378E-02 -3.46014560E-02  6.37176005E-01
  0.00000000E+00 -6.51245540E-33 -3.45790360E-32  9.55978412E-33  7.53462732E-01
 -1.09885670E-01  2.67067375E-01 -4.75651384E-01 -2.67200839E-01  0.00000000E+00
  5.90475066E-01  2.50539014E-02 -5.86671143E-02  3.53517497E-03 -1.15332968E-01
  0.00000000E+00  3.13963452E-02  2.07528794E+00 -5.86547016E-02  5.01242316E-02
 -7.20013946E-03  2.81675140E-01  0.00000000E+00 -1.23313499E-01 -2.47008299E-01
  9.72041973E-01 -3.55097943E-03  7.21805640E-03  2.10357115E-02 -7.20192896E-03
 -4.92626517E-33  7.18890186E-02  1.49051912E-02 -1.09281517E-01  6.92593977E-01
  1.15300948E-01 -2.81602405E-01 -7.17041894E-03 -4.64094281E-01  2.46313259E-33
  1.13631202E-01 -1.10151565E-02  9.05583251E-02 -3.45661844E-02  6.37110794E-01
  0.00000000E+00 -3.82689528E-33 -1.12552289E-33 -5.36532115E-33  3.99666112E-01
  0.00000000E+00  0.00000000E+00  6.50421229E-33 -3.45735806E-32  9.55724131E-33
  7.53370069E-01  3.13930573E-02 -1.23378671E-01 -7.19132274E-02 -1.13665593E-01
  0.00000000E+00  1.25895196E-01 -1.09802469E-01  2.67173468E-01  4.75851963E-01
  2.67182210E-01  0.00000000E+00  5.90821211E-01  9.27463612E-04 -2.25969451E-03
  5.20078277E-03 -2.74897720E-03  0.00000000E+00 -8.25056185E-04 -1.76849465E-03
  4.45001892E-04 -1.02450830E-02  5.64898608E-03  0.00000000E+00 -3.67687169E-03
  2.26521741E+00 -3.39912294E-03  8.49096219E-03 -1.65891554E-02  1.01024348E-02
  0.00000000E+00  3.76594386E-03  6.72085462E-03 -2.07384517E-03  3.58089467E-02
 -2.01887491E-02  0.00000000E+00  1.33848936E-02 -7.97314181E-01  2.40065649E+00
 -1.51468023E-03 -4.87751011E-03 -1.09116889E-02  1.68046989E-02 -1.05388182E-34
  2.21937868E-02  3.79987509E-02 -1.55368489E-01  1.71676498E-01 -1.16516230E-01
  2.93231247E-33  6.86099160E-02  9.61265028E-03 -2.86395407E-02  2.04903341E+00
  1.32059468E-02 -5.87967777E-02  1.18219129E-02 -4.41345440E-02  5.26940911E-35
 -9.23708159E-03 -2.12988583E-02  8.91070839E-02 -1.09824424E-01  4.20493158E-02
 -1.46615623E-33  2.40337352E-02 -5.40868475E-03  1.60647993E-02  5.16641709E-02
  2.11131508E+00  0.00000000E+00 -4.84246423E-34  6.83704128E-34 -1.37253588E-33
  8.55010511E-03  0.00000000E+00  0.00000000E+00  8.75858754E-33 -9.81799538E-33
  6.26299148E-33 -2.37897450E-01  0.00000000E+00  0.00000000E+00  1.61005231E-33
 -1.00388337E-31  2.34767273E-32  2.04239853E+00  7.30534766E-03 -6.45771821E-03
  6.39116274E-02 -2.47552576E-02  0.00000000E+00 -1.06819456E-02  1.64741894E-02
 -1.78575614E-01  3.89664108E-02 -2.94309403E-02  0.00000000E+00 -3.13191093E-02
  1.53880273E-01 -5.48061613E-01  1.34945761E-01 -7.60892397E-02  0.00000000E+00
  2.11076766E+00  1.96032287E-03  2.78275130E-02  3.69889356E-02 -4.84562118E-02
  4.53522296E-34 -6.96124285E-02 -9.88245871E-02  3.58556409E-01 -4.61364393E-01
  2.94846600E-01 -9.01593202E-33 -2.25450712E-01 -3.06296771E-02  9.19521303E-02
 -2.30092601E-01 -1.79148326E-01  2.72883135E-33 -3.88600238E-01  1.06763453E+00
 -4.57157189E-02  1.88221925E-01 -4.75013447E-02  1.52573030E-01 -2.26761148E-34
  3.46240964E-02  5.48861103E-02 -2.04635639E-01  2.75287478E-01 -1.33440407E-01
  4.50796601E-33 -9.11515701E-02  1.72002409E-02 -5.14626285E-02 -1.79352645E-01
 -4.46069218E-01 -1.36441567E-33  2.18071435E-01  6.01817816E-01  1.79351645E+00
  0.00000000E+00  9.48012033E-34 -2.40919460E-33  4.26968348E-33 -3.67940999E-02
  0.00000000E+00  0.00000000E+00 -2.02005248E-32  2.61402009E-32 -1.61818398E-32
  7.31459305E-01  0.00000000E+00  0.00000000E+00 -5.16791592E-33  9.13374905E-33
  3.33446679E-33 -2.21389100E-01  2.18474089E-32 -4.52204691E-32 -7.56511215E-33
  1.05043442E+00 -1.76558068E-03  4.42205152E-04  1.02354925E-02 -5.64069759E-03
  0.00000000E+00 -3.67045499E-03  9.28018027E-04 -2.26433591E-03 -5.20127417E-03
  2.74792582E-03  0.00000000E+00 -8.26513404E-04  4.47136132E-05 -1.87713682E-04
 -6.22736201E-04  9.87713693E-04  0.00000000E+00 -8.67705496E-05  1.68307826E-03
 -3.06033278E-03  0.00000000E+00  2.26521803E+00  6.70908693E-03 -2.06132330E-03
 -3.57739649E-02  2.01581444E-02  0.00000000E+00  1.33640136E-02 -3.40026937E-03
  8.50455267E-03  1.65915609E-02 -1.00968085E-02  0.00000000E+00  3.77049028E-03
 -1.87686511E-04  7.46577217E-04  2.19607367E-03 -3.27156322E-03  0.00000000E+00
 -2.71800351E-04 -6.06077632E-03  1.02567922E-02  0.00000000E+00 -7.97315837E-01
  2.40066074E+00 -3.79977028E-02  1.55402122E-01  1.71774560E-01 -1.16484416E-01
  2.93247692E-33 -6.85356957E-02  1.51905092E-03  4.83300203E-03 -1.09088423E-02
  1.68278808E-02 -1.05264790E-34 -2.22195543E-02  6.23094849E-04 -2.19739245E-03
 -5.11240751E-03  9.22594962E-03  7.24163819E-34  5.49034772E-03  1.55434867E-02
 -3.06248181E-02 -2.36397398E-33 -9.61347712E-03  2.86453041E-02  2.04896203E+00
  2.12725523E-02 -8.89809615E-02 -1.09721196E-01  4.19826104E-02 -1.46623846E-33
 -2.40349871E-02 -1.32018813E-02  5.87910618E-02  1.18121654E-02 -4.40829791E-02
  5.26323949E-35  9.24556746E-03 -9.87834854E-04  3.27180262E-03  9.21776577E-03
 -9.53379457E-03 -3.62081910E-34 -1.11494226E-02 -3.02957044E-02  3.23472384E-02
  1.18198699E-33  5.40145646E-03 -1.60450280E-02  5.16347943E-02  2.11137651E+00
  0.00000000E+00 -8.75869118E-33 -9.82155784E-33  6.26060074E-33 -2.37910793E-01
  0.00000000E+00  0.00000000E+00  4.86370387E-34  6.83443628E-34 -1.37304325E-33
  8.54009434E-03  0.00000000E+00  0.00000000E+00  1.48667893E-34  3.65678886E-34
 -5.72387526E-34 -5.87511488E-02 -4.08122286E-34 -1.13977645E-33  1.90863060E-33
  1.91788355E-01  0.00000000E+00 -1.61009277E-33 -1.00385180E-31  2.34789328E-32
  2.04239970E+00  1.64740583E-02 -1.78427935E-01 -3.90187816E-02  2.93847460E-02
  0.00000000E+00 -3.12489037E-02  7.32306712E-03 -6.54683418E-03 -6.39289749E-02
  2.47667097E-02  0.00000000E+00 -1.06971316E-02 -8.64172152E-05 -2.73426985E-04
 -5.48814816E-03  1.11458840E-02  0.00000000E+00 -1.03370723E-02  1.26009771E-02
 -3.21860296E-02  0.00000000E+00  1.53888840E-01 -5.48088838E-01 -1.34928370E-01
  7.59705241E-02  0.00000000E+00  2.11078075E+00  9.88292087E-02 -3.58739224E-01
 -4.61647708E-01  2.94842435E-01 -9.01696056E-33  2.25179348E-01 -1.98313693E-03
 -2.76659006E-02  3.69864545E-02 -4.85507911E-02  4.53018735E-34  6.96916859E-02
 -1.68419317E-03  6.06499764E-03  1.55442555E-02 -3.03211716E-02 -2.36397611E-33
 -1.26067873E-02 -4.63597802E-02  9.92965139E-02  7.71361695E-33  3.06314888E-02
 -9.19659878E-02 -2.29866030E-01 -1.79033253E-01  2.72894725E-33  3.88590047E-01
  1.06688623E+00 -5.48247548E-02  2.04383384E-01  2.75042286E-01 -1.33300596E-01
  4.50848028E-33  9.11188807E-02  4.57077465E-02 -1.88231122E-01 -4.74828349E-02
  1.52409782E-01 -2.26509368E-34 -3.46597218E-02  3.06121739E-03 -1.02593524E-02
 -3.05991076E-02  3.23471356E-02  1.18198806E-33  3.22022567E-02  9.92167425E-02
 -1.08317939E-01 -3.85680848E-33 -1.71764433E-02  5.13956258E-02 -1.79238490E-01
 -4.46289157E-01 -1.36447363E-33 -2.17743615E-01  6.01418372E-01  1.79426106E+00
  0.00000000E+00  2.02064290E-32  2.61511472E-32 -1.61799111E-32  7.31542750E-01
  0.00000000E+00  0.00000000E+00 -9.56093497E-34 -2.40884413E-33  4.27233442E-33
 -3.67532462E-02  0.00000000E+00  0.00000000E+00 -4.25483752E-34 -1.14355409E-33
  1.89365841E-33  1.91788527E-01  1.01848606E-33  3.50865441E-33 -6.23081780E-33
 -6.25802954E-01  0.00000000E+00  5.16777327E-33  9.12398533E-33  3.32608233E-33
 -2.21398504E-01 -2.18428658E-32 -4.51884986E-32 -7.53624001E-33  1.05047927E+00
Mulliken Charges                           R   N=           6
 -1.51322105E-01  7.47631002E-02 -1.51143566E-01  7.45973259E-02  7.65345466E-02
  7.65706979E-02
ONIOM Charges                              I   N=          16
           0           0           0           0           0           0
           0           0           0           0           0           0
           0           0           0           0
ONIOM Multiplicities                       I   N=          16
           1           0           0           0           0           0
           0           0           0           0           0           0
           0           0           0           0
Atom Layers                                I   N=           6
           1           1           1           1           1           1
Atom Modifiers                             I   N=           6
           0           0           0           0           0           0
Int Atom Modified Types                    I   N=           6
           0           0           0           0           0           0
Force Field                                I                0
Atom Modified Types                        C   N=           6
                                                            
            
Link Atoms                                 I   N=           6
           0           0           0           0           0           0
Atom Modified MM Charges                   R   N=           6
  0.00000000E+00  0.00000000E+00  0.00000000E+00  0.00000000E+00  0.00000000E+00
  0.00000000E+00
Link Distances                             R   N=          24
  0.00000000E+00  0.00000000E+00  0.00000000E+00  0.00000000E+00  0.00000000E+00
  0.00000000E+00  0.00000000E+00  0.00000000E+00  0.00000000E+00  0.00000000E+00
  0.00000000E+00  0.00000000E+00  0.00000000E+00  0.00000000E+00  0.00000000E+00
  0.00000000E+00  0.00000000E+00  0.00000000E+00  0.00000000E+00  0.00000000E+00
  0.00000000E+00  0.00000000E+00  0.00000000E+00  0.00000000E+00
Cartesian Gradient                         R   N=          18
  0.00000000E+00  0.00000000E+00 -0.00000000E+00  0.00000000E+00  0.00000000E+00
 -0.00000000E+00  0.00000000E+00  0.00000000E+00 -0.00000000E+00  0.00000000E+00
  0.00000000E+00 -0.00000000E+00  0.00000000E+00  0.00000000E+00 -0.00000000E+00
  0.00000000E+00  0.00000000E+00 -0.00000000E+00
Nonadiabatic coupling                      R   N=          18
  0.00000000E+00  0.00000000E+00 -0.00000000E+00  0.00000000E+00  0.00000000E+00
 -0.00000000E+00  0.00000000E+00  0.00000000E+00 -0.00000000E+00  0.00000000E+00
  0.00000000E+00 -0.00000000E+00  0.00000000E+00  0.00000000E+00 -0.00000000E+00
  0.00000000E+00  0.00000000E+00 -0.00000000E+00
Dipole Moment                              R   N=           3
  1.12566528E-04 -3.32229556E-04  6.81598644E-33
Quadrupole Moment                          R   N=           6
 -6.98853159E-01 -1.15595116E+00  1.85480432E+00  1.52085257E+00  4.56060211E-31
 -1.97215226E-31
QEq coupling tensors                       R   N=          36
  6.24171336E-03 -3.54702735E-02 -4.97297672E-02 -1.42518816E-32 -1.15555797E-32
  4.34880538E-02 -2.19528210E-01 -2.35981100E-01  3.89001756E-02  1.84889275E-32
  2.46519033E-32  1.80628034E-01  6.31411547E-03 -3.52997160E-02 -4.97382937E-02
 -1.44444746E-32 -1.92592994E-32  4.34241782E-02 -2.18092293E-01 -2.34491634E-01
  3.86121553E-02  2.77333912E-32  1.23259516E-32  1.79480138E-01 -1.04968724E+00
  2.96948147E+00  2.52706432E+00  7.39557099E-32 -4.93038066E-32 -1.47737708E+00
 -1.05362000E+00  2.96780086E+00  2.53076959E+00  1.97215226E-31 -9.86076132E-32
 -1.47714959E+00
ClPar MaxAn                                I              200
ClPar NIntPar                              I                4
ClPar NRealPar                             I               16
ClPar NBits                                I               30
ClPar LenBitVec                            I                1
ClPar Read BitMap                          I   N=         200
           0           0           0           0           0           0
           0           0           0           0           0           0
           0           0           0           0           0           0
           0           0           0           0           0           0
           0           0           0           0           0           0
           0           0           0           0           0           0
           0           0           0           0           0           0
           0           0           0           0           0           0
           0           0           0           0           0           0
           0           0           0           0           0           0
           0           0           0           0           0           0
           0           0           0           0           0           0
           0           0           0           0           0           0
           0           0           0           0           0           0
           0           0           0           0           0           0
           0           0           0           0           0           0
           0           0           0           0           0           0
           0           0           0           0           0           0
           0           0           0           0           0           0
           0           0           0           0           0           0
           0           0           0           0           0           0
           0           0           0           0           0           0
           0           0           0           0           0           0
           0           0           0           0           0           0
           0           0           0           0           0           0
           0           0           0           0           0           0
           0           0           0           0           0           0
           0           0           0           0           0           0
           0           0           0           0           0           0
           0           0           0           0           0           0
           0           0           0           0           0           0
           0           0           0           0           0           0
           0           0           0           0           0           0
           0           0
ClPar Default BitMap                       I   N=         200
        2016        2016        2016        2016        2016        2016
        2016        2016        2016        2016        2016        2016
        2016        2016        2016        2016        2016        2016
        2016        2016        2016        2016        2016        2016
        2016        2016        2016        2016        2016        2016
        2016        2016        2016        2016        2016        2016
        2016        2016        2016        2016        2016        2016
        2016        2016        2016        2016        2016        2016
        2016        2016        2016        2016        2016        2016
        2016        2016        2016        2016        2016        2016
        2016        2016        2016        2016        2016        2016
        2016        2016        2016        2016        2016        2016
        2016        2016        2016        2016        2016        2016
        2016        2016        2016        2016        2016        2016
        2016        2016         480         480         480         480
         480         480         480         480         480         480
         480         480         480         480         480         480
         480         480         480         480         480         480
         480         480         480         480         480         480
         480         480         480         480         480         480
         480         480         480         480         480         480
         480         480         480         480         480         480
         480         480         480         480         480         480
         480         480         480         480         480         480
         480         480         480         480         480         480
         480         480         480         480         480         480
         480         480         480         480         480         480
         480         480         480         480         480         480
         480         480         480         480         480         480
         480         480         480         480         480         480
         480         480         480         480         480         480
         480         480         480         480         480         480
         480         480         480         480         480         480
         480         480
ClPar Int Params                           I   N=         800
           0           0           0           0           0           0
           0           0           0           0           0           0
           0           0           0           0           0           0
           0           0           0           0           0           0
           0           0           0           0           0           0
           0           0           0           0           0           0
           0           0           0           0           0           0
           0           0           0           0           0           0
           0           0           0           0           0           0
           0           0           0           0           0           0
           0           0           0           0           0           0
           0           0           0           0           0           0
           0           0           0           0           0           0
           0           0           0           0           0           0
           0           0           0           0           0           0
           0           0           0           0           0           0
           0           0           0           0           0           0
           0           0           0           0           0           0
           0           0           0           0           0           0
           0           0           0           0           0           0
           0           0           0           0           0           0
           0           0           0           0           0           0
           0           0           0           0           0           0
           0           0           0           0           0           0
           0           0           0           0           0           0
           0           0           0           0           0           0
           0           0           0           0           0           0
           0           0           0           0           0           0
           0           0           0           0           0           0
           0           0           0           0           0           0
           0           0           0           0           0           0
           0           0           0           0           0           0
           0           0           0           0           0           0
           0           0           0           0           0           0
           0           0           0           0           0           0
           0           0           0           0           0           0
           0           0           0           0           0           0
           0           0           0           0           0           0
           0           0           0           0           0           0
           0           0           0           0           0           0
           0           0           0           0           0           0
           0           0           0           0           0           0
           0           0           0           0           0           0
           0           0           0           0           0           0
           0           0           0           0           0           0
           0           0           0           0           0           0
           0           0           0           0           0           0
           0           0           0           0           0           0
           0           0           0           0           0           0
           0           0           0           0           0           0
           0           0           0           0           0           0
           0           0           0           0           0           0
           0           0           0           0           0           0
           0           0           0           0           0           0
           0           0           0           0           0           0
           0           0           0           0           0           0
           0           0           0           0           0           0
           0           0           0           0           0           0
           0           0           0           0           0           0
           0           0           0           0           0           0
           0           0           0           0           0           0
           0           0           0           0           0           0
           0           0           0           0           0           0
           0           0           0           0           0           0
           0           0           0           0           0           0
           0           0           0           0           0           0
           0           0           0           0           0           0
           0           0           0           0           0           0
           0           0           0           0           0           0
           0           0           0           0           0           0
           0           0           0           0           0           0
           0           0           0           0           0           0
           0           0           0           0           0           0
           0           0           0           0           0           0
           0           0           0           0           0           0
           0           0           0           0           0           0
           0           0           0           0           0           0
           0           0           0           0           0           0
           0           0           0           0           0           0
           0           0           0           0           0           0
           0           0           0           0           0           0
           0           0           0           0           0           0
           0           0           0           0           0           0
           0           0           0           0           0           0
           0           0           0           0           0           0
           0           0           0           0           0           0
           0           0           0           0           0           0
           0           0           0           0           0           0
           0           0           0           0           0           0
           0           0           0           0           0           0
           0           0           0           0           0           0
           0           0           0           0           0           0
           0           0           0           0           0           0
           0           0           0           0           0           0
           0           0           0           0           0           0
           0           0           0           0           0           0
           0           0           0           0           0           0
           0           0           0           0           0           0
           0           0           0           0           0           0
           0           0           0           0           0           0
           0           0           0           0           0           0
           0           0           0           0           0           0
           0           0           0           0           0           0
           0           0           0           0           0           0
           0           0           0           0           0           0
           0           0           0           0           0           0
           0           0           0           0           0           0
           0           0           0           0           0           0
           0           0           0           0           0           0
           0           0           0           0           0           0
           0           0           0           0           0           0
           0           0           0           0           0           0
           0           0           0           0           0           0
           0           0           0           0           0           0
           0           0           0           0           0           0
           0           0           0           0           0           0
           0           0           0           0           0           0
           0           0           0           0           0           0
           0           0           0           0           0           0
           0           0           0           0           0           0
           0           0           0           0           0           0
           0           0           0           0           0           0
           0           0           0           0           0           0
           0           0           0           0           0           0
           0           0           0           0           0           0
           0           0           0           0           0           0
           0           0           0           0           0           0
           0           0           0           0           0           0
           0           0           0           0           0           0
           0           0           0           0           0           0
           0           0           0           0           0           0
           0           0           0           0           0           0
           0           0           0           0           0           0
           0           0
ClPar Real Params                          R   N=        3200
  0.00000000E+00  0.00000000E+00  0.00000000E+00  0.00000000E+00  0.00000000E+00
  0.00000000E+00  0.00000000E+00  0.00000000E+00  0.00000000E+00  0.00000000E+00
  0.00000000E+00  0.00000000E+00  0.00000000E+00  0.00000000E+00  0.00000000E+00
  0.00000000E+00  0.00000000E+00  0.00000000E+00  0.00000000E+00  0.00000000E+00
  0.00000000E+00  0.00000000E+00  0.00000000E+00  0.00000000E+00  0.00000000E+00
  0.00000000E+00  0.00000000E+00  0.00000000E+00  0.00000000E+00  0.00000000E+00
  0.00000000E+00  0.00000000E+00  0.00000000E+00  0.00000000E+00  0.00000000E+00
  0.00000000E+00  0.00000000E+00  0.00000000E+00  0.00000000E+00  0.00000000E+00
  0.00000000E+00  0.00000000E+00  0.00000000E+00  0.00000000E+00  0.00000000E+00
  0.00000000E+00  0.00000000E+00  0.00000000E+00  0.00000000E+00  0.00000000E+00
  0.00000000E+00  0.00000000E+00  0.00000000E+00  0.00000000E+00  0.00000000E+00
  0.00000000E+00  0.00000000E+00  0.00000000E+00  0.00000000E+00  0.00000000E+00
  0.00000000E+00  0.00000000E+00  0.00000000E+00  0.00000000E+00  0.00000000E+00
  0.00000000E+00  0.00000000E+00  0.00000000E+00  0.00000000E+00  0.00000000E+00
  0.00000000E+00  0.00000000E+00  0.00000000E+00  0.00000000E+00  0.00000000E+00
  0.00000000E+00  0.00000000E+00  0.00000000E+00  0.00000000E+00  0.00000000E+00
  0.00000000E+00  0.00000000E+00  0.00000000E+00  0.00000000E+00  0.00000000E+00
  0.00000000E+00  0.00000000E+00  0.00000000E+00  0.00000000E+00  0.00000000E+00
  0.00000000E+00  0.00000000E+00  0.00000000E+00  0.00000000E+00  0.00000000E+00
  0.00000000E+00  0.00000000E+00  0.00000000E+00  0.00000000E+00  0.00000000E+00
  0.00000000E+00  0.00000000E+00  0.00000000E+00  0.00000000E+00  0.00000000E+00
  0.00000000E+00  0.00000000E+00  0.00000000E+00  0.00000000E+00  0.00000000E+00
  0.00000000E+00  0.00000000E+00  0.00000000E+00  0.00000000E+00  0.00000000E+00
  0.00000000E+00  0.00000000E+00  0.00000000E+00  0.00000000E+00  0.00000000E+00
  0.00000000E+00  0.00000000E+00  0.00000000E+00  0.00000000E+00  0.00000000E+00
  0.00000000E+00  0.00000000E+00  0.00000000E+00  0.00000000E+00  0.00000000E+00
  0.00000000E+00  0.00000000E+00  0.00000000E+00  0.00000000E+00  0.00000000E+00
  0.00000000E+00  0.00000000E+00  0.00000000E+00  0.00000000E+00  0.00000000E+00
  0.00000000E+00  0.00000000E+00  0.00000000E+00  0.00000000E+00  0.00000000E+00
  0.00000000E+00  0.00000000E+00  0.00000000E+00  0.00000000E+00  0.00000000E+00
  0.00000000E+00  0.00000000E+00  0.00000000E+00  0.00000000E+00  0.00000000E+00
  0.00000000E+00  0.00000000E+00  0.00000000E+00  0.00000000E+00  0.00000000E+00
  0.00000000E+00  0.00000000E+00  0.00000000E+00  0.00000000E+00  0.00000000E+00
  0.00000000E+00  0.00000000E+00  0.00000000E+00  0.00000000E+00  0.00000000E+00
  0.00000000E+00  0.00000000E+00  0.00000000E+00  0.00000000E+00  0.00000000E+00
  0.00000000E+00  0.00000000E+00  0.00000000E+00  0.00000000E+00  0.00000000E+00
  0.00000000E+00  0.00000000E+00  0.00000000E+00  0.00000000E+00  0.00000000E+00
  0.00000000E+00  0.00000000E+00  0.00000000E+00  0.00000000E+00  0.00000000E+00
  0.00000000E+00  0.00000000E+00  0.00000000E+00  0.00000000E+00  0.00000000E+00
  0.00000000E+00  0.00000000E+00  0.00000000E+00  0.00000000E+00  0.00000000E+00
  2.26000000E-01  4.43000000E-01  1.01000000E-01  1.47000000E-01  1.92000000E-01
  2.40000000E-01  2.75000000E-01  3.03000000E-01  3.25000000E-01  4.13000000E-01
  9.60000000E-02  1.35000000E-01  1.73000000E-01  2.11000000E-01  2.48000000E-01
  2.86000000E-01  3.23000000E-01  3.60000000E-01  8.20000000E-02  1.04000000E-01
  1.17000000E-01  1.23000000E-01  1.29000000E-01  1.34000000E-01  1.40000000E-01
  1.44000000E-01  1.48000000E-01  1.52000000E-01  1.55000000E-01  1.76000000E-01
  1.98000000E-01  2.19000000E-01  2.39000000E-01  2.60000000E-01  2.80000000E-01
  3.00000000E-01  7.90000000E-02  9.90000000E-02  1.19000000E-01  1.26000000E-01
  1.33000000E-01  1.40000000E-01  1.47000000E-01  1.53000000E-01  1.58000000E-01
  1.63000000E-01  1.57000000E-01  1.70000000E-01  1.87000000E-01  2.03000000E-01
  2.19000000E-01  2.34000000E-01  2.50000000E-01  2.65000000E-01  7.40000000E-02
  9.20000000E-02  1.05000000E-01  1.06000000E-01  1.07000000E-01  1.08000000E-01
  1.09000000E-01  1.10000000E-01  1.11000000E-01  1.12000000E-01  1.13000000E-01
  1.14000000E-01  1.15000000E-01  1.16000000E-01  1.17000000E-01  1.17000000E-01
  1.26000000E-01  1.36000000E-01  1.46000000E-01  1.55000000E-01  1.65000000E-01
  1.73000000E-01  1.82000000E-01  1.90000000E-01  1.62000000E-01  1.78000000E-01
  1.10000000E-01  1.35000000E-01  1.59000000E-01  1.83000000E-01  2.07000000E-01
  2.31000000E-01  6.90000000E-02  9.40000000E-02  1.02000000E-01  1.03000000E-01
  1.05000000E-01  1.07000000E-01  1.09000000E-01  1.11000000E-01  1.13000000E-01
  1.15000000E-01  1.17000000E-01  1.19000000E-01  1.20000000E-01  1.22000000E-01
  1.24000000E-01  1.26000000E-01  1.28000000E-01  1.28000000E-01  1.28000000E-01
  1.28000000E-01  1.28000000E-01  1.28000000E-01  1.28000000E-01  1.28000000E-01
  1.28000000E-01  1.28000000E-01  1.28000000E-01  1.28000000E-01  1.28000000E-01
  1.28000000E-01  1.28000000E-01  1.28000000E-01  1.28000000E-01  1.28000000E-01
  1.28000000E-01  1.28000000E-01  1.28000000E-01  1.28000000E-01  1.28000000E-01
  1.28000000E-01  1.28000000E-01  1.28000000E-01  1.28000000E-01  1.28000000E-01
  1.28000000E-01  1.28000000E-01  1.28000000E-01  1.28000000E-01  1.28000000E-01
  1.28000000E-01  1.28000000E-01  1.28000000E-01  1.28000000E-01  1.28000000E-01
  1.28000000E-01  1.28000000E-01  1.28000000E-01  1.28000000E-01  1.28000000E-01
  1.28000000E-01  1.28000000E-01  1.28000000E-01  1.28000000E-01  1.28000000E-01
  1.28000000E-01  1.28000000E-01  1.28000000E-01  1.28000000E-01  1.28000000E-01
  1.28000000E-01  1.28000000E-01  1.28000000E-01  1.28000000E-01  1.28000000E-01
  1.28000000E-01  1.28000000E-01  1.28000000E-01  1.28000000E-01  1.28000000E-01
  1.28000000E-01  1.28000000E-01  1.28000000E-01  1.28000000E-01  1.28000000E-01
  1.28000000E-01  1.28000000E-01  1.28000000E-01  1.28000000E-01  1.28000000E-01
  1.28000000E-01  1.28000000E-01  1.28000000E-01  1.28000000E-01  1.28000000E-01
  1.28000000E-01  1.28000000E-01  1.28000000E-01  1.28000000E-01  1.28000000E-01
  1.28000000E-01  1.28000000E-01  1.28000000E-01  1.28000000E-01  1.28000000E-01
  1.28000000E-01  1.28000000E-01  1.28000000E-01  1.28000000E-01  1.28000000E-01
  1.28000000E-01  1.28000000E-01  1.28000000E-01  1.28000000E-01  1.28000000E-01
  5.47000000E-01  5.92000000E-01  5.99000000E-01  6.68000000E-01  6.98000000E-01
  7.18000000E-01  7.26000000E-01  7.36000000E-01  7.43000000E-01  7.45000000E-01
  6.07000000E-01  6.66000000E-01  6.93000000E-01  7.09000000E-01  7.20000000E-01
  7.29000000E-01  7.35000000E-01  7.40000000E-01  6.08000000E-01  7.34000000E-01
  7.46000000E-01  7.55000000E-01  7.61000000E-01  7.65000000E-01  7.67000000E-01
  7.60000000E-01  7.49000000E-01  7.33000000E-01  7.08000000E-01  6.48000000E-01
  6.88000000E-01  7.09000000E-01  7.22000000E-01  7.31000000E-01  7.38000000E-01
  7.44000000E-01  6.09000000E-01  7.30000000E-01  7.41000000E-01  7.52000000E-01
  7.58000000E-01  7.63000000E-01  7.66000000E-01  7.58000000E-01  7.48000000E-01
  7.33000000E-01  7.01000000E-01  6.45000000E-01  6.86000000E-01  7.08000000E-01
  7.22000000E-01  7.31000000E-01  7.38000000E-01  7.44000000E-01  6.08000000E-01
  7.28000000E-01  7.32000000E-01  7.32000000E-01  7.32000000E-01  7.32000000E-01
  7.32000000E-01  7.32000000E-01  7.32000000E-01  7.32000000E-01  7.32000000E-01
  7.31000000E-01  7.31000000E-01  7.31000000E-01  7.31000000E-01  7.46000000E-01
  7.37000000E-01  7.46000000E-01  7.51000000E-01  7.55000000E-01  7.58000000E-01
  7.47000000E-01  7.32000000E-01  7.11000000E-01  7.41000000E-01  7.07000000E-01
  7.47000000E-01  7.43000000E-01  7.42000000E-01  7.42000000E-01  7.43000000E-01
  7.44000000E-01  6.05000000E-01  7.24000000E-01  7.26000000E-01  7.26000000E-01
  7.27000000E-01  7.27000000E-01  7.27000000E-01  7.28000000E-01  7.28000000E-01
  7.28000000E-01  7.28000000E-01  7.28000000E-01  7.29000000E-01  7.29000000E-01
  7.29000000E-01  7.29000000E-01  7.29000000E-01  7.29000000E-01  7.29000000E-01
  7.29000000E-01  7.29000000E-01  7.29000000E-01  7.29000000E-01  7.29000000E-01
  7.29000000E-01  7.29000000E-01  7.29000000E-01  7.29000000E-01  7.29000000E-01
  7.29000000E-01  7.29000000E-01  7.29000000E-01  7.29000000E-01  7.29000000E-01
  7.29000000E-01  7.29000000E-01  7.29000000E-01  7.29000000E-01  7.29000000E-01
  7.29000000E-01  7.29000000E-01  7.29000000E-01  7.29000000E-01  7.29000000E-01
  7.29000000E-01  7.29000000E-01  7.29000000E-01  7.29000000E-01  7.29000000E-01
  7.29000000E-01  7.29000000E-01  7.29000000E-01  7.29000000E-01  7.29000000E-01
  7.29000000E-01  7.29000000E-01  7.29000000E-01  7.29000000E-01  7.29000000E-01
  7.29000000E-01  7.29000000E-01  7.29000000E-01  7.29000000E-01  7.29000000E-01
  7.29000000E-01  7.29000000E-01  7.29000000E-01  7.29000000E-01  7.29000000E-01
  7.29000000E-01  7.29000000E-01  7.29000000E-01  7.29000000E-01  7.29000000E-01
  7.29000000E-01  7.29000000E-01  7.29000000E-01  7.29000000E-01  7.29000000E-01
  7.29000000E-01  7.29000000E-01  7.29000000E-01  7.29000000E-01  7.29000000E-01
  7.29000000E-01  7.29000000E-01  7.29000000E-01  7.29000000E-01  7.29000000E-01
  7.29000000E-01  7.29000000E-01  7.29000000E-01  7.29000000E-01  7.29000000E-01
  7.29000000E-01  7.29000000E-01  7.29000000E-01  7.29000000E-01  7.29000000E-01
  7.29000000E-01  7.29000000E-01  7.29000000E-01  7.29000000E-01  7.29000000E-01
  7.29000000E-01  7.29000000E-01  7.29000000E-01  7.29000000E-01  7.29000000E-01
  7.29000000E-01  7.29000000E-01  7.29000000E-01  7.29000000E-01  7.29000000E-01
  1.00000000E+00  1.70400000E+00  3.23000000E-01  3.89000000E-01  4.67000000E-01
  5.67000000E-01  6.36000000E-01  6.64000000E-01  6.96000000E-01  8.79000000E-01
  3.07000000E-01  3.48000000E-01  4.00000000E-01  4.54000000E-01  5.09000000E-01
  5.65000000E-01  6.21000000E-01  6.77000000E-01  2.56000000E-01  3.50000000E-01
  3.64000000E-01  3.62000000E-01  3.62000000E-01  3.62000000E-01  3.62000000E-01
  3.65000000E-01  3.69000000E-01  3.75000000E-01  3.86000000E-01  4.46000000E-01
  4.55000000E-01  4.74000000E-01  4.96000000E-01  5.20000000E-01  5.45000000E-01
  5.70000000E-01  2.45000000E-01  3.22000000E-01  3.55000000E-01  3.59000000E-01
  3.64000000E-01  3.70000000E-01  3.76000000E-01  3.85000000E-01  3.95000000E-01
  4.08000000E-01  3.76000000E-01  4.23000000E-01  4.22000000E-01  4.32000000E-01
  4.45000000E-01  4.59000000E-01  4.75000000E-01  4.91000000E-01  2.28000000E-01
  2.92000000E-01  2.89000000E-01  2.92000000E-01  2.95000000E-01  2.98000000E-01
  3.00000000E-01  3.03000000E-01  3.06000000E-01  3.09000000E-01  3.12000000E-01
  3.15000000E-01  3.18000000E-01  3.21000000E-01  3.24000000E-01  3.61000000E-01
  3.69000000E-01  3.70000000E-01  3.72000000E-01  3.75000000E-01  3.78000000E-01
  3.85000000E-01  3.94000000E-01  4.07000000E-01  5.26000000E-01  6.21000000E-01
  3.36000000E-01  3.54000000E-01  3.71000000E-01  3.86000000E-01  4.02000000E-01
  4.17000000E-01  2.09000000E-01  2.94000000E-01  2.65000000E-01  2.72000000E-01
  2.78000000E-01  2.84000000E-01  2.91000000E-01  2.97000000E-01  3.03000000E-01
  3.10000000E-01  3.16000000E-01  3.22000000E-01  3.29000000E-01  3.35000000E-01
  3.41000000E-01  3.48000000E-01  3.54000000E-01  3.54000000E-01  3.54000000E-01
  3.54000000E-01  3.54000000E-01  3.54000000E-01  3.54000000E-01  3.54000000E-01
  3.54000000E-01  3.54000000E-01  3.54000000E-01  3.54000000E-01  3.54000000E-01
  3.54000000E-01  3.54000000E-01  3.54000000E-01  3.54000000E-01  3.54000000E-01
  3.54000000E-01  3.54000000E-01  3.54000000E-01  3.54000000E-01  3.54000000E-01
  3.54000000E-01  3.54000000E-01  3.54000000E-01  3.54000000E-01  3.54000000E-01
  3.54000000E-01  3.54000000E-01  3.54000000E-01  3.54000000E-01  3.54000000E-01
  3.54000000E-01  3.54000000E-01  3.54000000E-01  3.54000000E-01  3.54000000E-01
  3.54000000E-01  3.54000000E-01  3.54000000E-01  3.54000000E-01  3.54000000E-01
  3.54000000E-01  3.54000000E-01  3.54000000E-01  3.54000000E-01  3.54000000E-01
  3.54000000E-01  3.54000000E-01  3.54000000E-01  3.54000000E-01  3.54000000E-01
  3.54000000E-01  3.54000000E-01  3.54000000E-01  3.54000000E-01  3.54000000E-01
  3.54000000E-01  3.54000000E-01  3.54000000E-01  3.54000000E-01  3.54000000E-01
  3.54000000E-01  3.54000000E-01  3.54000000E-01  3.54000000E-01  3.54000000E-01
  3.54000000E-01  3.54000000E-01  3.54000000E-01  3.54000000E-01  3.54000000E-01
  3.54000000E-01  3.54000000E-01  3.54000000E-01  3.54000000E-01  3.54000000E-01
  3.54000000E-01  3.54000000E-01  3.54000000E-01  3.54000000E-01  3.54000000E-01
  3.54000000E-01  3.54000000E-01  3.54000000E-01  3.54000000E-01  3.54000000E-01
  3.54000000E-01  3.54000000E-01  3.54000000E-01  3.54000000E-01  3.54000000E-01
  3.54000000E-01  3.54000000E-01  3.54000000E-01  3.54000000E-01  3.54000000E-01
  2.74000000E-01  2.96000000E-01  5.80000000E-02  4.40000000E-02  3.90000000E-02
  3.90000000E-02  3.60000000E-02  3.20000000E-02  2.90000000E-02  3.30000000E-02
  5.50000000E-02  3.90000000E-02  3.30000000E-02  3.00000000E-02  2.80000000E-02
  2.60000000E-02  2.50000000E-02  2.50000000E-02  4.50000000E-02  4.40000000E-02
  3.30000000E-02  2.50000000E-02  2.10000000E-02  1.80000000E-02  1.50000000E-02
  1.80000000E-02  2.10000000E-02  2.50000000E-02  3.30000000E-02  5.00000000E-02
  3.80000000E-02  3.10000000E-02  2.70000000E-02  2.40000000E-02  2.20000000E-02
  2.10000000E-02  4.30000000E-02  4.00000000E-02  3.20000000E-02  2.50000000E-02
  2.10000000E-02  1.80000000E-02  1.60000000E-02  1.90000000E-02  2.20000000E-02
  2.80000000E-02  3.10000000E-02  4.70000000E-02  3.40000000E-02  2.80000000E-02
  2.40000000E-02  2.10000000E-02  1.90000000E-02  1.80000000E-02  3.90000000E-02
  3.60000000E-02  2.50000000E-02  2.50000000E-02  2.50000000E-02  2.60000000E-02
  2.60000000E-02  2.60000000E-02  2.70000000E-02  2.70000000E-02  2.70000000E-02
  2.70000000E-02  2.80000000E-02  2.80000000E-02  2.80000000E-02  3.30000000E-02
  3.30000000E-02  2.60000000E-02  2.10000000E-02  1.80000000E-02  1.60000000E-02
  1.80000000E-02  2.20000000E-02  2.60000000E-02  4.90000000E-02  8.20000000E-02
  3.00000000E-02  2.40000000E-02  2.10000000E-02  1.80000000E-02  1.60000000E-02
  1.50000000E-02  3.50000000E-02  3.60000000E-02  2.20000000E-02  2.30000000E-02
  2.40000000E-02  2.40000000E-02  2.50000000E-02  2.50000000E-02  2.60000000E-02
  2.70000000E-02  2.70000000E-02  2.80000000E-02  2.80000000E-02  2.90000000E-02
  3.00000000E-02  3.00000000E-02  3.10000000E-02  3.10000000E-02  3.10000000E-02
  3.10000000E-02  3.10000000E-02  3.10000000E-02  3.10000000E-02  3.10000000E-02
  3.10000000E-02  3.10000000E-02  3.10000000E-02  3.10000000E-02  3.10000000E-02
  3.10000000E-02  3.10000000E-02  3.10000000E-02  3.10000000E-02  3.10000000E-02
  3.10000000E-02  3.10000000E-02  3.10000000E-02  3.10000000E-02  3.10000000E-02
  3.10000000E-02  3.10000000E-02  3.10000000E-02  3.10000000E-02  3.10000000E-02
  3.10000000E-02  3.10000000E-02  3.10000000E-02  3.10000000E-02  3.10000000E-02
  3.10000000E-02  3.10000000E-02  3.10000000E-02  3.10000000E-02  3.10000000E-02
  3.10000000E-02  3.10000000E-02  3.10000000E-02  3.10000000E-02  3.10000000E-02
  3.10000000E-02  3.10000000E-02  3.10000000E-02  3.10000000E-02  3.10000000E-02
  3.10000000E-02  3.10000000E-02  3.10000000E-02  3.10000000E-02  3.10000000E-02
  3.10000000E-02  3.10000000E-02  3.10000000E-02  3.10000000E-02  3.10000000E-02
  3.10000000E-02  3.10000000E-02  3.10000000E-02  3.10000000E-02  3.10000000E-02
  3.10000000E-02  3.10000000E-02  3.10000000E-02  3.10000000E-02  3.10000000E-02
  3.10000000E-02  3.10000000E-02  3.10000000E-02  3.10000000E-02  3.10000000E-02
  3.10000000E-02  3.10000000E-02  3.10000000E-02  3.10000000E-02  3.10000000E-02
  3.10000000E-02  3.10000000E-02  3.10000000E-02  3.10000000E-02  3.10000000E-02
  3.10000000E-02  3.10000000E-02  3.10000000E-02  3.10000000E-02  3.10000000E-02
  3.10000000E-02  3.10000000E-02  3.10000000E-02  3.10000000E-02  3.10000000E-02
  3.10000000E-02  3.10000000E-02  3.10000000E-02  3.10000000E-02  3.10000000E-02
 -5.92770000E-01 -9.17860000E-01 -2.48668000E+00 -8.36430000E-01 -3.18470000E-01
 -4.55790000E-01 -5.70730000E-01 -6.77940000E-01 -7.69860000E-01 -8.51140000E-01
 -1.51908000E+00 -3.18830000E-01 -2.17900000E-01 -3.01260000E-01 -3.72750000E-01
 -4.15890000E-01 -4.45930000E-01 -5.91320000E-01 -9.56370000E-01 -2.88450000E-01
 -4.87320000E-01 -6.34280000E-01 -7.17490000E-01 -7.91980000E-01 -8.68490000E-01
 -9.17520000E-01 -9.54890000E-01 -9.88460000E-01 -1.50055000E+00 -2.92560000E-01
 -2.14960000E-01 -2.91180000E-01 -3.42080000E-01 -3.84480000E-01 -4.34940000E-01
 -5.24310000E-01 -8.10070000E-01 -2.58460000E-01 -4.35550000E-01 -5.32740000E-01
 -6.08450000E-01 -6.10260000E-01 -7.58920000E-01 -8.90130000E-01 -8.45780000E-01
 -8.69340000E-01 -1.38234000E+00 -2.64850000E-01 -1.97280000E-01 -2.65040000E-01
 -2.94470000E-01 -3.16570000E-01 -3.63590000E-01 -4.57840000E-01 -8.61830000E-01
 -1.33004000E+00 -6.82880000E-01 -6.25540000E-01 -6.35430000E-01 -8.79690000E-01
 -9.02690000E-01 -9.59650000E-01 -1.01869000E+00 -6.81170000E-01 -7.96500000E-01
 -9.04950000E-01 -8.34790000E-01 -9.01560000E-01 -9.74130000E-01 -1.03326000E+00
 -7.15490000E-01 -7.83960000E-01 -8.28380000E-01 -5.61040000E-01 -1.03841000E+00
 -8.62500000E-01 -9.59300000E-01 -1.01755000E+00 -7.64900000E-01 -1.29467000E+00
 -1.92740000E-01 -2.56010000E-01 -3.19820000E-01 -1.94660000E-01 -2.60090000E-01
 -4.27990000E-01  0.00000000E+00  0.00000000E+00  0.00000000E+00  0.00000000E+00
  0.00000000E+00  0.00000000E+00  0.00000000E+00  0.00000000E+00  0.00000000E+00
  0.00000000E+00  0.00000000E+00  0.00000000E+00  0.00000000E+00  0.00000000E+00
  0.00000000E+00  0.00000000E+00  0.00000000E+00  0.00000000E+00  0.00000000E+00
  0.00000000E+00  0.00000000E+00  0.00000000E+00  0.00000000E+00  0.00000000E+00
  0.00000000E+00  0.00000000E+00  0.00000000E+00  0.00000000E+00  0.00000000E+00
  0.00000000E+00  0.00000000E+00  0.00000000E+00  0.00000000E+00  0.00000000E+00
  0.00000000E+00  0.00000000E+00  0.00000000E+00  0.00000000E+00  0.00000000E+00
  0.00000000E+00  0.00000000E+00  0.00000000E+00  0.00000000E+00  0.00000000E+00
  0.00000000E+00  0.00000000E+00  0.00000000E+00  0.00000000E+00  0.00000000E+00
  0.00000000E+00  0.00000000E+00  0.00000000E+00  0.00000000E+00  0.00000000E+00
  0.00000000E+00  0.00000000E+00  0.00000000E+00  0.00000000E+00  0.00000000E+00
  0.00000000E+00  0.00000000E+00  0.00000000E+00  0.00000000E+00  0.00000000E+00
  0.00000000E+00  0.00000000E+00  0.00000000E+00  0.00000000E+00  0.00000000E+00
  0.00000000E+00  0.00000000E+00  0.00000000E+00  0.00000000E+00  0.00000000E+00
  0.00000000E+00  0.00000000E+00  0.00000000E+00  0.00000000E+00  0.00000000E+00
  0.00000000E+00  0.00000000E+00  0.00000000E+00  0.00000000E+00  0.00000000E+00
  0.00000000E+00  0.00000000E+00  0.00000000E+00  0.00000000E+00  0.00000000E+00
  0.00000000E+00  0.00000000E+00  0.00000000E+00  0.00000000E+00  0.00000000E+00
  0.00000000E+00  0.00000000E+00  0.00000000E+00  0.00000000E+00  0.00000000E+00
  0.00000000E+00  0.00000000E+00  0.00000000E+00  0.00000000E+00  0.00000000E+00
  0.00000000E+00  0.00000000E+00  0.00000000E+00  0.00000000E+00  0.00000000E+00
  0.00000000E+00  0.00000000E+00  0.00000000E+00  0.00000000E+00  0.00000000E+00
  1.90440000E+00  1.36430000E+00  4.84000000E-01  7.31600000E+00  9.24030000E+00
  8.78200000E+00  5.61290000E+00  4.83340000E+00  3.24870000E+00  2.71090000E+00
  2.01130000E+00  1.50282000E+01  1.46788000E+01  2.13546000E+01  2.38290000E+01
  1.98022000E+01  1.50468000E+01  1.09745000E+01  1.27219000E+01  1.51949000E+01
  1.57342000E+01  2.79222000E+01  1.61366000E+01  2.21252000E+01  2.45676000E+01
  1.96016000E+01  1.79818000E+01  1.72396000E+01  5.01500000E+00  1.92898000E+01
  2.34477000E+01  2.23993000E+01  2.96586000E+01  2.60081000E+01  2.15580000E+01
  1.69594000E+01  1.56479000E+01  1.86897000E+01  1.93530000E+01  3.43444000E+01
  1.98480000E+01  2.72140000E+01  3.02182000E+01  2.41099000E+01  2.21176000E+01
  2.12047000E+01  7.56690000E+00  2.37264000E+01  2.93879000E+01  3.01278000E+01
  4.19382000E+01  3.85203000E+01  3.39511000E+01  2.75774000E+01  1.56460000E+01
  1.04460000E+01  2.01830000E+01  4.99540000E+01  4.76430000E+01  1.18690000E+01
  1.08670000E+01  9.96100000E+00  9.18700000E+00  3.67980000E+01  1.34070000E+01
  9.38200000E+00  9.81700000E+00  8.90800000E+00  8.40700000E+00  8.05800000E+00
  1.29600000E+01  2.67920000E+01  2.49300000E+01  3.45630000E+01  1.11860000E+01
  1.09440000E+01  1.01270000E+01  9.40400000E+00  1.36660000E+01  7.81000000E+00
  6.93600000E+01  5.86630000E+01  4.79690000E+01  4.52740000E+01  3.92290000E+01
  3.30660000E+01  0.00000000E+00  0.00000000E+00  0.00000000E+00  0.00000000E+00
  0.00000000E+00  0.00000000E+00  0.00000000E+00  0.00000000E+00  0.00000000E+00
  0.00000000E+00  0.00000000E+00  0.00000000E+00  0.00000000E+00  0.00000000E+00
  0.00000000E+00  0.00000000E+00  0.00000000E+00  0.00000000E+00  0.00000000E+00
  0.00000000E+00  0.00000000E+00  0.00000000E+00  0.00000000E+00  0.00000000E+00
  0.00000000E+00  0.00000000E+00  0.00000000E+00  0.00000000E+00  0.00000000E+00
  0.00000000E+00  0.00000000E+00  0.00000000E+00  0.00000000E+00  0.00000000E+00
  0.00000000E+00  0.00000000E+00  0.00000000E+00  0.00000000E+00  0.00000000E+00
  0.00000000E+00  0.00000000E+00  0.00000000E+00  0.00000000E+00  0.00000000E+00
  0.00000000E+00  0.00000000E+00  0.00000000E+00  0.00000000E+00  0.00000000E+00
  0.00000000E+00  0.00000000E+00  0.00000000E+00  0.00000000E+00  0.00000000E+00
  0.00000000E+00  0.00000000E+00  0.00000000E+00  0.00000000E+00  0.00000000E+00
  0.00000000E+00  0.00000000E+00  0.00000000E+00  0.00000000E+00  0.00000000E+00
  0.00000000E+00  0.00000000E+00  0.00000000E+00  0.00000000E+00  0.00000000E+00
  0.00000000E+00  0.00000000E+00  0.00000000E+00  0.00000000E+00  0.00000000E+00
  0.00000000E+00  0.00000000E+00  0.00000000E+00  0.00000000E+00  0.00000000E+00
  0.00000000E+00  0.00000000E+00  0.00000000E+00  0.00000000E+00  0.00000000E+00
  0.00000000E+00  0.00000000E+00  0.00000000E+00  0.00000000E+00  0.00000000E+00
  0.00000000E+00  0.00000000E+00  0.00000000E+00  0.00000000E+00  0.00000000E+00
  0.00000000E+00  0.00000000E+00  0.00000000E+00  0.00000000E+00  0.00000000E+00
  0.00000000E+00  0.00000000E+00  0.00000000E+00  0.00000000E+00  0.00000000E+00
  0.00000000E+00  0.00000000E+00  0.00000000E+00  0.00000000E+00  0.00000000E+00
  0.00000000E+00  0.00000000E+00  0.00000000E+00  0.00000000E+00  0.00000000E+00
  0.00000000E+00  0.00000000E+00  0.00000000E+00  0.00000000E+00  0.00000000E+00
  0.00000000E+00  0.00000000E+00  0.00000000E+00  0.00000000E+00  0.00000000E+00
  0.00000000E+00  0.00000000E+00  0.00000000E+00  0.00000000E+00  0.00000000E+00
  0.00000000E+00  0.00000000E+00  0.00000000E+00  0.00000000E+00  0.00000000E+00
  0.00000000E+00  0.00000000E+00  0.00000000E+00  0.00000000E+00  0.00000000E+00
  0.00000000E+00  0.00000000E+00  0.00000000E+00  0.00000000E+00  0.00000000E+00
  0.00000000E+00  0.00000000E+00  0.00000000E+00  0.00000000E+00  0.00000000E+00
  0.00000000E+00  0.00000000E+00  0.00000000E+00  0.00000000E+00  0.00000000E+00
  0.00000000E+00  0.00000000E+00  0.00000000E+00  0.00000000E+00  0.00000000E+00
  0.00000000E+00  0.00000000E+00  0.00000000E+00  0.00000000E+00  0.00000000E+00
  0.00000000E+00  0.00000000E+00  0.00000000E+00  0.00000000E+00  0.00000000E+00
  0.00000000E+00  0.00000000E+00  0.00000000E+00  0.00000000E+00  0.00000000E+00
  0.00000000E+00  0.00000000E+00  0.00000000E+00  0.00000000E+00  0.00000000E+00
  0.00000000E+00  0.00000000E+00  0.00000000E+00  0.00000000E+00  0.00000000E+00
  0.00000000E+00  0.00000000E+00  0.00000000E+00  0.00000000E+00  0.00000000E+00
  0.00000000E+00  0.00000000E+00  0.00000000E+00  0.00000000E+00  0.00000000E+00
  0.00000000E+00  0.00000000E+00  0.00000000E+00  0.00000000E+00  0.00000000E+00
  0.00000000E+00  0.00000000E+00  0.00000000E+00  0.00000000E+00  0.00000000E+00
  0.00000000E+00  0.00000000E+00  0.00000000E+00  0.00000000E+00  0.00000000E+00
  0.00000000E+00  0.00000000E+00  0.00000000E+00  0.00000000E+00  0.00000000E+00
  0.00000000E+00  0.00000000E+00  0.00000000E+00  0.00000000E+00  0.00000000E+00
  0.00000000E+00  0.00000000E+00  0.00000000E+00  0.00000000E+00  0.00000000E+00
  0.00000000E+00  0.00000000E+00  0.00000000E+00  0.00000000E+00  0.00000000E+00
  0.00000000E+00  0.00000000E+00  0.00000000E+00  0.00000000E+00  0.00000000E+00
  0.00000000E+00  0.00000000E+00  0.00000000E+00  0.00000000E+00  0.00000000E+00
  0.00000000E+00  0.00000000E+00  0.00000000E+00  0.00000000E+00  0.00000000E+00
  0.00000000E+00  0.00000000E+00  0.00000000E+00  0.00000000E+00  0.00000000E+00
  0.00000000E+00  0.00000000E+00  0.00000000E+00  0.00000000E+00  0.00000000E+00
  0.00000000E+00  0.00000000E+00  0.00000000E+00  0.00000000E+00  0.00000000E+00
  0.00000000E+00  0.00000000E+00  0.00000000E+00  0.00000000E+00  0.00000000E+00
  0.00000000E+00  0.00000000E+00  0.00000000E+00  0.00000000E+00  0.00000000E+00
  0.00000000E+00  0.00000000E+00  0.00000000E+00  0.00000000E+00  0.00000000E+00
  0.00000000E+00  0.00000000E+00  0.00000000E+00  0.00000000E+00  0.00000000E+00
  0.00000000E+00  0.00000000E+00  0.00000000E+00  0.00000000E+00  0.00000000E+00
  0.00000000E+00  0.00000000E+00  0.00000000E+00  0.00000000E+00  0.00000000E+00
  0.00000000E+00  0.00000000E+00  0.00000000E+00  0.00000000E+00  0.00000000E+00
  0.00000000E+00  0.00000000E+00  0.00000000E+00  0.00000000E+00  0.00000000E+00
  0.00000000E+00  0.00000000E+00  0.00000000E+00  0.00000000E+00  0.00000000E+00
  0.00000000E+00  0.00000000E+00  0.00000000E+00  0.00000000E+00  0.00000000E+00
  0.00000000E+00  0.00000000E+00  0.00000000E+00  0.00000000E+00  0.00000000E+00
  0.00000000E+00  0.00000000E+00  0.00000000E+00  0.00000000E+00  0.00000000E+00
  0.00000000E+00  0.00000000E+00  0.00000000E+00  0.00000000E+00  0.00000000E+00
  0.00000000E+00  0.00000000E+00  0.00000000E+00  0.00000000E+00  0.00000000E+00
  0.00000000E+00  0.00000000E+00  0.00000000E+00  0.00000000E+00  0.00000000E+00
  0.00000000E+00  0.00000000E+00  0.00000000E+00  0.00000000E+00  0.00000000E+00
  0.00000000E+00  0.00000000E+00  0.00000000E+00  0.00000000E+00  0.00000000E+00
  0.00000000E+00  0.00000000E+00  0.00000000E+00  0.00000000E+00  0.00000000E+00
  0.00000000E+00  0.00000000E+00  0.00000000E+00  0.00000000E+00  0.00000000E+00
  0.00000000E+00  0.00000000E+00  0.00000000E+00  0.00000000E+00  0.00000000E+00
  0.00000000E+00  0.00000000E+00  0.00000000E+00  0.00000000E+00  0.00000000E+00
  0.00000000E+00  0.00000000E+00  0.00000000E+00  0.00000000E+00  0.00000000E+00
  0.00000000E+00  0.00000000E+00  0.00000000E+00  0.00000000E+00  0.00000000E+00
  0.00000000E+00  0.00000000E+00  0.00000000E+00  0.00000000E+00  0.00000000E+00
  0.00000000E+00  0.00000000E+00  0.00000000E+00  0.00000000E+00  0.00000000E+00
  0.00000000E+00  0.00000000E+00  0.00000000E+00  0.00000000E+00  0.00000000E+00
  0.00000000E+00  0.00000000E+00  0.00000000E+00  0.00000000E+00  0.00000000E+00
  0.00000000E+00  0.00000000E+00  0.00000000E+00  0.00000000E+00  0.00000000E+00
  0.00000000E+00  0.00000000E+00  0.00000000E+00  0.00000000E+00  0.00000000E+00
  0.00000000E+00  0.00000000E+00  0.00000000E+00  0.00000000E+00  0.00000000E+00
  0.00000000E+00  0.00000000E+00  0.00000000E+00  0.00000000E+00  0.00000000E+00
  0.00000000E+00  0.00000000E+00  0.00000000E+00  0.00000000E+00  0.00000000E+00
  0.00000000E+00  0.00000000E+00  0.00000000E+00  0.00000000E+00  0.00000000E+00
  0.00000000E+00  0.00000000E+00  0.00000000E+00  0.00000000E+00  0.00000000E+00
  0.00000000E+00  0.00000000E+00  0.00000000E+00  0.00000000E+00  0.00000000E+00
  0.00000000E+00  0.00000000E+00  0.00000000E+00  0.00000000E+00  0.00000000E+00
  0.00000000E+00  0.00000000E+00  0.00000000E+00  0.00000000E+00  0.00000000E+00
  0.00000000E+00  0.00000000E+00  0.00000000E+00  0.00000000E+00  0.00000000E+00
  0.00000000E+00  0.00000000E+00  0.00000000E+00  0.00000000E+00  0.00000000E+00
  0.00000000E+00  0.00000000E+00  0.00000000E+00  0.00000000E+00  0.00000000E+00
  0.00000000E+00  0.00000000E+00  0.00000000E+00  0.00000000E+00  0.00000000E+00
  0.00000000E+00  0.00000000E+00  0.00000000E+00  0.00000000E+00  0.00000000E+00
  0.00000000E+00  0.00000000E+00  0.00000000E+00  0.00000000E+00  0.00000000E+00
  0.00000000E+00  0.00000000E+00  0.00000000E+00  0.00000000E+00  0.00000000E+00
  0.00000000E+00  0.00000000E+00  0.00000000E+00  0.00000000E+00  0.00000000E+00
  0.00000000E+00  0.00000000E+00  0.00000000E+00  0.00000000E+00  0.00000000E+00
  0.00000000E+00  0.00000000E+00  0.00000000E+00  0.00000000E+00  0.00000000E+00
  0.00000000E+00  0.00000000E+00  0.00000000E+00  0.00000000E+00  0.00000000E+00
  0.00000000E+00  0.00000000E+00  0.00000000E+00  0.00000000E+00  0.00000000E+00
  0.00000000E+00  0.00000000E+00  0.00000000E+00  0.00000000E+00  0.00000000E+00
  0.00000000E+00  0.00000000E+00  0.00000000E+00  0.00000000E+00  0.00000000E+00
  0.00000000E+00  0.00000000E+00  0.00000000E+00  0.00000000E+00  0.00000000E+00
  0.00000000E+00  0.00000000E+00  0.00000000E+00  0.00000000E+00  0.00000000E+00
  0.00000000E+00  0.00000000E+00  0.00000000E+00  0.00000000E+00  0.00000000E+00
  0.00000000E+00  0.00000000E+00  0.00000000E+00  0.00000000E+00  0.00000000E+00
  0.00000000E+00  0.00000000E+00  0.00000000E+00  0.00000000E+00  0.00000000E+00
  0.00000000E+00  0.00000000E+00  0.00000000E+00  0.00000000E+00  0.00000000E+00
  0.00000000E+00  0.00000000E+00  0.00000000E+00  0.00000000E+00  0.00000000E+00
  0.00000000E+00  0.00000000E+00  0.00000000E+00  0.00000000E+00  0.00000000E+00
  0.00000000E+00  0.00000000E+00  0.00000000E+00  0.00000000E+00  0.00000000E+00
  0.00000000E+00  0.00000000E+00  0.00000000E+00  0.00000000E+00  0.00000000E+00
  0.00000000E+00  0.00000000E+00  0.00000000E+00  0.00000000E+00  0.00000000E+00
  0.00000000E+00  0.00000000E+00  0.00000000E+00  0.00000000E+00  0.00000000E+00
  0.00000000E+00  0.00000000E+00  0.00000000E+00  0.00000000E+00  0.00000000E+00
  0.00000000E+00  0.00000000E+00  0.00000000E+00  0.00000000E+00  0.00000000E+00
  0.00000000E+00  0.00000000E+00  0.00000000E+00  0.00000000E+00  0.00000000E+00
  0.00000000E+00  0.00000000E+00  0.00000000E+00  0.00000000E+00  0.00000000E+00
  0.00000000E+00  0.00000000E+00  0.00000000E+00  0.00000000E+00  0.00000000E+00
  0.00000000E+00  0.00000000E+00  0.00000000E+00  0.00000000E+00  0.00000000E+00
  0.00000000E+00  0.00000000E+00  0.00000000E+00  0.00000000E+00  0.00000000E+00
  0.00000000E+00  0.00000000E+00  0.00000000E+00  0.00000000E+00  0.00000000E+00
  0.00000000E+00  0.00000000E+00  0.00000000E+00  0.00000000E+00  0.00000000E+00
  0.00000000E+00  0.00000000E+00  0.00000000E+00  0.00000000E+00  0.00000000E+00
  0.00000000E+00  0.00000000E+00  0.00000000E+00  0.00000000E+00  0.00000000E+00
  0.00000000E+00  0.00000000E+00  0.00000000E+00  0.00000000E+00  0.00000000E+00
  0.00000000E+00  0.00000000E+00  0.00000000E+00  0.00000000E+00  0.00000000E+00
  0.00000000E+00  0.00000000E+00  0.00000000E+00  0.00000000E+00  0.00000000E+00
  0.00000000E+00  0.00000000E+00  0.00000000E+00  0.00000000E+00  0.00000000E+00
  0.00000000E+00  0.00000000E+00  0.00000000E+00  0.00000000E+00  0.00000000E+00
  0.00000000E+00  0.00000000E+00  0.00000000E+00  0.00000000E+00  0.00000000E+00
  0.00000000E+00  0.00000000E+00  0.00000000E+00  0.00000000E+00  0.00000000E+00
  0.00000000E+00  0.00000000E+00  0.00000000E+00  0.00000000E+00  0.00000000E+00
  0.00000000E+00  0.00000000E+00  0.00000000E+00  0.00000000E+00  0.00000000E+00
  0.00000000E+00  0.00000000E+00  0.00000000E+00  0.00000000E+00  0.00000000E+00
  0.00000000E+00  0.00000000E+00  0.00000000E+00  0.00000000E+00  0.00000000E+00
  0.00000000E+00  0.00000000E+00  0.00000000E+00  0.00000000E+00  0.00000000E+00
  0.00000000E+00  0.00000000E+00  0.00000000E+00  0.00000000E+00  0.00000000E+00
  0.00000000E+00  0.00000000E+00  0.00000000E+00  0.00000000E+00  0.00000000E+00
  0.00000000E+00  0.00000000E+00  0.00000000E+00  0.00000000E+00  0.00000000E+00
  0.00000000E+00  0.00000000E+00  0.00000000E+00  0.00000000E+00  0.00000000E+00
  0.00000000E+00  0.00000000E+00  0.00000000E+00  0.00000000E+00  0.00000000E+00
  0.00000000E+00  0.00000000E+00  0.00000000E+00  0.00000000E+00  0.00000000E+00
  0.00000000E+00  0.00000000E+00  0.00000000E+00  0.00000000E+00  0.00000000E+00
  0.00000000E+00  0.00000000E+00  0.00000000E+00  0.00000000E+00  0.00000000E+00
  0.00000000E+00  0.00000000E+00  0.00000000E+00  0.00000000E+00  0.00000000E+00
  0.00000000E+00  0.00000000E+00  0.00000000E+00  0.00000000E+00  0.00000000E+00
  0.00000000E+00  0.00000000E+00  0.00000000E+00  0.00000000E+00  0.00000000E+00
  0.00000000E+00  0.00000000E+00  0.00000000E+00  0.00000000E+00  0.00000000E+00
  0.00000000E+00  0.00000000E+00  0.00000000E+00  0.00000000E+00  0.00000000E+00
  0.00000000E+00  0.00000000E+00  0.00000000E+00  0.00000000E+00  0.00000000E+00
  0.00000000E+00  0.00000000E+00  0.00000000E+00  0.00000000E+00  0.00000000E+00
  0.00000000E+00  0.00000000E+00  0.00000000E+00  0.00000000E+00  0.00000000E+00
  0.00000000E+00  0.00000000E+00  0.00000000E+00  0.00000000E+00  0.00000000E+00
  0.00000000E+00  0.00000000E+00  0.00000000E+00  0.00000000E+00  0.00000000E+00
  0.00000000E+00  0.00000000E+00  0.00000000E+00  0.00000000E+00  0.00000000E+00
  0.00000000E+00  0.00000000E+00  0.00000000E+00  0.00000000E+00  0.00000000E+00
  0.00000000E+00  0.00000000E+00  0.00000000E+00  0.00000000E+00  0.00000000E+00
  0.00000000E+00  0.00000000E+00  0.00000000E+00  0.00000000E+00  0.00000000E+00
  0.00000000E+00  0.00000000E+00  0.00000000E+00  0.00000000E+00  0.00000000E+00
  0.00000000E+00  0.00000000E+00  0.00000000E+00  0.00000000E+00  0.00000000E+00
  0.00000000E+00  0.00000000E+00  0.00000000E+00  0.00000000E+00  0.00000000E+00
  0.00000000E+00  0.00000000E+00  0.00000000E+00  0.00000000E+00  0.00000000E+00
  0.00000000E+00  0.00000000E+00  0.00000000E+00  0.00000000E+00  0.00000000E+00
  0.00000000E+00  0.00000000E+00  0.00000000E+00  0.00000000E+00  0.00000000E+00
  0.00000000E+00  0.00000000E+00  0.00000000E+00  0.00000000E+00  0.00000000E+00
  0.00000000E+00  0.00000000E+00  0.00000000E+00  0.00000000E+00  0.00000000E+00
  0.00000000E+00  0.00000000E+00  0.00000000E+00  0.00000000E+00  0.00000000E+00
  0.00000000E+00  0.00000000E+00  0.00000000E+00  0.00000000E+00  0.00000000E+00
  0.00000000E+00  0.00000000E+00  0.00000000E+00  0.00000000E+00  0.00000000E+00
  0.00000000E+00  0.00000000E+00  0.00000000E+00  0.00000000E+00  0.00000000E+00
  0.00000000E+00  0.00000000E+00  0.00000000E+00  0.00000000E+00  0.00000000E+00
  0.00000000E+00  0.00000000E+00  0.00000000E+00  0.00000000E+00  0.00000000E+00
  0.00000000E+00  0.00000000E+00  0.00000000E+00  0.00000000E+00  0.00000000E+00
  0.00000000E+00  0.00000000E+00  0.00000000E+00  0.00000000E+00  0.00000000E+00
  0.00000000E+00  0.00000000E+00  0.00000000E+00  0.00000000E+00  0.00000000E+00
  0.00000000E+00  0.00000000E+00  0.00000000E+00  0.00000000E+00  0.00000000E+00
  0.00000000E+00  0.00000000E+00  0.00000000E+00  0.00000000E+00  0.00000000E+00
  0.00000000E+00  0.00000000E+00  0.00000000E+00  0.00000000E+00  0.00000000E+00
  0.00000000E+00  0.00000000E+00  0.00000000E+00  0.00000000E+00  0.00000000E+00
  0.00000000E+00  0.00000000E+00  0.00000000E+00  0.00000000E+00  0.00000000E+00
  0.00000000E+00  0.00000000E+00  0.00000000E+00  0.00000000E+00  0.00000000E+00
  0.00000000E+00  0.00000000E+00  0.00000000E+00  0.00000000E+00  0.00000000E+00
  0.00000000E+00  0.00000000E+00  0.00000000E+00  0.00000000E+00  0.00000000E+00
  0.00000000E+00  0.00000000E+00  0.00000000E+00  0.00000000E+00  0.00000000E+00
  0.00000000E+00  0.00000000E+00  0.00000000E+00  0.00000000E+00  0.00000000E+00
  0.00000000E+00  0.00000000E+00  0.00000000E+00  0.00000000E+00  0.00000000E+00
  0.00000000E+00  0.00000000E+00  0.00000000E+00  0.00000000E+00  0.00000000E+00
  0.00000000E+00  0.00000000E+00  0.00000000E+00  0.00000000E+00  0.00000000E+00
  0.00000000E+00  0.00000000E+00  0.00000000E+00  0.00000000E+00  0.00000000E+00
  0.00000000E+00  0.00000000E+00  0.00000000E+00  0.00000000E+00  0.00000000E+00
  0.00000000E+00  0.00000000E+00  0.00000000E+00  0.00000000E+00  0.00000000E+00
  0.00000000E+00  0.00000000E+00  0.00000000E+00  0.00000000E+00  0.00000000E+00
  0.00000000E+00  0.00000000E+00  0.00000000E+00  0.00000000E+00  0.00000000E+00
  0.00000000E+00  0.00000000E+00  0.00000000E+00  0.00000000E+00  0.00000000E+00
  0.00000000E+00  0.00000000E+00  0.00000000E+00  0.00000000E+00  0.00000000E+00
  0.00000000E+00  0.00000000E+00  0.00000000E+00  0.00000000E+00  0.00000000E+00
  0.00000000E+00  0.00000000E+00  0.00000000E+00  0.00000000E+00  0.00000000E+00
  0.00000000E+00  0.00000000E+00  0.00000000E+00  0.00000000E+00  0.00000000E+00
  0.00000000E+00  0.00000000E+00  0.00000000E+00  0.00000000E+00  0.00000000E+00
  0.00000000E+00  0.00000000E+00  0.00000000E+00  0.00000000E+00  0.00000000E+00
  0.00000000E+00  0.00000000E+00  0.00000000E+00  0.00000000E+00  0.00000000E+00
  0.00000000E+00  0.00000000E+00  0.00000000E+00  0.00000000E+00  0.00000000E+00
  0.00000000E+00  0.00000000E+00  0.00000000E+00  0.00000000E+00  0.00000000E+00
  0.00000000E+00  0.00000000E+00  0.00000000E+00  0.00000000E+00  0.00000000E+00
  0.00000000E+00  0.00000000E+00  0.00000000E+00  0.00000000E+00  0.00000000E+00
  0.00000000E+00  0.00000000E+00  0.00000000E+00  0.00000000E+00  0.00000000E+00
  0.00000000E+00  0.00000000E+00  0.00000000E+00  0.00000000E+00  0.00000000E+00
  0.00000000E+00  0.00000000E+00  0.00000000E+00  0.00000000E+00  0.00000000E+00
  0.00000000E+00  0.00000000E+00  0.00000000E+00  0.00000000E+00  0.00000000E+00
  0.00000000E+00  0.00000000E+00  0.00000000E+00  0.00000000E+00  0.00000000E+00
  0.00000000E+00  0.00000000E+00  0.00000000E+00  0.00000000E+00  0.00000000E+00
  0.00000000E+00  0.00000000E+00  0.00000000E+00  0.00000000E+00  0.00000000E+00
  0.00000000E+00  0.00000000E+00  0.00000000E+00  0.00000000E+00  0.00000000E+00
  0.00000000E+00  0.00000000E+00  0.00000000E+00  0.00000000E+00  0.00000000E+00
  0.00000000E+00  0.00000000E+00  0.00000000E+00  0.00000000E+00  0.00000000E+00
  0.00000000E+00  0.00000000E+00  0.00000000E+00  0.00000000E+00  0.00000000E+00
  0.00000000E+00  0.00000000E+00  0.00000000E+00  0.00000000E+00  0.00000000E+00
  0.00000000E+00  0.00000000E+00  0.00000000E+00  0.00000000E+00  0.00000000E+00
  0.00000000E+00  0.00000000E+00  0.00000000E+00  0.00000000E+00  0.00000000E+00
  0.00000000E+00  0.00000000E+00  0.00000000E+00  0.00000000E+00  0.00000000E+00
  0.00000000E+00  0.00000000E+00  0.00000000E+00  0.00000000E+00  0.00000000E+00
  0.00000000E+00  0.00000000E+00  0.00000000E+00  0.00000000E+00  0.00000000E+00
  0.00000000E+00  0.00000000E+00  0.00000000E+00  0.00000000E+00  0.00000000E+00
  0.00000000E+00  0.00000000E+00  0.00000000E+00  0.00000000E+00  0.00000000E+00
  0.00000000E+00  0.00000000E+00  0.00000000E+00  0.00000000E+00  0.00000000E+00
  0.00000000E+00  0.00000000E+00  0.00000000E+00  0.00000000E+00  0.00000000E+00
  0.00000000E+00  0.00000000E+00  0.00000000E+00  0.00000000E+00  0.00000000E+00
  0.00000000E+00  0.00000000E+00  0.00000000E+00  0.00000000E+00  0.00000000E+00
  0.00000000E+00  0.00000000E+00  0.00000000E+00  0.00000000E+00  0.00000000E+00
  0.00000000E+00  0.00000000E+00  0.00000000E+00  0.00000000E+00  0.00000000E+00
  0.00000000E+00  0.00000000E+00  0.00000000E+00  0.00000000E+00  0.00000000E+00
  0.00000000E+00  0.00000000E+00  0.00000000E+00  0.00000000E+00  0.00000000E+00
  0.00000000E+00  0.00000000E+00  0.00000000E+00  0.00000000E+00  0.00000000E+00
  0.00000000E+00  0.00000000E+00  0.00000000E+00  0.00000000E+00  0.00000000E+00
  0.00000000E+00  0.00000000E+00  0.00000000E+00  0.00000000E+00  0.00000000E+00
  0.00000000E+00  0.00000000E+00  0.00000000E+00  0.00000000E+00  0.00000000E+00
  0.00000000E+00  0.00000000E+00  0.00000000E+00  0.00000000E+00  0.00000000E+00
  0.00000000E+00  0.00000000E+00  0.00000000E+00  0.00000000E+00  0.00000000E+00
  0.00000000E+00  0.00000000E+00  0.00000000E+00  0.00000000E+00  0.00000000E+00
  0.00000000E+00  0.00000000E+00  0.00000000E+00  0.00000000E+00  0.00000000E+00
  0.00000000E+00  0.00000000E+00  0.00000000E+00  0.00000000E+00  0.00000000E+00
  0.00000000E+00  0.00000000E+00  0.00000000E+00  0.00000000E+00  0.00000000E+00
  0.00000000E+00  0.00000000E+00  0.00000000E+00  0.00000000E+00  0.00000000E+00
  0.00000000E+00  0.00000000E+00  0.00000000E+00  0.00000000E+00  0.00000000E+00
  0.00000000E+00  0.00000000E+00  0.00000000E+00  0.00000000E+00  0.00000000E+00
  0.00000000E+00  0.00000000E+00  0.00000000E+00  0.00000000E+00  0.00000000E+00
  0.00000000E+00  0.00000000E+00  0.00000000E+00  0.00000000E+00  0.00000000E+00
  0.00000000E+00  0.00000000E+00  0.00000000E+00  0.00000000E+00  0.00000000E+00
  0.00000000E+00  0.00000000E+00  0.00000000E+00  0.00000000E+00  0.00000000E+00
  0.00000000E+00  0.00000000E+00  0.00000000E+00  0.00000000E+00  0.00000000E+00
  0.00000000E+00  0.00000000E+00  0.00000000E+00  0.00000000E+00  0.00000000E+00
  0.00000000E+00  0.00000000E+00  0.00000000E+00  0.00000000E+00  0.00000000E+00
  0.00000000E+00  0.00000000E+00  0.00000000E+00  0.00000000E+00  0.00000000E+00
  0.00000000E+00  0.00000000E+00  0.00000000E+00  0.00000000E+00  0.00000000E+00
  0.00000000E+00  0.00000000E+00  0.00000000E+00  0.00000000E+00  0.00000000E+00
  0.00000000E+00  0.00000000E+00  0.00000000E+00  0.00000000E+00  0.00000000E+00
  0.00000000E+00  0.00000000E+00  0.00000000E+00  0.00000000E+00  0.00000000E+00
  0.00000000E+00  0.00000000E+00  0.00000000E+00  0.00000000E+00  0.00000000E+00
  0.00000000E+00  0.00000000E+00  0.00000000E+00  0.00000000E+00  0.00000000E+00
  0.00000000E+00  0.00000000E+00  0.00000000E+00  0.00000000E+00  0.00000000E+00
  0.00000000E+00  0.00000000E+00  0.00000000E+00  0.00000000E+00  0.00000000E+00
  0.00000000E+00  0.00000000E+00  0.00000000E+00  0.00000000E+00  0.00000000E+00
  0.00000000E+00  0.00000000E+00  0.00000000E+00  0.00000000E+00  0.00000000E+00
  0.00000000E+00  0.00000000E+00  0.00000000E+00  0.00000000E+00  0.00000000E+00
  0.00000000E+00  0.00000000E+00  0.00000000E+00  0.00000000E+00  0.00000000E+00
  0.00000000E+00  0.00000000E+00  0.00000000E+00  0.00000000E+00  0.00000000E+00
  0.00000000E+00  0.00000000E+00  0.00000000E+00  0.00000000E+00  0.00000000E+00
  0.00000000E+00  0.00000000E+00  0.00000000E+00  0.00000000E+00  0.00000000E+00
  0.00000000E+00  0.00000000E+00  0.00000000E+00  0.00000000E+00  0.00000000E+00
  0.00000000E+00  0.00000000E+00  0.00000000E+00  0.00000000E+00  0.00000000E+00
  0.00000000E+00  0.00000000E+00  0.00000000E+00  0.00000000E+00  0.00000000E+00
  0.00000000E+00  0.00000000E+00  0.00000000E+00  0.00000000E+00  0.00000000E+00
  0.00000000E+00  0.00000000E+00  0.00000000E+00  0.00000000E+00  0.00000000E+00
  0.00000000E+00  0.00000000E+00  0.00000000E+00  0.00000000E+00  0.00000000E+00
  0.00000000E+00  0.00000000E+00  0.00000000E+00  0.00000000E+00  0.00000000E+00
  0.00000000E+00  0.00000000E+00  0.00000000E+00  0.00000000E+00  0.00000000E+00
  0.00000000E+00  0.00000000E+00  0.00000000E+00  0.00000000E+00  0.00000000E+00
  0.00000000E+00  0.00000000E+00  0.00000000E+00  0.00000000E+00  0.00000000E+00
  0.00000000E+00  0.00000000E+00  0.00000000E+00  0.00000000E+00  0.00000000E+00
  0.00000000E+00  0.00000000E+00  0.00000000E+00  0.00000000E+00  0.00000000E+00
  0.00000000E+00  0.00000000E+00  0.00000000E+00  0.00000000E+00  0.00000000E+00
  0.00000000E+00  0.00000000E+00  0.00000000E+00  0.00000000E+00  0.00000000E+00
  0.00000000E+00  0.00000000E+00  0.00000000E+00  0.00000000E+00  0.00000000E+00
  0.00000000E+00  0.00000000E+00  0.00000000E+00  0.00000000E+00  0.00000000E+00
  0.00000000E+00  0.00000000E+00  0.00000000E+00  0.00000000E+00  0.00000000E+00
  0.00000000E+00  0.00000000E+00  0.00000000E+00  0.00000000E+00  0.00000000E+00
  0.00000000E+00  0.00000000E+00  0.00000000E+00  0.00000000E+00  0.00000000E+00
  0.00000000E+00  0.00000000E+00  0.00000000E+00  0.00000000E+00  0.00000000E+00
  0.00000000E+00  0.00000000E+00  0.00000000E+00  0.00000000E+00  0.00000000E+00
  0.00000000E+00  0.00000000E+00  0.00000000E+00  0.00000000E+00  0.00000000E+00
  0.00000000E+00  0.00000000E+00  0.00000000E+00  0.00000000E+00  0.00000000E+00
  0.00000000E+00  0.00000000E+00  0.00000000E+00  0.00000000E+00  0.00000000E+00
  0.00000000E+00  0.00000000E+00  0.00000000E+00  0.00000000E+00  0.00000000E+00
  0.00000000E+00  0.00000000E+00  0.00000000E+00  0.00000000E+00  0.00000000E+00
  0.00000000E+00  0.00000000E+00  0.00000000E+00  0.00000000E+00  0.00000000E+00
  0.00000000E+00  0.00000000E+00  0.00000000E+00  0.00000000E+00  0.00000000E+00
  0.00000000E+00  0.00000000E+00  0.00000000E+00  0.00000000E+00  0.00000000E+00
  0.00000000E+00  0.00000000E+00  0.00000000E+00  0.00000000E+00  0.00000000E+00
  0.00000000E+00  0.00000000E+00  0.00000000E+00  0.00000000E+00  0.00000000E+00
  0.00000000E+00  0.00000000E+00  0.00000000E+00  0.00000000E+00  0.00000000E+00
  0.00000000E+00  0.00000000E+00  0.00000000E+00  0.00000000E+00  0.00000000E+00
  0.00000000E+00  0.00000000E+00  0.00000000E+00  0.00000000E+00  0.00000000E+00
  0.00000000E+00  0.00000000E+00  0.00000000E+00  0.00000000E+00  0.00000000E+00
  0.00000000E+00  0.00000000E+00  0.00000000E+00  0.00000000E+00  0.00000000E+00
  0.00000000E+00  0.00000000E+00  0.00000000E+00  0.00000000E+00  0.00000000E+00
  0.00000000E+00  0.00000000E+00  0.00000000E+00  0.00000000E+00  0.00000000E+00
  0.00000000E+00  0.00000000E+00  0.00000000E+00  0.00000000E+00  0.00000000E+00
  0.00000000E+00  0.00000000E+00  0.00000000E+00  0.00000000E+00  0.00000000E+00
  0.00000000E+00  0.00000000E+00  0.00000000E+00  0.00000000E+00  0.00000000E+00
  0.00000000E+00  0.00000000E+00  0.00000000E+00  0.00000000E+00  0.00000000E+00
  0.00000000E+00  0.00000000E+00  0.00000000E+00  0.00000000E+00  0.00000000E+00
  0.00000000E+00  0.00000000E+00  0.00000000E+00  0.00000000E+00  0.00000000E+00
  0.00000000E+00  0.00000000E+00  0.00000000E+00  0.00000000E+00  0.00000000E+00
  0.00000000E+00  0.00000000E+00  0.00000000E+00  0.00000000E+00  0.00000000E+00
  0.00000000E+00  0.00000000E+00  0.00000000E+00  0.00000000E+00  0.00000000E+00
  0.00000000E+00  0.00000000E+00  0.00000000E+00  0.00000000E+00  0.00000000E+00
  0.00000000E+00  0.00000000E+00  0.00000000E+00  0.00000000E+00  0.00000000E+00
  0.00000000E+00  0.00000000E+00  0.00000000E+00  0.00000000E+00  0.00000000E+00
  0.00000000E+00  0.00000000E+00  0.00000000E+00  0.00000000E+00  0.00000000E+00
  0.00000000E+00  0.00000000E+00  0.00000000E+00  0.00000000E+00  0.00000000E+00
  0.00000000E+00  0.00000000E+00  0.00000000E+00  0.00000000E+00  0.00000000E+00
  0.00000000E+00  0.00000000E+00  0.00000000E+00  0.00000000E+00  0.00000000E+00
  0.00000000E+00  0.00000000E+00  0.00000000E+00  0.00000000E+00  0.00000000E+00
  0.00000000E+00  0.00000000E+00  0.00000000E+00  0.00000000E+00  0.00000000E+00
  0.00000000E+00  0.00000000E+00  0.00000000E+00  0.00000000E+00  0.00000000E+00
  0.00000000E+00  0.00000000E+00  0.00000000E+00  0.00000000E+00  0.00000000E+00
  0.00000000E+00  0.00000000E+00  0.00000000E+00  0.00000000E+00  0.00000000E+00
  0.00000000E+00  0.00000000E+00  0.00000000E+00  0.00000000E+00  0.00000000E+00
  0.00000000E+00  0.00000000E+00  0.00000000E+00  0.00000000E+00  0.00000000E+00
  0.00000000E+00  0.00000000E+00  0.00000000E+00  0.00000000E+00  0.00000000E+00
  0.00000000E+00  0.00000000E+00  0.00000000E+00  0.00000000E+00  0.00000000E+00
  0.00000000E+00  0.00000000E+00  0.00000000E+00  0.00000000E+00  0.00000000E+00
  0.00000000E+00  0.00000000E+00  0.00000000E+00  0.00000000E+00  0.00000000E+00
  0.00000000E+00  0.00000000E+00  0.00000000E+00  0.00000000E+00  0.00000000E+00
  0.00000000E+00  0.00000000E+00  0.00000000E+00  0.00000000E+00  0.00000000E+00
  0.00000000E+00  0.00000000E+00  0.00000000E+00  0.00000000E+00  0.00000000E+00
  0.00000000E+00  0.00000000E+00  0.00000000E+00  0.00000000E+00  0.00000000E+00
  0.00000000E+00  0.00000000E+00  0.00000000E+00  0.00000000E+00  0.00000000E+00
  0.00000000E+00  0.00000000E+00  0.00000000E+00  0.00000000E+00  0.00000000E+00
  0.00000000E+00  0.00000000E+00  0.00000000E+00  0.00000000E+00  0.00000000E+00
  0.00000000E+00  0.00000000E+00  0.00000000E+00  0.00000000E+00  0.00000000E+00
  0.00000000E+00  0.00000000E+00  0.00000000E+00  0.00000000E+00  0.00000000E+00
  0.00000000E+00  0.00000000E+00  0.00000000E+00  0.00000000E+00  0.00000000E+00
  0.00000000E+00  0.00000000E+00  0.00000000E+00  0.00000000E+00  0.00000000E+00
  0.00000000E+00  0.00000000E+00  0.00000000E+00  0.00000000E+00  0.00000000E+00
  0.00000000E+00  0.00000000E+00  0.00000000E+00  0.00000000E+00  0.00000000E+00
  0.00000000E+00  0.00000000E+00  0.00000000E+00  0.00000000E+00  0.00000000E+00
  0.00000000E+00  0.00000000E+00  0.00000000E+00  0.00000000E+00  0.00000000E+00
  0.00000000E+00  0.00000000E+00  0.00000000E+00  0.00000000E+00  0.00000000E+00
  0.00000000E+00  0.00000000E+00  0.00000000E+00  0.00000000E+00  0.00000000E+00
  0.00000000E+00  0.00000000E+00  0.00000000E+00  0.00000000E+00  0.00000000E+00
  0.00000000E+00  0.00000000E+00  0.00000000E+00  0.00000000E+00  0.00000000E+00
  0.00000000E+00  0.00000000E+00  0.00000000E+00  0.00000000E+00  0.00000000E+00
  0.00000000E+00  0.00000000E+00  0.00000000E+00  0.00000000E+00  0.00000000E+00
  0.00000000E+00  0.00000000E+00  0.00000000E+00  0.00000000E+00  0.00000000E+00
  0.00000000E+00  0.00000000E+00  0.00000000E+00  0.00000000E+00  0.00000000E+00
  0.00000000E+00  0.00000000E+00  0.00000000E+00  0.00000000E+00  0.00000000E+00
  0.00000000E+00  0.00000000E+00  0.00000000E+00  0.00000000E+00  0.00000000E+00
  0.00000000E+00  0.00000000E+00  0.00000000E+00  0.00000000E+00  0.00000000E+00
  0.00000000E+00  0.00000000E+00  0.00000000E+00  0.00000000E+00  0.00000000E+00
  0.00000000E+00  0.00000000E+00  0.00000000E+00  0.00000000E+00  0.00000000E+00
  0.00000000E+00  0.00000000E+00  0.00000000E+00  0.00000000E+00  0.00000000E+00
  0.00000000E+00  0.00000000E+00  0.00000000E+00  0.00000000E+00  0.00000000E+00
  0.00000000E+00  0.00000000E+00  0.00000000E+00  0.00000000E+00  0.00000000E+00
  0.00000000E+00  0.00000000E+00  0.00000000E+00  0.00000000E+00  0.00000000E+00
  0.00000000E+00  0.00000000E+00  0.00000000E+00  0.00000000E+00  0.00000000E+00
  0.00000000E+00  0.00000000E+00  0.00000000E+00  0.00000000E+00  0.00000000E+00
  0.00000000E+00  0.00000000E+00  0.00000000E+00  0.00000000E+00  0.00000000E+00
  0.00000000E+00  0.00000000E+00  0.00000000E+00  0.00000000E+00  0.00000000E+00
  0.00000000E+00  0.00000000E+00  0.00000000E+00  0.00000000E+00  0.00000000E+00
  0.00000000E+00  0.00000000E+00  0.00000000E+00  0.00000000E+00  0.00000000E+00
  0.00000000E+00  0.00000000E+00  0.00000000E+00  0.00000000E+00  0.00000000E+00
  0.00000000E+00  0.00000000E+00  0.00000000E+00  0.00000000E+00  0.00000000E+00
  0.00000000E+00  0.00000000E+00  0.00000000E+00  0.00000000E+00  0.00000000E+00
  0.00000000E+00  0.00000000E+00  0.00000000E+00  0.00000000E+00  0.00000000E+00
  0.00000000E+00  0.00000000E+00  0.00000000E+00  0.00000000E+00  0.00000000E+00
  0.00000000E+00  0.00000000E+00  0.00000000E+00  0.00000000E+00  0.00000000E+00
  0.00000000E+00  0.00000000E+00  0.00000000E+00  0.00000000E+00  0.00000000E+00
  0.00000000E+00  0.00000000E+00  0.00000000E+00  0.00000000E+00  0.00000000E+00
  0.00000000E+00  0.00000000E+00  0.00000000E+00  0.00000000E+00  0.00000000E+00
  0.00000000E+00  0.00000000E+00  0.00000000E+00  0.00000000E+00  0.00000000E+00
Gaussian Version                           C   N=           2
ES64L-G16RevC.01        
