 Entering Gaussian System, Link 0=g16
 Input=GauExternal.gjf
 Output=GauExternal.log
 Initial command:
 /gaussian/g16.c01/intel64-sandybridge/g16/l1.exe "/home/barone/lcrisci_vb/ACTUAL_PROJECTS/MRCC_new_Interface_project/TestingOldVersion/Symmetry/C3H4_D2d/Iterations/Iteration_1/task_atom_3_ixyz_2_up/Gau-4154043.inp" -scrdir="/home/barone/lcrisci_vb/ACTUAL_PROJECTS/MRCC_new_Interface_project/TestingOldVersion/Symmetry/C3H4_D2d/Iterations/Iteration_1/task_atom_3_ixyz_2_up/"
 Entering Link 1 = /gaussian/g16.c01/intel64-sandybridge/g16/l1.exe PID=   4154045.
  
 Copyright (c) 1988-2019, Gaussian, Inc.  All Rights Reserved.
  
 This is part of the Gaussian(R) 16 program.  It is based on
 the Gaussian(R) 09 system (copyright 2009, Gaussian, Inc.),
 the Gaussian(R) 03 system (copyright 2003, Gaussian, Inc.),
 the Gaussian(R) 98 system (copyright 1998, Gaussian, Inc.),
 the Gaussian(R) 94 system (copyright 1995, Gaussian, Inc.),
 the Gaussian 92(TM) system (copyright 1992, Gaussian, Inc.),
 the Gaussian 90(TM) system (copyright 1990, Gaussian, Inc.),
 the Gaussian 88(TM) system (copyright 1988, Gaussian, Inc.),
 the Gaussian 86(TM) system (copyright 1986, Carnegie Mellon
 University), and the Gaussian 82(TM) system (copyright 1983,
 Carnegie Mellon University). Gaussian is a federally registered
 trademark of Gaussian, Inc.
  
 This software contains proprietary and confidential information,
 including trade secrets, belonging to Gaussian, Inc.
  
 This software is provided under written license and may be
 used, copied, transmitted, or stored only in accord with that
 written license.
  
 The following legend is applicable only to US Government
 contracts under FAR:
  
                    RESTRICTED RIGHTS LEGEND
  
 Use, reproduction and disclosure by the US Government is
 subject to restrictions as set forth in subparagraphs (a)
 and (c) of the Commercial Computer Software - Restricted
 Rights clause in FAR 52.227-19.
  
 Gaussian, Inc.
 340 Quinnipiac St., Bldg. 40, Wallingford CT 06492
  
  
 ---------------------------------------------------------------
 Warning -- This program may not be used in any manner that
 competes with the business of Gaussian, Inc. or will provide
 assistance to any competitor of Gaussian, Inc.  The licensee
 of this program is prohibited from giving any competitor of
 Gaussian, Inc. access to this program.  By using this program,
 the user acknowledges that Gaussian, Inc. is engaged in the
 business of creating and licensing software in the field of
 computational chemistry and represents and warrants to the
 licensee that it is not a competitor of Gaussian, Inc. and that
 it will not use this program in any manner prohibited above.
 ---------------------------------------------------------------
  

 Cite this work as:
 Gaussian 16, Revision C.01,
 M. J. Frisch, G. W. Trucks, H. B. Schlegel, G. E. Scuseria, 
 M. A. Robb, J. R. Cheeseman, G. Scalmani, V. Barone, 
 G. A. Petersson, H. Nakatsuji, X. Li, M. Caricato, A. V. Marenich, 
 J. Bloino, B. G. Janesko, R. Gomperts, B. Mennucci, H. P. Hratchian, 
 J. V. Ortiz, A. F. Izmaylov, J. L. Sonnenberg, D. Williams-Young, 
 F. Ding, F. Lipparini, F. Egidi, J. Goings, B. Peng, A. Petrone, 
 T. Henderson, D. Ranasinghe, V. G. Zakrzewski, J. Gao, N. Rega, 
 G. Zheng, W. Liang, M. Hada, M. Ehara, K. Toyota, R. Fukuda, 
 J. Hasegawa, M. Ishida, T. Nakajima, Y. Honda, O. Kitao, H. Nakai, 
 T. Vreven, K. Throssell, J. A. Montgomery, Jr., J. E. Peralta, 
 F. Ogliaro, M. J. Bearpark, J. J. Heyd, E. N. Brothers, K. N. Kudin, 
 V. N. Staroverov, T. A. Keith, R. Kobayashi, J. Normand, 
 K. Raghavachari, A. P. Rendell, J. C. Burant, S. S. Iyengar, 
 J. Tomasi, M. Cossi, J. M. Millam, M. Klene, C. Adamo, R. Cammi, 
 J. W. Ochterski, R. L. Martin, K. Morokuma, O. Farkas, 
 J. B. Foresman, and D. J. Fox, Gaussian, Inc., Wallingford CT, 2019.
 
 ******************************************
 Gaussian 16:  ES64L-G16RevC.01  3-Jul-2019
                19-Nov-2025 
 ******************************************
 %nproc=7
 Will use up to    7 processors via shared memory.
 %mem=55GB
 %chk=GauExternal.chk
 --------------------
 #P hf/sto-3g scf=xqc
 --------------------
 1/38=1,172=1/1;
 2/12=2,17=6,18=5,40=1/2;
 3/6=3,11=9,25=1,30=1/1,2,3;
 4//1;
 5/5=2,8=3,13=1,38=5/2,8;
 6/7=2,8=2,9=2,10=2,28=1/1;
 99/5=1,9=1/99;
 Leave Link    1 at Wed Nov 19 18:14:12 2025, MaxMem=  7381975040 cpu:               0.0 elap:               0.2
 (Enter /gaussian/g16.c01/intel64-sandybridge/g16/l101.exe)
 --------------------
 External Calculation
 --------------------
 Symbolic Z-matrix:
 Charge =  0 Multiplicity = 1
 C                     0.        0.        0. 
 C                     0.        0.        1.3552 
 H                     0.        0.92572   1.89384 
 H                     0.       -0.92472   1.89384 
 C                     0.        0.       -1.3552 
 H                    -0.92472   0.       -1.89384 
 H                     0.92472   0.       -1.89384 
 
 ITRead=  0  0  0  0  0  0  0
 MicOpt= -1 -1 -1 -1 -1 -1 -1
 NAtoms=      7 NQM=        7 NQMF=       0 NMMI=      0 NMMIF=      0
                NMic=       0 NMicF=      0.
                    Isotopes and Nuclear Properties:
 (Nuclear quadrupole moments (NQMom) in fm**2, nuclear magnetic moments (NMagM)
  in nuclear magnetons)

  Atom         1           2           3           4           5           6           7
 IAtWgt=          12          12           1           1          12           1           1
 AtmWgt=  12.0000000  12.0000000   1.0078250   1.0078250  12.0000000   1.0078250   1.0078250
 NucSpn=           0           0           1           1           0           1           1
 AtZEff=  -0.0000000  -0.0000000  -0.0000000  -0.0000000  -0.0000000  -0.0000000  -0.0000000
 NQMom=    0.0000000   0.0000000   0.0000000   0.0000000   0.0000000   0.0000000   0.0000000
 NMagM=    0.0000000   0.0000000   2.7928460   2.7928460   0.0000000   2.7928460   2.7928460
 AtZNuc=   6.0000000   6.0000000   1.0000000   1.0000000   6.0000000   1.0000000   1.0000000
 Leave Link  101 at Wed Nov 19 18:14:12 2025, MaxMem=  7381975040 cpu:               0.2 elap:               0.2
 (Enter /gaussian/g16.c01/intel64-sandybridge/g16/l202.exe)
                          Input orientation:                          
 ---------------------------------------------------------------------
 Center     Atomic      Atomic             Coordinates (Angstroms)
 Number     Number       Type             X           Y           Z
 ---------------------------------------------------------------------
      1          6           0        0.000000    0.000000    0.000000
      2          6           0        0.000000    0.000000    1.355200
      3          1           0        0.000000    0.925716    1.893841
      4          1           0        0.000000   -0.924716    1.893841
      5          6           0        0.000000    0.000000   -1.355200
      6          1           0       -0.924716    0.000000   -1.893841
      7          1           0        0.924716    0.000000   -1.893841
 ---------------------------------------------------------------------
                    Distance matrix (angstroms):
                    1          2          3          4          5
     1  C    0.000000
     2  C    1.355200   0.000000
     3  H    2.107981   1.071021   0.000000
     4  H    2.107543   1.070156   1.850432   0.000000
     5  C    1.355200   2.710400   3.378346   3.378072   0.000000
     6  H    2.107543   3.378072   4.007317   4.007087   1.070156
     7  H    2.107543   3.378072   4.007317   4.007087   1.070156
                    6          7
     6  H    0.000000
     7  H    1.849432   0.000000
 Stoichiometry    C3H4
 Framework group  CS[SG(C3H2),X(H2)]
 Deg. of freedom    10
 Full point group                 CS      NOp   2
 Largest Abelian subgroup         CS      NOp   2
 Largest concise Abelian subgroup CS      NOp   2
                         Standard orientation:                         
 ---------------------------------------------------------------------
 Center     Atomic      Atomic             Coordinates (Angstroms)
 Number     Number       Type             X           Y           Z
 ---------------------------------------------------------------------
      1          6           0        0.000045    0.000000    0.000000
      2          6           0        0.000045    1.355200    0.000000
      3          1           0       -0.925671    1.893841    0.000000
      4          1           0        0.924762    1.893841    0.000000
      5          6           0        0.000045   -1.355200    0.000000
      6          1           0        0.000045   -1.893841    0.924716
      7          1           0        0.000045   -1.893841   -0.924716
 ---------------------------------------------------------------------
 Rotational constants (GHZ):         146.5278889           8.3866419           8.3863824
 Leave Link  202 at Wed Nov 19 18:14:13 2025, MaxMem=  7381975040 cpu:               0.0 elap:               0.1
 (Enter /gaussian/g16.c01/intel64-sandybridge/g16/l301.exe)
 Standard basis: STO-3G (5D, 7F)
 Ernie: Thresh=  0.10000D-02 Tol=  0.10000D-05 Strict=F.
 There are    15 symmetry adapted cartesian basis functions of A'  symmetry.
 There are     4 symmetry adapted cartesian basis functions of A"  symmetry.
 There are    15 symmetry adapted basis functions of A'  symmetry.
 There are     4 symmetry adapted basis functions of A"  symmetry.
    19 basis functions,    57 primitive gaussians,    19 cartesian basis functions
    11 alpha electrons       11 beta electrons
       nuclear repulsion energy        57.8940340327 Hartrees.
 IExCor=    0 DFT=F Ex=HF Corr=None ExCW=0 ScaHFX=  1.000000
 ScaDFX=  1.000000  1.000000  1.000000  1.000000 ScalE2=  1.000000  1.000000
 IRadAn=      5 IRanWt=     -1 IRanGd=            0 ICorTp=0 IEmpDi=  4
 NAtoms=    7 NActive=    7 NUniq=    6 SFac= 1.36D+00 NAtFMM=   60 NAOKFM=F Big=F
 Integral buffers will be    131072 words long.
 Raffenetti 1 integral format.
 Two-electron integral symmetry is turned on.
 Leave Link  301 at Wed Nov 19 18:14:13 2025, MaxMem=  7381975040 cpu:               0.0 elap:               0.1
 (Enter /gaussian/g16.c01/intel64-sandybridge/g16/l302.exe)
 NPDir=0 NMtPBC=     1 NCelOv=     1 NCel=       1 NClECP=     1 NCelD=      1
         NCelK=      1 NCelE2=     1 NClLst=     1 CellRange=     0.0.
 One-electron integrals computed using PRISM.
 One-electron integral symmetry used in STVInt
 NBasis=    19 RedAO= T EigKep=  1.91D-01  NBF=    15     4
 NBsUse=    19 1.00D-06 EigRej= -1.00D+00 NBFU=    15     4
 Leave Link  302 at Wed Nov 19 18:14:13 2025, MaxMem=  7381975040 cpu:               0.2 elap:               0.1
 (Enter /gaussian/g16.c01/intel64-sandybridge/g16/l303.exe)
 DipDrv:  MaxL=1.
 Leave Link  303 at Wed Nov 19 18:14:13 2025, MaxMem=  7381975040 cpu:               0.0 elap:               0.1
 (Enter /gaussian/g16.c01/intel64-sandybridge/g16/l401.exe)
 ExpMin= 1.69D-01 ExpMax= 7.16D+01 ExpMxC= 7.16D+01 IAcc=3 IRadAn=         5 AccDes= 0.00D+00
 Harris functional with IExCor=  205 and IRadAn=       5 diagonalized for initial guess.
 HarFok:  IExCor=  205 AccDes= 0.00D+00 IRadAn=         5 IDoV= 1 UseB2=F ITyADJ=14
 ICtDFT=  3500011 ScaDFX=  1.000000  1.000000  1.000000  1.000000
 FoFCou: FMM=F IPFlag=           0 FMFlag=      100000 FMFlg1=           0
         NFxFlg=           0 DoJE=T BraDBF=F KetDBF=T FulRan=T
         wScrn=  0.000000 ICntrl=       500 IOpCl=  0 I1Cent=   200000004 NGrid=           0
         NMat0=    1 NMatS0=      1 NMatT0=    0 NMatD0=    1 NMtDS0=    0 NMtDT0=    0
 Petite list used in FoFCou.
 Harris En= -114.604935318717    
 JPrj=0 DoOrth=F DoCkMO=F.
 Initial guess orbital symmetries:
       Occupied  (A') (A') (A') (A') (A') (A') (A') (A") (A') (A')
                 (A")
       Virtual   (A') (A") (A') (A') (A') (A') (A") (A')
 The electronic state of the initial guess is 1-A'.
 Leave Link  401 at Wed Nov 19 18:14:13 2025, MaxMem=  7381975040 cpu:               0.4 elap:               0.1
 (Enter /gaussian/g16.c01/intel64-sandybridge/g16/l502.exe)
 Keep R1 ints in memory in symmetry-blocked form, NReq=827541.
 FoFCou: FMM=F IPFlag=           0 FMFlag=           0 FMFlg1=           0
         NFxFlg=           0 DoJE=F BraDBF=F KetDBF=F FulRan=T
         wScrn=  0.000000 ICntrl=       600 IOpCl=  0 I1Cent=           0 NGrid=           0
         NMat0=    1 NMatS0=    190 NMatT0=    0 NMatD0=    1 NMtDS0=    0 NMtDT0=    0
 Petite list used in FoFCou.
 Closed shell SCF:
 Using DIIS extrapolation, IDIIS=  1040.
 NGot=  7381975040 LenX=  7381962318 LenY=  7381961436
 Requested convergence on RMS density matrix=1.00D-08 within  32 cycles.
 Requested convergence on MAX density matrix=1.00D-06.
 Requested convergence on             energy=1.00D-06.
 No special actions if energy rises.

 Cycle   1  Pass 1  IDiag  1:
 E= -114.350949711240    
 DIIS: error= 4.88D-02 at cycle   1 NSaved=   1.
 NSaved= 1 IEnMin= 1 EnMin= -114.350949711240     IErMin= 1 ErrMin= 4.88D-02
 ErrMax= 4.88D-02  0.00D+00 EMaxC= 1.00D-01 BMatC= 5.74D-02 BMatP= 5.74D-02
 IDIUse=3 WtCom= 5.12D-01 WtEn= 4.88D-01
 Coeff-Com:  0.100D+01
 Coeff-En:   0.100D+01
 Coeff:      0.100D+01
 Gap=     0.599 Goal=   None    Shift=    0.000
 GapD=    0.599 DampG=2.000 DampE=0.500 DampFc=1.0000 IDamp=-1.
 RMSDP=1.60D-02 MaxDP=9.14D-02              OVMax= 0.00D+00

 Cycle   2  Pass 1  IDiag  1:
 E= -114.404206081734     Delta-E=       -0.053256370494 Rises=F Damp=F
 DIIS: error= 1.03D-02 at cycle   2 NSaved=   2.
 NSaved= 2 IEnMin= 2 EnMin= -114.404206081734     IErMin= 2 ErrMin= 1.03D-02
 ErrMax= 1.03D-02  0.00D+00 EMaxC= 1.00D-01 BMatC= 2.92D-03 BMatP= 5.74D-02
 IDIUse=3 WtCom= 8.97D-01 WtEn= 1.03D-01
 Coeff-Com:  0.778D-01 0.922D+00
 Coeff-En:   0.000D+00 0.100D+01
 Coeff:      0.698D-01 0.930D+00
 Gap=     0.608 Goal=   None    Shift=    0.000
 RMSDP=4.43D-03 MaxDP=3.16D-02 DE=-5.33D-02 OVMax= 0.00D+00

 Cycle   3  Pass 1  IDiag  1:
 E= -114.406760146532     Delta-E=       -0.002554064798 Rises=F Damp=F
 DIIS: error= 5.81D-03 at cycle   3 NSaved=   3.
 NSaved= 3 IEnMin= 3 EnMin= -114.406760146532     IErMin= 3 ErrMin= 5.81D-03
 ErrMax= 5.81D-03  0.00D+00 EMaxC= 1.00D-01 BMatC= 7.00D-04 BMatP= 2.92D-03
 IDIUse=3 WtCom= 9.42D-01 WtEn= 5.81D-02
 Coeff-Com: -0.223D-01 0.310D+00 0.713D+00
 Coeff-En:   0.000D+00 0.000D+00 0.100D+01
 Coeff:     -0.210D-01 0.292D+00 0.729D+00
 Gap=     0.608 Goal=   None    Shift=    0.000
 RMSDP=1.64D-03 MaxDP=1.09D-02 DE=-2.55D-03 OVMax= 0.00D+00

 Cycle   4  Pass 1  IDiag  1:
 E= -114.407540984871     Delta-E=       -0.000780838339 Rises=F Damp=F
 DIIS: error= 5.15D-04 at cycle   4 NSaved=   4.
 NSaved= 4 IEnMin= 4 EnMin= -114.407540984871     IErMin= 4 ErrMin= 5.15D-04
 ErrMax= 5.15D-04  0.00D+00 EMaxC= 1.00D-01 BMatC= 3.49D-06 BMatP= 7.00D-04
 IDIUse=3 WtCom= 9.95D-01 WtEn= 5.15D-03
 Coeff-Com:  0.433D-02-0.791D-01-0.119D+00 0.119D+01
 Coeff-En:   0.000D+00 0.000D+00 0.000D+00 0.100D+01
 Coeff:      0.431D-02-0.787D-01-0.118D+00 0.119D+01
 Gap=     0.609 Goal=   None    Shift=    0.000
 RMSDP=1.67D-04 MaxDP=7.86D-04 DE=-7.81D-04 OVMax= 0.00D+00

 Cycle   5  Pass 1  IDiag  1:
 E= -114.407548564076     Delta-E=       -0.000007579205 Rises=F Damp=F
 DIIS: error= 6.43D-05 at cycle   5 NSaved=   5.
 NSaved= 5 IEnMin= 5 EnMin= -114.407548564076     IErMin= 5 ErrMin= 6.43D-05
 ErrMax= 6.43D-05  0.00D+00 EMaxC= 1.00D-01 BMatC= 7.06D-08 BMatP= 3.49D-06
 IDIUse=1 WtCom= 1.00D+00 WtEn= 0.00D+00
 Coeff-Com: -0.155D-03 0.461D-02-0.491D-02-0.163D+00 0.116D+01
 Coeff:     -0.155D-03 0.461D-02-0.491D-02-0.163D+00 0.116D+01
 Gap=     0.609 Goal=   None    Shift=    0.000
 RMSDP=2.68D-05 MaxDP=2.12D-04 DE=-7.58D-06 OVMax= 0.00D+00

 Cycle   6  Pass 1  IDiag  1:
 E= -114.407548697204     Delta-E=       -0.000000133128 Rises=F Damp=F
 DIIS: error= 1.62D-05 at cycle   6 NSaved=   6.
 NSaved= 6 IEnMin= 6 EnMin= -114.407548697204     IErMin= 6 ErrMin= 1.62D-05
 ErrMax= 1.62D-05  0.00D+00 EMaxC= 1.00D-01 BMatC= 3.32D-09 BMatP= 7.06D-08
 IDIUse=1 WtCom= 1.00D+00 WtEn= 0.00D+00
 Coeff-Com:  0.486D-04-0.161D-02 0.239D-02 0.859D-01-0.693D+00 0.161D+01
 Coeff:      0.486D-04-0.161D-02 0.239D-02 0.859D-01-0.693D+00 0.161D+01
 Gap=     0.609 Goal=   None    Shift=    0.000
 RMSDP=7.12D-06 MaxDP=6.21D-05 DE=-1.33D-07 OVMax= 0.00D+00

 Cycle   7  Pass 1  IDiag  1:
 E= -114.407548703985     Delta-E=       -0.000000006781 Rises=F Damp=F
 DIIS: error= 2.42D-06 at cycle   7 NSaved=   7.
 NSaved= 7 IEnMin= 7 EnMin= -114.407548703985     IErMin= 7 ErrMin= 2.42D-06
 ErrMax= 2.42D-06  0.00D+00 EMaxC= 1.00D-01 BMatC= 9.33D-11 BMatP= 3.32D-09
 IDIUse=1 WtCom= 1.00D+00 WtEn= 0.00D+00
 Coeff-Com: -0.143D-04 0.409D-03-0.681D-03-0.202D-01 0.165D+00-0.492D+00
 Coeff-Com:  0.135D+01
 Coeff:     -0.143D-04 0.409D-03-0.681D-03-0.202D-01 0.165D+00-0.492D+00
 Coeff:      0.135D+01
 Gap=     0.609 Goal=   None    Shift=    0.000
 RMSDP=1.27D-06 MaxDP=8.24D-06 DE=-6.78D-09 OVMax= 0.00D+00

 Cycle   8  Pass 1  IDiag  1:
 E= -114.407548704192     Delta-E=       -0.000000000207 Rises=F Damp=F
 DIIS: error= 3.95D-07 at cycle   8 NSaved=   8.
 NSaved= 8 IEnMin= 8 EnMin= -114.407548704192     IErMin= 8 ErrMin= 3.95D-07
 ErrMax= 3.95D-07  0.00D+00 EMaxC= 1.00D-01 BMatC= 3.58D-12 BMatP= 9.33D-11
 IDIUse=1 WtCom= 1.00D+00 WtEn= 0.00D+00
 Coeff-Com: -0.706D-05 0.208D-03-0.327D-03-0.104D-01 0.841D-01-0.227D+00
 Coeff-Com:  0.373D+00 0.780D+00
 Coeff:     -0.706D-05 0.208D-03-0.327D-03-0.104D-01 0.841D-01-0.227D+00
 Coeff:      0.373D+00 0.780D+00
 Gap=     0.609 Goal=   None    Shift=    0.000
 RMSDP=1.73D-07 MaxDP=1.39D-06 DE=-2.07D-10 OVMax= 0.00D+00

 Cycle   9  Pass 1  IDiag  1:
 E= -114.407548704198     Delta-E=       -0.000000000006 Rises=F Damp=F
 DIIS: error= 2.53D-08 at cycle   9 NSaved=   9.
 NSaved= 9 IEnMin= 9 EnMin= -114.407548704198     IErMin= 9 ErrMin= 2.53D-08
 ErrMax= 2.53D-08  0.00D+00 EMaxC= 1.00D-01 BMatC= 7.73D-15 BMatP= 3.58D-12
 IDIUse=1 WtCom= 1.00D+00 WtEn= 0.00D+00
 Coeff-Com:  0.900D-06-0.271D-04 0.438D-04 0.136D-02-0.110D-01 0.306D-01
 Coeff-Com: -0.606D-01-0.858D-01 0.113D+01
 Coeff:      0.900D-06-0.271D-04 0.438D-04 0.136D-02-0.110D-01 0.306D-01
 Coeff:     -0.606D-01-0.858D-01 0.113D+01
 Gap=     0.609 Goal=   None    Shift=    0.000
 RMSDP=1.01D-08 MaxDP=5.14D-08 DE=-5.68D-12 OVMax= 0.00D+00

 Cycle  10  Pass 1  IDiag  1:
 E= -114.407548704198     Delta-E=        0.000000000000 Rises=F Damp=F
 DIIS: error= 1.95D-09 at cycle  10 NSaved=  10.
 NSaved=10 IEnMin= 9 EnMin= -114.407548704198     IErMin=10 ErrMin= 1.95D-09
 ErrMax= 1.95D-09  0.00D+00 EMaxC= 1.00D-01 BMatC= 9.21D-17 BMatP= 7.73D-15
 IDIUse=1 WtCom= 1.00D+00 WtEn= 0.00D+00
 Coeff-Com: -0.127D-06 0.389D-05-0.656D-05-0.200D-03 0.161D-02-0.453D-02
 Coeff-Com:  0.953D-02 0.150D-01-0.211D+00 0.119D+01
 Coeff:     -0.127D-06 0.389D-05-0.656D-05-0.200D-03 0.161D-02-0.453D-02
 Coeff:      0.953D-02 0.150D-01-0.211D+00 0.119D+01
 Gap=     0.609 Goal=   None    Shift=    0.000
 RMSDP=1.07D-09 MaxDP=7.16D-09 DE= 1.14D-13 OVMax= 0.00D+00

 SCF Done:  E(RHF) =  -114.407548704     A.U. after   10 cycles
            NFock= 10  Conv=0.11D-08     -V/T= 2.0072
 KE= 1.135924053770D+02 PE=-3.823859545409D+02 EE= 9.649196642690D+01
 Leave Link  502 at Wed Nov 19 18:14:14 2025, MaxMem=  7381975040 cpu:               0.6 elap:               0.4
 (Enter /gaussian/g16.c01/intel64-sandybridge/g16/l508.exe)
 QCSCF skips out because SCF is already converged.
 Leave Link  508 at Wed Nov 19 18:14:14 2025, MaxMem=  7381975040 cpu:               0.0 elap:               0.0
 (Enter /gaussian/g16.c01/intel64-sandybridge/g16/l601.exe)
 Copying SCF densities to generalized density rwf, IOpCl= 0 IROHF=0.

 **********************************************************************

            Population analysis using the SCF Density.

 **********************************************************************

 Orbital symmetries:
       Occupied  (A') (A') (A') (A') (A') (A') (A") (A') (A') (A")
                 (A')
       Virtual   (A') (A") (A') (A') (A') (A') (A") (A')
 The electronic state is 1-A'.
 Alpha  occ. eigenvalues --  -11.03088 -11.02125 -11.02119  -0.99216  -0.88874
 Alpha  occ. eigenvalues --   -0.66066  -0.56499  -0.56490  -0.54631  -0.30686
 Alpha  occ. eigenvalues --   -0.30686
 Alpha virt. eigenvalues --    0.30165   0.30167   0.63300   0.70364   0.75040
 Alpha virt. eigenvalues --    0.83476   0.83512   1.19809
          Condensed to atoms (all electrons):
               1          2          3          4          5          6
     1  C    4.867096   0.601295  -0.026284  -0.026298   0.601309  -0.026290
     2  C    0.601295   4.800964   0.392701   0.392871  -0.014780  -0.000085
     3  H   -0.026284   0.392701   0.577732  -0.021591  -0.000086  -0.000012
     4  H   -0.026298   0.392871  -0.021591   0.577468  -0.000085  -0.000012
     5  C    0.601309  -0.014780  -0.000086  -0.000085   4.800976   0.392874
     6  H   -0.026290  -0.000085  -0.000012  -0.000012   0.392874   0.577509
     7  H   -0.026290  -0.000085  -0.000012  -0.000012   0.392874  -0.021627
               7
     1  C   -0.026290
     2  C   -0.000085
     3  H   -0.000012
     4  H   -0.000012
     5  C    0.392874
     6  H   -0.021627
     7  H    0.577509
 Mulliken charges:
               1
     1  C    0.035464
     2  C   -0.172880
     3  H    0.077552
     4  H    0.077660
     5  C   -0.173083
     6  H    0.077643
     7  H    0.077643
 Sum of Mulliken charges =   0.00000
 Mulliken charges with hydrogens summed into heavy atoms:
               1
     1  C    0.035464
     2  C   -0.017668
     5  C   -0.017796
 Electronic spatial extent (au):  <R**2>=            180.1931
 Charge=              0.0000 electrons
 Dipole moment (field-independent basis, Debye):
    X=             -0.0002    Y=              0.0007    Z=              0.0000  Tot=              0.0007
 Quadrupole moment (field-independent basis, Debye-Ang):
   XX=            -17.5449   YY=            -16.0703   ZZ=            -17.5466
   XY=             -0.0005   XZ=              0.0000   YZ=              0.0000
 Traceless Quadrupole moment (field-independent basis, Debye-Ang):
   XX=             -0.4910   YY=              0.9837   ZZ=             -0.4927
   XY=             -0.0005   XZ=              0.0000   YZ=              0.0000
 Octapole moment (field-independent basis, Debye-Ang**2):
  XXX=             -0.0017  YYY=              0.0002  ZZZ=             -0.0000  XYY=             -0.0012
  XXY=              2.1388  XXZ=              0.0000  XZZ=              0.0001  YZZ=             -2.1361
  YYZ=              0.0000  XYZ=              0.0000
 Hexadecapole moment (field-independent basis, Debye-Ang**3):
 XXXX=            -21.3428 YYYY=           -180.1695 ZZZZ=            -21.3384 XXXY=              0.0012
 XXXZ=              0.0000 YYYX=              0.0018 YYYZ=              0.0000 ZZZX=              0.0000
 ZZZY=             -0.0000 XXYY=            -32.8094 XXZZ=             -7.6659 YYZZ=            -32.8140
 XXYZ=              0.0000 YYXZ=              0.0000 ZZXY=              0.0016
 N-N= 5.789403403274D+01 E-N=-3.823859545479D+02  KE= 1.135924053770D+02
 Symmetry A'   KE= 1.091204260423D+02
 Symmetry A"   KE= 4.471979334715D+00
 No NMR shielding tensors so no spin-rotation constants.
 Leave Link  601 at Wed Nov 19 18:14:14 2025, MaxMem=  7381975040 cpu:               0.3 elap:               0.1
 (Enter /gaussian/g16.c01/intel64-sandybridge/g16/l9999.exe)
 Unable to Open any file for archive entry.
 1\1\GINC-THIOTIMOLINE-LARGE01\SP\RHF\STO-3G\C3H4\LCRISCI_VB\19-Nov-202
 5\0\\#P hf/sto-3g scf=xqc\\External Calculation\\0,1\C,0,0.,0.,0.\C,0,
 0.,0.,1.3551999999\H,0,0.,0.9257161599,1.8938414899\H,0,0.,-0.92471615
 99,1.8938414899\C,0,0.,0.,-1.3551999999\H,0,-0.9247161599,0.,-1.893841
 4899\H,0,0.9247161599,0.,-1.8938414899\\Version=ES64L-G16RevC.01\State
 =1-A'\HF=-114.4075487\RMSD=1.071e-09\Dipole=0.,0.0000706,0.0002816\Qua
 drupole=-0.3662803,-0.3650476,0.7313279,0.,0.,0.0003642\PG=CS [SG(C3H2
 ),X(H2)]\\@
 The archive entry for this job was punched.


 EVERY WORD THAT YOU WRITE IS A BLOW THAT SMITES THE DEVIL.
     -- ST. BERNARD OF CLAIRVAUX
 Job cpu time:       0 days  0 hours  0 minutes  2.0 seconds.
 Elapsed time:       0 days  0 hours  0 minutes  1.7 seconds.
 File lengths (MBytes):  RWF=      5 Int=      0 D2E=      0 Chk=      1 Scr=      1
 Normal termination of Gaussian 16 at Wed Nov 19 18:14:15 2025.
