External Calculation                                                    
SP        RHF                                                         STO-3G              
Number of atoms                            I               12
Info1-9                                    I   N=           9
          25          21           0           0           0         110
           1           1           2
Full Title                                 C   N=           2
External Calculation    
Route                                      C   N=           1
#P hf/sto-3g
Point Group                                C   N=           2
C02V                    
Point Group NOp                            I                4
Point Group Abelian NOp                    I                4
Point Group NClass                         I                4
Point Group NIrrep                         I                4
Point Group NGen                           I                2
Point Group NOp symm assign                I                2
Point Group Irrep Names                    H   N=           4
A1      A2      B1      B2      
Point Group Class Names                    H   N=           4
E       C2      Sgm     Sgm'    
Point Group Generators                     I   N=           2
           2           3
Point Group Class of Operators             I   N=           4
           1           2           3           4
Point Group Rotations                      R   N=          48
  1.00000000E+00 -9.86076132E-32  2.46519033E-32 -9.86076132E-32  1.00000000E+00
  1.87469973E-32  2.46519033E-32  1.87469973E-32  1.00000000E+00  0.00000000E+00
  0.00000000E+00  0.00000000E+00 -1.00000000E+00 -1.22464680E-16  0.00000000E+00
  1.22464680E-16 -1.00000000E+00 -1.12481984E-32 -1.23259516E-32  1.87469973E-32
  1.00000000E+00  0.00000000E+00  0.00000000E+00  0.00000000E+00 -1.00000000E+00
 -4.93038066E-32  1.23259516E-32 -4.93038066E-32  1.00000000E+00  1.87469973E-32
  1.23259516E-32  1.87469973E-32  1.00000000E+00  0.00000000E+00  0.00000000E+00
  0.00000000E+00  1.00000000E+00 -1.22464680E-16  1.23259516E-32 -1.22464680E-16
 -1.00000000E+00 -2.62457962E-32  2.46519033E-32  1.87469973E-32  1.00000000E+00
  0.00000000E+00  0.00000000E+00  0.00000000E+00
Point Group Cell Trans                     I   N=          12
           0           0           0           0           0           0
           0           0           0           0           0           0
Point Group Char Table                     R   N=          16
  1.00000000E+00  1.00000000E+00  1.00000000E+00  1.00000000E+00  1.00000000E+00
  1.00000000E+00 -1.00000000E+00 -1.00000000E+00  1.00000000E+00 -1.00000000E+00
 -1.00000000E+00  1.00000000E+00  1.00000000E+00 -1.00000000E+00  1.00000000E+00
 -1.00000000E+00
Point Group Atom Permutations              I   N=          48
           1           2           3           4           5           6
           7           8           9          10          11          12
           1           6           5           4           3           2
           7          12          11          10           9           8
           1           2           3           4           5           6
           7           8           9          10          11          12
           1           6           5           4           3           2
           7          12          11          10           9           8
Charge                                     I                0
Multiplicity                               I                1
Number of electrons                        I               42
Number of alpha electrons                  I               21
Number of beta electrons                   I               21
Number of basis functions                  I               36
Number of independent functions            I               36
Number of point charges in /Mol/           I                0
Number of translation vectors              I                0
Atomic numbers                             I   N=          12
           6           6           6           6           6           6
           1           1           1           1           1           1
Nuclear charges                            R   N=          12
  6.00000000E+00  6.00000000E+00  6.00000000E+00  6.00000000E+00  6.00000000E+00
  6.00000000E+00  1.00000000E+00  1.00000000E+00  1.00000000E+00  1.00000000E+00
  1.00000000E+00  1.00000000E+00
Current cartesian coordinates              R   N=          36
 -7.39557099E-32 -4.90665479E-29 -2.63453057E+00 -3.94430453E-31  2.28297316E+00
 -1.31834513E+00 -3.94430453E-31  2.28297316E+00  1.31780520E+00  4.93038066E-32
  2.95967984E-29  2.63588037E+00 -2.79583577E-16 -2.28297316E+00  1.31780520E+00
 -2.79583577E-16 -2.28297316E+00 -1.31834513E+00 -9.86076132E-32  6.41239945E-29
 -4.71438260E+00 -3.94430453E-31  4.08254130E+00 -2.35732628E+00 -3.94430453E-31
  4.08254130E+00  2.35678636E+00  9.86076132E-32 -8.65636113E-29  4.71384268E+00
 -4.99967114E-16 -4.08254130E+00  2.35678636E+00 -4.99967114E-16 -4.08254130E+00
 -2.35732628E+00
Number of symbols in /Mol/                 I                0
Int Atom Types                             I   N=          12
           0           0           0           0           0           0
           0           0           0           0           0           0
Force Field                                I                0
Atom Types                                 C   N=          12
                                                            
                                                            
                        
MM charges                                 R   N=          12
  0.00000000E+00  0.00000000E+00  0.00000000E+00  0.00000000E+00  0.00000000E+00
  0.00000000E+00  0.00000000E+00  0.00000000E+00  0.00000000E+00  0.00000000E+00
  0.00000000E+00  0.00000000E+00
Integer atomic weights                     I   N=          12
          12          12          12          12          12          12
           1           1           1           1           1           1
Real atomic weights                        R   N=          12
  1.20000000E+01  1.20000000E+01  1.20000000E+01  1.20000000E+01  1.20000000E+01
  1.20000000E+01  1.00782504E+00  1.00782504E+00  1.00782504E+00  1.00782504E+00
  1.00782504E+00  1.00782504E+00
Atom fragment info                         I   N=          12
           0           0           0           0           0           0
           0           0           0           0           0           0
Atom residue num                           I   N=          12
           0           0           0           0           0           0
           0           0           0           0           0           0
Nuclear spins                              I   N=          12
           0           0           0           0           0           0
           1           1           1           1           1           1
Nuclear ZEff                               R   N=          12
 -3.60000000E+00 -3.60000000E+00 -3.60000000E+00 -3.60000000E+00 -3.60000000E+00
 -3.60000000E+00 -1.00000000E+00 -1.00000000E+00 -1.00000000E+00 -1.00000000E+00
 -1.00000000E+00 -1.00000000E+00
Nuclear ZNuc                               R   N=          12
  6.00000000E+00  6.00000000E+00  6.00000000E+00  6.00000000E+00  6.00000000E+00
  6.00000000E+00  1.00000000E+00  1.00000000E+00  1.00000000E+00  1.00000000E+00
  1.00000000E+00  1.00000000E+00
Nuclear QMom                               R   N=          12
  0.00000000E+00  0.00000000E+00  0.00000000E+00  0.00000000E+00  0.00000000E+00
  0.00000000E+00  0.00000000E+00  0.00000000E+00  0.00000000E+00  0.00000000E+00
  0.00000000E+00  0.00000000E+00
Nuclear GFac                               R   N=          12
  0.00000000E+00  0.00000000E+00  0.00000000E+00  0.00000000E+00  0.00000000E+00
  0.00000000E+00  2.79284600E+00  2.79284600E+00  2.79284600E+00  2.79284600E+00
  2.79284600E+00  2.79284600E+00
MicOpt                                     I   N=          12
          -1          -1          -1          -1          -1          -1
          -1          -1          -1          -1          -1          -1
Number of residues                         I                0
Number of secondary structures             I                0
SymInf integers                            I   N=          26
           2           4           1           1           1          -1
          -1           1          -1           1           1           1
          -1           1           0           0           0           0
           0           0           0           0           0           0
           0           0
RotTr to input orientation                 R   N=          12
 -3.06161700E-16  6.12323400E-17 -1.00000000E+00  1.00000000E+00 -2.84581561E-13
 -3.06161700E-16 -2.84581561E-13 -1.00000000E+00 -6.12323400E-17  2.11471052E-17
 -2.69960875E-04  1.03688980E-16
Number of contracted shells                I               18
Number of primitive shells                 I               54
Pure/Cartesian d shells                    I                0
Pure/Cartesian f shells                    I                0
Highest angular momentum                   I                1
Largest degree of contraction              I                3
Shell types                                I   N=          18
           0          -1           0          -1           0          -1
           0          -1           0          -1           0          -1
           0           0           0           0           0           0
Number of primitives per shell             I   N=          18
           3           3           3           3           3           3
           3           3           3           3           3           3
           3           3           3           3           3           3
Shell to atom map                          I   N=          18
           1           1           2           2           3           3
           4           4           5           5           6           6
           7           8           9          10          11          12
Primitive exponents                        R   N=          54
  7.16168373E+01  1.30450963E+01  3.53051216E+00  2.94124936E+00  6.83483096E-01
  2.22289916E-01  7.16168373E+01  1.30450963E+01  3.53051216E+00  2.94124936E+00
  6.83483096E-01  2.22289916E-01  7.16168373E+01  1.30450963E+01  3.53051216E+00
  2.94124936E+00  6.83483096E-01  2.22289916E-01  7.16168373E+01  1.30450963E+01
  3.53051216E+00  2.94124936E+00  6.83483096E-01  2.22289916E-01  7.16168373E+01
  1.30450963E+01  3.53051216E+00  2.94124936E+00  6.83483096E-01  2.22289916E-01
  7.16168373E+01  1.30450963E+01  3.53051216E+00  2.94124936E+00  6.83483096E-01
  2.22289916E-01  3.42525091E+00  6.23913730E-01  1.68855404E-01  3.42525091E+00
  6.23913730E-01  1.68855404E-01  3.42525091E+00  6.23913730E-01  1.68855404E-01
  3.42525091E+00  6.23913730E-01  1.68855404E-01  3.42525091E+00  6.23913730E-01
  1.68855404E-01  3.42525091E+00  6.23913730E-01  1.68855404E-01
Contraction coefficients                   R   N=          54
  1.54328967E-01  5.35328142E-01  4.44634542E-01 -9.99672292E-02  3.99512826E-01
  7.00115469E-01  1.54328967E-01  5.35328142E-01  4.44634542E-01 -9.99672292E-02
  3.99512826E-01  7.00115469E-01  1.54328967E-01  5.35328142E-01  4.44634542E-01
 -9.99672292E-02  3.99512826E-01  7.00115469E-01  1.54328967E-01  5.35328142E-01
  4.44634542E-01 -9.99672292E-02  3.99512826E-01  7.00115469E-01  1.54328967E-01
  5.35328142E-01  4.44634542E-01 -9.99672292E-02  3.99512826E-01  7.00115469E-01
  1.54328967E-01  5.35328142E-01  4.44634542E-01 -9.99672292E-02  3.99512826E-01
  7.00115469E-01  1.54328967E-01  5.35328142E-01  4.44634542E-01  1.54328967E-01
  5.35328142E-01  4.44634542E-01  1.54328967E-01  5.35328142E-01  4.44634542E-01
  1.54328967E-01  5.35328142E-01  4.44634542E-01  1.54328967E-01  5.35328142E-01
  4.44634542E-01  1.54328967E-01  5.35328142E-01  4.44634542E-01
P(S=P) Contraction coefficients            R   N=          54
  0.00000000E+00  0.00000000E+00  0.00000000E+00  1.55916275E-01  6.07683719E-01
  3.91957393E-01  0.00000000E+00  0.00000000E+00  0.00000000E+00  1.55916275E-01
  6.07683719E-01  3.91957393E-01  0.00000000E+00  0.00000000E+00  0.00000000E+00
  1.55916275E-01  6.07683719E-01  3.91957393E-01  0.00000000E+00  0.00000000E+00
  0.00000000E+00  1.55916275E-01  6.07683719E-01  3.91957393E-01  0.00000000E+00
  0.00000000E+00  0.00000000E+00  1.55916275E-01  6.07683719E-01  3.91957393E-01
  0.00000000E+00  0.00000000E+00  0.00000000E+00  1.55916275E-01  6.07683719E-01
  3.91957393E-01  0.00000000E+00  0.00000000E+00  0.00000000E+00  0.00000000E+00
  0.00000000E+00  0.00000000E+00  0.00000000E+00  0.00000000E+00  0.00000000E+00
  0.00000000E+00  0.00000000E+00  0.00000000E+00  0.00000000E+00  0.00000000E+00
  0.00000000E+00  0.00000000E+00  0.00000000E+00  0.00000000E+00
Coordinates of each shell                  R   N=          54
 -3.24730964E-32  5.47382213E-48 -2.63453057E+00 -3.24730964E-32  5.47382213E-48
 -2.63453057E+00 -1.93213688E-31  2.28297316E+00 -1.31834513E+00 -1.93213688E-31
  2.28297316E+00 -1.31834513E+00 -1.44474095E-31  2.28297316E+00  1.31780520E+00
 -1.44474095E-31  2.28297316E+00  1.31780520E+00  3.24897340E-32 -5.47382213E-48
  2.63588037E+00  3.24897340E-32 -5.47382213E-48  2.63588037E+00 -2.79583577E-16
 -2.28297316E+00  1.31780520E+00 -2.79583577E-16 -2.28297316E+00  1.31780520E+00
 -2.79583577E-16 -2.28297316E+00 -1.31834513E+00 -2.79583577E-16 -2.28297316E+00
 -1.31834513E+00 -5.81092520E-32  5.47382213E-48 -4.71438260E+00 -3.45511675E-31
  4.08254130E+00 -2.35732628E+00 -2.58352788E-31  4.08254130E+00  2.35678636E+00
  5.81025969E-32 -5.47382213E-48  4.71384268E+00 -4.99967114E-16 -4.08254130E+00
  2.35678636E+00 -4.99967114E-16 -4.08254130E+00 -2.35732628E+00
Constraint Structure                       R   N=          36
  2.65007451E-16 -7.49759967E-13 -2.63453057E+00 -5.14544605E-16  2.28297316E+00
 -1.31834513E+00 -6.75962258E-16  2.28297316E+00  1.31780520E+00 -5.77121432E-17
  7.50101802E-13  2.63588037E+00  7.21955625E-16 -2.28297316E+00  1.31780520E+00
  8.83373278E-16 -2.28297316E+00 -1.31834513E+00  3.92361658E-16 -1.34164751E-12
 -4.71438260E+00 -1.00188420E-15  4.08254130E+00 -2.35732628E+00 -1.29054035E-15
  4.08254130E+00  2.35678636E+00 -1.84950638E-16  1.34145156E-12  4.71384268E+00
  1.20929522E-15 -4.08254130E+00  2.35678636E+00  1.49795137E-15 -4.08254130E+00
 -2.35732628E+00
Constraint Force Constants                 R   N=          36
  0.00000000E+00  0.00000000E+00  0.00000000E+00  0.00000000E+00  0.00000000E+00
  0.00000000E+00  0.00000000E+00  0.00000000E+00  0.00000000E+00  0.00000000E+00
  0.00000000E+00  0.00000000E+00  0.00000000E+00  0.00000000E+00  0.00000000E+00
  0.00000000E+00  0.00000000E+00  0.00000000E+00  0.00000000E+00  0.00000000E+00
  0.00000000E+00  0.00000000E+00  0.00000000E+00  0.00000000E+00  0.00000000E+00
  0.00000000E+00  0.00000000E+00  0.00000000E+00  0.00000000E+00  0.00000000E+00
  0.00000000E+00  0.00000000E+00  0.00000000E+00  0.00000000E+00  0.00000000E+00
  0.00000000E+00
Num ILSW                                   I              100
ILSW                                       I   N=         100
           0           0           0           0           2           0
           0           0           0           0           0          -1
           5           0           0           0           0          -1
           0           0           0           0           0           0
           1           0           0           0           0           0
           0           0      100000           0          -1           0
           0           0           0           0           0           0
           0           0           0           1           0           0
           0 -2000000000           1           0           0           0
           0           0        2004          68           0           0
           0           0           0           0           0           0
           0           0           0          12           0           1
           0           0           0           0           0           0
           0           0           0           0           0           0
           0           0           0           0           0           0
           0           0           0           0           0           0
           0           0           0           0
Num RLSW                                   I               68
RLSW                                       R   N=          68
  1.00000000E+00  1.00000000E+00  1.00000000E+00  1.00000000E+00  1.00000000E+00
  0.00000000E+00  0.00000000E+00  1.00000000E+00  0.00000000E+00  0.00000000E+00
  0.00000000E+00  0.00000000E+00  1.00000000E+00  0.00000000E+00  0.00000000E+00
  0.00000000E+00  0.00000000E+00  1.00000000E+00  0.00000000E+00  0.00000000E+00
  0.00000000E+00  0.00000000E+00  1.00000000E+00  0.00000000E+00  0.00000000E+00
  0.00000000E+00  0.00000000E+00  1.00000000E+00  0.00000000E+00  0.00000000E+00
  0.00000000E+00  0.00000000E+00  1.00000000E+00  0.00000000E+00  0.00000000E+00
  0.00000000E+00  0.00000000E+00  0.00000000E+00  1.00000000E+00  1.00000000E+00
  0.00000000E+00  1.00000000E+00  0.00000000E+00  0.00000000E+00  0.00000000E+00
  0.00000000E+00  0.00000000E+00  0.00000000E+00  0.00000000E+00  0.00000000E+00
  0.00000000E+00  0.00000000E+00  1.00000000E+00  1.00000000E+00  1.00000000E+00
  1.00000000E+00  1.00000000E+00  1.00000000E+00  0.00000000E+00  0.00000000E+00
  0.00000000E+00  0.00000000E+00  0.00000000E+00  0.00000000E+00  0.00000000E+00
  0.00000000E+00  2.00000000E-10  1.00000000E-02
MxBond                                     I                3
NBond                                      I   N=          12
           3           3           3           3           3           3
           1           1           1           1           1           1
IBond                                      I   N=          36
           2           6           7           1           3           8
           2           4           9           3           5          10
           4           6          11           1           5          12
           1           0           0           2           0           0
           3           0           0           4           0           0
           5           0           0           6           0           0
RBond                                      R   N=          36
  1.50000000E+00  1.50000000E+00  1.00000000E+00  1.50000000E+00  1.50000000E+00
  1.00000000E+00  1.50000000E+00  1.50000000E+00  1.00000000E+00  1.50000000E+00
  1.50000000E+00  1.00000000E+00  1.50000000E+00  1.50000000E+00  1.00000000E+00
  1.50000000E+00  1.50000000E+00  1.00000000E+00  1.00000000E+00  0.00000000E+00
  0.00000000E+00  1.00000000E+00  0.00000000E+00  0.00000000E+00  1.00000000E+00
  0.00000000E+00  0.00000000E+00  1.00000000E+00  0.00000000E+00  0.00000000E+00
  1.00000000E+00  0.00000000E+00  0.00000000E+00  1.00000000E+00  0.00000000E+00
  0.00000000E+00
Virial Ratio                               R      2.008772482002376E+00
SCF Energy                                 R     -2.278894116270376E+02
Total Energy                               R     -2.278894116270376E+02
RMS Density                                R      6.398442782195648E-09
Job Status                                 I                1
Nuclear derivative order                   I                0
External E-field                           R   N=         105
  0.00000000E+00  0.00000000E+00  0.00000000E+00  0.00000000E+00  0.00000000E+00
  0.00000000E+00  0.00000000E+00  0.00000000E+00  0.00000000E+00  0.00000000E+00
  0.00000000E+00  0.00000000E+00  0.00000000E+00  0.00000000E+00  0.00000000E+00
  0.00000000E+00  0.00000000E+00  0.00000000E+00  0.00000000E+00  0.00000000E+00
  0.00000000E+00  0.00000000E+00  0.00000000E+00  0.00000000E+00  0.00000000E+00
  0.00000000E+00  0.00000000E+00  0.00000000E+00  0.00000000E+00  0.00000000E+00
  0.00000000E+00  0.00000000E+00  0.00000000E+00  0.00000000E+00  0.00000000E+00
  0.00000000E+00  0.00000000E+00  0.00000000E+00  0.00000000E+00  0.00000000E+00
  0.00000000E+00  0.00000000E+00  0.00000000E+00  0.00000000E+00  0.00000000E+00
  0.00000000E+00  0.00000000E+00  0.00000000E+00  0.00000000E+00  0.00000000E+00
  0.00000000E+00  0.00000000E+00  0.00000000E+00  0.00000000E+00  0.00000000E+00
  0.00000000E+00  0.00000000E+00  0.00000000E+00  0.00000000E+00  0.00000000E+00
  0.00000000E+00  0.00000000E+00  0.00000000E+00  0.00000000E+00  0.00000000E+00
  0.00000000E+00  0.00000000E+00  0.00000000E+00  0.00000000E+00  0.00000000E+00
  0.00000000E+00  0.00000000E+00  0.00000000E+00  0.00000000E+00  0.00000000E+00
  0.00000000E+00  0.00000000E+00  0.00000000E+00  0.00000000E+00  0.00000000E+00
  0.00000000E+00  0.00000000E+00  0.00000000E+00  0.00000000E+00  0.00000000E+00
  0.00000000E+00  0.00000000E+00  0.00000000E+00  0.00000000E+00  0.00000000E+00
  0.00000000E+00  0.00000000E+00  0.00000000E+00  0.00000000E+00  0.00000000E+00
  0.00000000E+00  0.00000000E+00  0.00000000E+00  0.00000000E+00  0.00000000E+00
  0.00000000E+00  0.00000000E+00  0.00000000E+00  0.00000000E+00  0.00000000E+00
IOpCl                                      I                0
IROHF                                      I                0
Alpha Orbital Energies                     R   N=          36
 -1.10293041E+01 -1.10293037E+01 -1.10292739E+01 -1.10289478E+01 -1.10289417E+01
 -1.10287995E+01 -1.08924614E+00 -9.52674722E-01 -9.52643930E-01 -7.63238606E-01
 -7.63086802E-01 -6.57277686E-01 -5.87507341E-01 -5.52514575E-01 -5.30486805E-01
 -5.30325425E-01 -4.55833055E-01 -4.30050807E-01 -4.29750189E-01 -2.79461476E-01
 -2.79405032E-01  2.69257855E-01  2.69438449E-01  5.04419759E-01  5.64579764E-01
  6.36218168E-01  6.36639180E-01  7.06787677E-01  7.26059146E-01  7.26239503E-01
  8.74980736E-01  8.75104711E-01  8.94047602E-01  8.94523781E-01  1.08809072E+00
  1.14462781E+00
Alpha MO coefficients                      R   N=        1296
  0.00000000E+00  0.00000000E+00  0.00000000E+00 -3.67689583E-03  0.00000000E+00
  4.84583290E-01  1.39845368E-02  0.00000000E+00 -5.84849899E-04 -1.89032668E-03
  5.07679806E-01  1.49836912E-02  0.00000000E+00 -6.06899693E-04  1.77109929E-03
  0.00000000E+00  0.00000000E+00  0.00000000E+00 -3.85595972E-03  0.00000000E+00
 -5.07679806E-01 -1.49836912E-02  0.00000000E+00 -6.06899693E-04 -1.77109929E-03
 -4.84583290E-01 -1.39845368E-02  0.00000000E+00 -5.84849899E-04  1.89032668E-03
  0.00000000E+00 -3.14328215E-03 -3.30012056E-03  0.00000000E+00  3.30012056E-03
  3.14328215E-03  6.93632459E-01  1.98648998E-02  0.00000000E+00  0.00000000E+00
 -7.66735090E-04  3.77289570E-01  1.00183020E-02  0.00000000E+00  2.25129565E-03
  2.48507719E-03 -1.69236199E-01 -5.91019038E-03  0.00000000E+00 -1.25172621E-03
  2.68730092E-03 -4.02620314E-01 -1.21568317E-02  0.00000000E+00  0.00000000E+00
 -1.01401536E-04 -1.69236199E-01 -5.91019038E-03  0.00000000E+00  1.25172621E-03
  2.68730092E-03  3.77289570E-01  1.00183020E-02  0.00000000E+00 -2.25129565E-03
  2.48507719E-03 -4.54105616E-03 -2.48004395E-03  1.06761806E-03  2.57177955E-03
  1.06761806E-03 -2.48004395E-03  2.18679503E-01  3.84859414E-03  0.00000000E+00
  0.00000000E+00 -1.27086490E-03  3.00350450E-01  6.02739306E-03  0.00000000E+00
  7.00851233E-04 -1.59857613E-03  4.89957386E-01  1.20893851E-02  0.00000000E+00
  1.63656008E-03 -4.45743443E-05  5.27010770E-01  1.23253640E-02  0.00000000E+00
  0.00000000E+00  1.68731156E-03  4.89957386E-01  1.20893851E-02  0.00000000E+00
 -1.63656008E-03 -4.45743443E-05  3.00350450E-01  6.02739306E-03  0.00000000E+00
 -7.00851233E-04 -1.59857613E-03 -1.53449619E-03 -2.06038292E-03 -3.30435373E-03
 -3.52615317E-03 -3.30435373E-03 -2.06038292E-03  0.00000000E+00  0.00000000E+00
  0.00000000E+00 -3.99278405E-03  0.00000000E+00  5.07322979E-01  2.18631050E-02
  0.00000000E+00 -5.53365714E-04  2.51913708E-03 -4.84210090E-01 -2.11852017E-02
  0.00000000E+00  5.22885578E-04  2.60500459E-03  0.00000000E+00  0.00000000E+00
  0.00000000E+00  3.81400882E-03  0.00000000E+00  4.84210090E-01  2.11852017E-02
  0.00000000E+00  5.22885578E-04 -2.60500459E-03 -5.07322979E-01 -2.18631050E-02
  0.00000000E+00 -5.53365714E-04 -2.51913708E-03  0.00000000E+00 -3.43876808E-03
  3.28871953E-03  0.00000000E+00 -3.28871953E-03  3.43876808E-03  5.64913694E-01
  2.50545248E-02  0.00000000E+00  0.00000000E+00  2.15457110E-03 -3.17624255E-01
 -1.38260410E-02  0.00000000E+00  2.58614410E-03  2.19801561E-03 -2.45802841E-01
 -1.07980988E-02  0.00000000E+00  2.55510682E-03 -2.61825541E-03  5.84755006E-01
  2.47029637E-02  0.00000000E+00  0.00000000E+00 -1.84259332E-03 -2.45802841E-01
 -1.07980988E-02  0.00000000E+00 -2.55510682E-03 -2.61825541E-03 -3.17624255E-01
 -1.38260410E-02  0.00000000E+00 -2.58614410E-03  2.19801561E-03 -3.84147199E-03
  2.15511257E-03  1.66716110E-03 -3.95427687E-03  1.66716110E-03  2.15511257E-03
 -3.69287621E-01 -1.95074083E-02  0.00000000E+00  0.00000000E+00 -2.46065224E-03
  3.98504803E-01  2.04073216E-02  0.00000000E+00 -2.04049099E-03  1.33583353E-03
 -4.03895938E-01 -2.11242084E-02  0.00000000E+00  2.36741269E-03  1.13387074E-03
  4.50184593E-01  2.25239032E-02  0.00000000E+00  0.00000000E+00 -2.57594550E-03
 -4.03895938E-01 -2.11242084E-02  0.00000000E+00 -2.36741269E-03  1.13387074E-03
  3.98504803E-01  2.04073216E-02  0.00000000E+00  2.04049099E-03  1.33583353E-03
  2.59321472E-03 -2.79683197E-03  2.83394356E-03 -3.14520470E-03  2.83394356E-03
 -2.79683197E-03 -1.04746154E-01  2.65319803E-01  0.00000000E+00  0.00000000E+00
  6.31110267E-02 -1.04673850E-01  2.65171179E-01  0.00000000E+00 -5.46951440E-02
  3.14724758E-02 -1.04583990E-01  2.64959926E-01  0.00000000E+00 -5.45455099E-02
 -3.15448091E-02 -1.04551695E-01  2.64880631E-01  0.00000000E+00  0.00000000E+00
 -6.29961509E-02 -1.04583990E-01  2.64959926E-01  0.00000000E+00  5.45455099E-02
 -3.15448091E-02 -1.04673850E-01  2.65171179E-01  0.00000000E+00  5.46951440E-02
  3.14724758E-02  4.57587620E-02  4.58146117E-02  4.57749783E-02  4.57602821E-02
  4.57749783E-02  4.58146117E-02  0.00000000E+00  0.00000000E+00  0.00000000E+00
  1.31294121E-01  0.00000000E+00 -1.27022545E-01  3.43588784E-01  0.00000000E+00
  1.01330728E-02  6.97307346E-02 -1.26955592E-01  3.43447317E-01  0.00000000E+00
  1.02084992E-02 -6.97893038E-02  0.00000000E+00  0.00000000E+00  0.00000000E+00
  1.31013091E-01  0.00000000E+00  1.26955592E-01 -3.43447317E-01  0.00000000E+00
  1.02084992E-02  6.97893038E-02  1.27022545E-01 -3.43588784E-01  0.00000000E+00
  1.01330728E-02 -6.97307346E-02  0.00000000E+00  9.23456460E-02  9.22984409E-02
  0.00000000E+00 -9.22984409E-02 -9.23456460E-02  1.46567606E-01 -3.96465450E-01
  0.00000000E+00  0.00000000E+00 -3.01536387E-02  7.32919946E-02 -1.98248980E-01
  0.00000000E+00  6.98443562E-02  9.07822805E-02 -7.33808809E-02  1.98529299E-01
  0.00000000E+00 -6.98046515E-02  9.07950227E-02 -1.46708767E-01  3.96886231E-01
  0.00000000E+00  0.00000000E+00 -3.00988929E-02 -7.33808809E-02  1.98529299E-01
  0.00000000E+00  6.98046515E-02  9.07950227E-02  7.32919946E-02 -1.98248980E-01
  0.00000000E+00 -6.98443562E-02  9.07822805E-02 -1.06372547E-01 -5.32739638E-02
  5.33576878E-02  1.06671169E-01  5.33576878E-02 -5.32739638E-02  0.00000000E+00
  0.00000000E+00  0.00000000E+00 -2.34077828E-01  0.00000000E+00  9.89653315E-02
 -2.92803276E-01  0.00000000E+00 -2.42381846E-03  1.36587074E-01 -9.90318931E-02
  2.93071047E-01  0.00000000E+00  2.66197136E-03  1.36469994E-01  0.00000000E+00
  0.00000000E+00  0.00000000E+00  2.33854081E-01  0.00000000E+00  9.90318931E-02
 -2.93071047E-01  0.00000000E+00  2.66197136E-03 -1.36469994E-01 -9.89653315E-02
  2.92803276E-01  0.00000000E+00 -2.42381846E-03 -1.36587074E-01  0.00000000E+00
 -1.52053975E-01  1.52213169E-01  0.00000000E+00 -1.52213169E-01  1.52053975E-01
 -1.14277207E-01  3.38192538E-01  0.00000000E+00  0.00000000E+00 -8.10433763E-02
  5.70994260E-02 -1.69001250E-01  0.00000000E+00 -1.36790794E-01 -1.55095753E-01
  5.72173217E-02 -1.69347137E-01  0.00000000E+00 -1.36685744E-01  1.54989198E-01
 -1.14288212E-01  3.38227994E-01  0.00000000E+00  0.00000000E+00  8.14323541E-02
  5.72173217E-02 -1.69347137E-01  0.00000000E+00  1.36685744E-01  1.54989198E-01
  5.70994260E-02 -1.69001250E-01  0.00000000E+00  1.36790794E-01 -1.55095753E-01
  1.75293647E-01 -8.79242828E-02 -8.80358454E-02  1.75719136E-01 -8.80358454E-02
 -8.79242828E-02 -9.39049169E-03  3.88075204E-02  0.00000000E+00  0.00000000E+00
 -2.33825324E-01 -9.46851368E-03  3.90091851E-02  0.00000000E+00  2.02676253E-01
 -1.17459103E-01 -9.23820340E-03  3.82551112E-02  0.00000000E+00  2.02450825E-01
  1.17123280E-01 -9.53365557E-03  3.91865572E-02  0.00000000E+00  0.00000000E+00
  2.34324416E-01 -9.23820340E-03  3.82551112E-02  0.00000000E+00 -2.02450825E-01
  1.17123280E-01 -9.46851368E-03  3.90091851E-02  0.00000000E+00 -2.02676253E-01
 -1.17459103E-01  1.76218007E-01  1.76685484E-01  1.76132218E-01  1.76837675E-01
  1.76132218E-01  1.76685484E-01 -6.51852570E-02  2.20632292E-01  0.00000000E+00
  0.00000000E+00 -1.62858819E-01  6.50355997E-02 -2.20098637E-01  0.00000000E+00
 -1.41999081E-01  8.13306787E-02 -6.50066746E-02  2.20034331E-01  0.00000000E+00
  1.42380830E-01  8.23026593E-02  6.50695947E-02 -2.20190717E-01  0.00000000E+00
  0.00000000E+00 -1.62531078E-01 -6.50066746E-02  2.20034331E-01  0.00000000E+00
 -1.42380830E-01  8.23026593E-02  6.50355997E-02 -2.20098637E-01  0.00000000E+00
  1.41999081E-01  8.13306787E-02  2.31980269E-01 -2.32575124E-01  2.33168899E-01
 -2.31726373E-01  2.33168899E-01 -2.32575124E-01  0.00000000E+00  0.00000000E+00
  0.00000000E+00  3.32582669E-01  0.00000000E+00 -4.24779412E-05  4.53019665E-05
  0.00000000E+00 -1.67156116E-01 -2.86900239E-01 -7.53579670E-05  2.29335042E-04
  0.00000000E+00 -1.66679229E-01  2.87021240E-01  0.00000000E+00  0.00000000E+00
  0.00000000E+00  3.32257521E-01  0.00000000E+00  7.53579670E-05 -2.29335042E-04
  0.00000000E+00 -1.66679229E-01 -2.87021240E-01  4.24779412E-05 -4.53019665E-05
  0.00000000E+00 -1.67156116E-01  2.86900239E-01  0.00000000E+00 -1.05167251E-03
 -5.90007242E-04  0.00000000E+00  5.90007242E-04  1.05167251E-03  0.00000000E+00
  0.00000000E+00  0.00000000E+00 -9.93966759E-02  0.00000000E+00  2.23262990E-02
 -6.94934769E-02  0.00000000E+00  2.50964471E-01 -2.03997663E-01  2.23723456E-02
 -6.96844669E-02  0.00000000E+00  2.50436762E-01  2.03894666E-01  0.00000000E+00
  0.00000000E+00  0.00000000E+00 -9.88904462E-02  0.00000000E+00 -2.23723456E-02
  6.96844669E-02  0.00000000E+00  2.50436762E-01 -2.03894666E-01 -2.23262990E-02
  6.94934769E-02  0.00000000E+00  2.50964471E-01  2.03997663E-01  0.00000000E+00
  2.47176837E-01  2.46657070E-01  0.00000000E+00 -2.46657070E-01 -2.47176837E-01
 -2.56420620E-02  7.96686641E-02  0.00000000E+00  0.00000000E+00  3.68503559E-01
 -1.30739690E-02  4.07450601E-02  0.00000000E+00 -2.02529433E-01  1.73489318E-02
  1.30642727E-02 -4.07804179E-02  0.00000000E+00  2.02662997E-01  1.62092675E-02
  2.57171666E-02 -8.00415009E-02  0.00000000E+00  0.00000000E+00  3.69248747E-01
  1.30642727E-02 -4.07804179E-02  0.00000000E+00 -2.02662997E-01  1.62092675E-02
 -1.30739690E-02  4.07450601E-02  0.00000000E+00  2.02529433E-01  1.73489318E-02
 -2.85508148E-01 -1.42137708E-01  1.41775402E-01  2.86086641E-01  1.41775402E-01
 -1.42137708E-01  0.00000000E+00  0.00000000E+00  3.34561172E-01  0.00000000E+00
  0.00000000E+00  0.00000000E+00  0.00000000E+00  3.34385108E-01  0.00000000E+00
  0.00000000E+00  0.00000000E+00  0.00000000E+00  3.34116058E-01  0.00000000E+00
  0.00000000E+00  0.00000000E+00  0.00000000E+00  3.34045052E-01  0.00000000E+00
  0.00000000E+00  0.00000000E+00  0.00000000E+00  3.34116058E-01  0.00000000E+00
  0.00000000E+00  0.00000000E+00  0.00000000E+00  3.34385108E-01  0.00000000E+00
  0.00000000E+00  0.00000000E+00  0.00000000E+00  0.00000000E+00  0.00000000E+00
  0.00000000E+00  0.00000000E+00  0.00000000E+00  0.00000000E+00  0.00000000E+00
 -3.30384555E-01  0.00000000E+00  6.28018709E-03 -1.20702310E-02  0.00000000E+00
  2.94081321E-01  2.08893118E-02 -6.36069323E-03  1.24365735E-02  0.00000000E+00
 -2.94821177E-01  2.09479620E-02  0.00000000E+00  0.00000000E+00  0.00000000E+00
  3.31108558E-01  0.00000000E+00  6.36069323E-03 -1.24365735E-02  0.00000000E+00
 -2.94821177E-01 -2.09479620E-02 -6.28018709E-03  1.20702310E-02  0.00000000E+00
  2.94081321E-01 -2.08893118E-02  0.00000000E+00  2.60435015E-01 -2.60935496E-01
  0.00000000E+00  2.60935496E-01 -2.60435015E-01  7.30501484E-03 -1.40521235E-02
  0.00000000E+00  0.00000000E+00 -2.83090420E-01 -3.57226005E-03  6.82502037E-03
  0.00000000E+00  2.13089097E-02  3.18646055E-01 -3.72969987E-03  7.39365764E-03
  0.00000000E+00  2.08490626E-02 -3.18636346E-01  7.29369209E-03 -1.41780494E-02
  0.00000000E+00  0.00000000E+00  2.81691724E-01 -3.72969987E-03  7.39365764E-03
  0.00000000E+00 -2.08490626E-02 -3.18636346E-01 -3.57226005E-03  6.82502037E-03
  0.00000000E+00 -2.13089097E-02  3.18646055E-01  3.01930600E-01 -1.50475550E-01
 -1.50531410E-01  3.00474167E-01 -1.50531410E-01 -1.50475550E-01  0.00000000E+00
  0.00000000E+00 -5.31398297E-01  0.00000000E+00  0.00000000E+00  0.00000000E+00
  0.00000000E+00 -2.65684346E-01  0.00000000E+00  0.00000000E+00  0.00000000E+00
  0.00000000E+00  2.66039993E-01  0.00000000E+00  0.00000000E+00  0.00000000E+00
  0.00000000E+00  5.31901096E-01  0.00000000E+00  0.00000000E+00  0.00000000E+00
  0.00000000E+00  2.66039993E-01  0.00000000E+00  0.00000000E+00  0.00000000E+00
  0.00000000E+00 -2.65684346E-01  0.00000000E+00  0.00000000E+00  0.00000000E+00
  0.00000000E+00  0.00000000E+00  0.00000000E+00  0.00000000E+00  0.00000000E+00
  0.00000000E+00  0.00000000E+00  0.00000000E+00  0.00000000E+00  0.00000000E+00
  0.00000000E+00  0.00000000E+00  4.60531019E-01  0.00000000E+00  0.00000000E+00
  0.00000000E+00  0.00000000E+00  4.60386602E-01  0.00000000E+00  0.00000000E+00
  0.00000000E+00  0.00000000E+00  0.00000000E+00  0.00000000E+00  0.00000000E+00
  0.00000000E+00  0.00000000E+00 -4.60386602E-01  0.00000000E+00  0.00000000E+00
  0.00000000E+00  0.00000000E+00 -4.60531019E-01  0.00000000E+00  0.00000000E+00
  0.00000000E+00  0.00000000E+00  0.00000000E+00  0.00000000E+00  0.00000000E+00
  0.00000000E+00  0.00000000E+00  0.00000000E+00  0.00000000E+00  0.00000000E+00
  0.00000000E+00  0.00000000E+00  0.00000000E+00 -5.69909572E-01  0.00000000E+00
  0.00000000E+00  0.00000000E+00  0.00000000E+00  5.70026242E-01  0.00000000E+00
  0.00000000E+00  0.00000000E+00  0.00000000E+00  0.00000000E+00  0.00000000E+00
  0.00000000E+00  0.00000000E+00  0.00000000E+00 -5.70026242E-01  0.00000000E+00
  0.00000000E+00  0.00000000E+00  0.00000000E+00  5.69909572E-01  0.00000000E+00
  0.00000000E+00  0.00000000E+00  0.00000000E+00  0.00000000E+00  0.00000000E+00
  0.00000000E+00  0.00000000E+00  0.00000000E+00  0.00000000E+00  6.57981183E-01
  0.00000000E+00  0.00000000E+00  0.00000000E+00  0.00000000E+00 -3.28869646E-01
  0.00000000E+00  0.00000000E+00  0.00000000E+00  0.00000000E+00 -3.29415129E-01
  0.00000000E+00  0.00000000E+00  0.00000000E+00  0.00000000E+00  6.58349283E-01
  0.00000000E+00  0.00000000E+00  0.00000000E+00  0.00000000E+00 -3.29415129E-01
  0.00000000E+00  0.00000000E+00  0.00000000E+00  0.00000000E+00 -3.28869646E-01
  0.00000000E+00  0.00000000E+00  0.00000000E+00  0.00000000E+00  0.00000000E+00
  0.00000000E+00  0.00000000E+00  0.00000000E+00  0.00000000E+00  0.00000000E+00
  5.22709598E-01  0.00000000E+00  0.00000000E+00  0.00000000E+00  0.00000000E+00
 -5.22434968E-01  0.00000000E+00  0.00000000E+00  0.00000000E+00  0.00000000E+00
  5.21988367E-01  0.00000000E+00  0.00000000E+00  0.00000000E+00  0.00000000E+00
 -5.21876092E-01  0.00000000E+00  0.00000000E+00  0.00000000E+00  0.00000000E+00
  5.21988367E-01  0.00000000E+00  0.00000000E+00  0.00000000E+00  0.00000000E+00
 -5.22434968E-01  0.00000000E+00  0.00000000E+00  0.00000000E+00  0.00000000E+00
  0.00000000E+00  0.00000000E+00  0.00000000E+00  0.00000000E+00  5.24700888E-02
 -3.27599679E-01  0.00000000E+00  0.00000000E+00  3.15135874E-01  5.24048397E-02
 -3.27489775E-01  0.00000000E+00 -2.69970210E-01  1.57163221E-01  5.23086941E-02
 -3.26837557E-01  0.00000000E+00 -2.69621636E-01 -1.54730133E-01  5.21828873E-02
 -3.26065523E-01  0.00000000E+00  0.00000000E+00 -3.10377060E-01  5.23086941E-02
 -3.26837557E-01  0.00000000E+00  2.69621636E-01 -1.54730133E-01  5.24048397E-02
 -3.27489775E-01  0.00000000E+00  2.69970210E-01  1.57163221E-01  5.07797541E-01
  5.05328119E-01  5.03327488E-01  5.02360287E-01  5.03327488E-01  5.05328119E-01
 -3.25709880E-02  2.07474336E-01  0.00000000E+00  0.00000000E+00 -5.52044842E-01
 -1.58317575E-02  1.01189452E-01  0.00000000E+00  1.07757217E-01 -3.61019373E-01
  1.63678045E-02 -1.04549024E-01  0.00000000E+00 -1.10830069E-01 -3.63115672E-01
  3.27832696E-02 -2.09262954E-01  0.00000000E+00  0.00000000E+00 -5.52769612E-01
  1.63678045E-02 -1.04549024E-01  0.00000000E+00  1.10830069E-01 -3.63115672E-01
 -1.58317575E-02  1.01189452E-01  0.00000000E+00 -1.07757217E-01 -3.61019373E-01
 -6.52437566E-01 -3.23026188E-01  3.28296136E-01  6.54599154E-01  3.28296136E-01
 -3.23026188E-01  0.00000000E+00  0.00000000E+00  0.00000000E+00 -2.97816176E-01
  0.00000000E+00  2.84219004E-02 -1.81350228E-01  0.00000000E+00 -4.88698560E-01
  1.09789360E-01  2.80446354E-02 -1.79099036E-01  0.00000000E+00 -4.88985229E-01
 -1.10045655E-01  0.00000000E+00  0.00000000E+00  0.00000000E+00 -2.99324261E-01
  0.00000000E+00 -2.80446354E-02  1.79099036E-01  0.00000000E+00 -4.88985229E-01
  1.10045655E-01 -2.84219004E-02  1.81350228E-01  0.00000000E+00 -4.88698560E-01
 -1.09789360E-01  0.00000000E+00  5.66080653E-01  5.65280450E-01  0.00000000E+00
 -5.65280450E-01 -5.66080653E-01  1.18932818E-01 -7.38869180E-01  0.00000000E+00
  0.00000000E+00  7.39315326E-02 -1.18961422E-01  7.39186193E-01  0.00000000E+00
  6.44382047E-02 -3.80993344E-02  1.18761569E-01 -7.37881422E-01  0.00000000E+00
 -6.36177100E-02 -3.72413519E-02 -1.18693800E-01  7.37440048E-01  0.00000000E+00
  0.00000000E+00  7.21081723E-02  1.18761569E-01 -7.37881422E-01  0.00000000E+00
  6.36177100E-02 -3.72413519E-02 -1.18961422E-01  7.39186193E-01  0.00000000E+00
 -6.44382047E-02 -3.80993344E-02  4.47634396E-01 -4.49303891E-01  4.47643137E-01
 -4.45942615E-01  4.47643137E-01 -4.49303891E-01 -1.60140744E-01  1.02879265E+00
  0.00000000E+00  0.00000000E+00 -1.02204333E-02  8.00095588E-02 -5.14074431E-01
  0.00000000E+00  1.75308934E-01  3.14968010E-01  8.03580251E-02 -5.16166240E-01
  0.00000000E+00  1.75533680E-01 -3.13421004E-01 -1.60492653E-01  1.03094100E+00
  0.00000000E+00  0.00000000E+00  1.07474232E-02  8.03580251E-02 -5.16166240E-01
  0.00000000E+00 -1.75533680E-01 -3.13421004E-01  8.00095588E-02 -5.14074431E-01
  0.00000000E+00 -1.75308934E-01  3.14968010E-01 -4.95509998E-01  2.48528412E-01
  2.48700793E-01 -4.97971443E-01  2.48700793E-01  2.48528412E-01  0.00000000E+00
  0.00000000E+00  0.00000000E+00  4.14516746E-01  0.00000000E+00  1.38709176E-01
 -8.91152740E-01  0.00000000E+00 -1.11184604E-01 -1.76721403E-01 -1.39020883E-01
  8.93155440E-01  0.00000000E+00  1.12055819E-01 -1.75256969E-01  0.00000000E+00
  0.00000000E+00  0.00000000E+00 -4.16013048E-01  0.00000000E+00  1.39020883E-01
 -8.93155440E-01  0.00000000E+00  1.12055819E-01  1.75256969E-01 -1.38709176E-01
  8.91152740E-01  0.00000000E+00 -1.11184604E-01  1.76721403E-01  0.00000000E+00
  4.29157778E-01 -4.31315151E-01  0.00000000E+00  4.31315151E-01 -4.29157778E-01
  3.92687175E-02 -2.82847215E-01  0.00000000E+00  0.00000000E+00 -8.03716073E-01
 -1.97554920E-02  1.42118941E-01  0.00000000E+00 -4.58798884E-01  1.18520731E-02
 -1.93304025E-02  1.39095672E-01  0.00000000E+00 -4.60608199E-01 -8.23221574E-03
  3.92597693E-02 -2.82479265E-01  0.00000000E+00  0.00000000E+00  8.05785992E-01
 -1.93304025E-02  1.39095672E-01  0.00000000E+00  4.60608199E-01 -8.23221574E-03
 -1.97554920E-02  1.42118941E-01  0.00000000E+00  4.58798884E-01  1.18520731E-02
 -5.11673883E-01  2.56947036E-01  2.57960698E-01 -5.14151034E-01  2.57960698E-01
  2.56947036E-01  0.00000000E+00  0.00000000E+00  0.00000000E+00 -2.42348058E-01
  0.00000000E+00 -3.26375954E-02  2.34980348E-01  0.00000000E+00 -5.37359878E-01
  4.65683834E-01  3.50592718E-02 -2.52126701E-01  0.00000000E+00  5.41954359E-01
  4.54171459E-01  0.00000000E+00  0.00000000E+00  0.00000000E+00  2.66595223E-01
  0.00000000E+00 -3.50592718E-02  2.52126701E-01  0.00000000E+00  5.41954359E-01
 -4.54171459E-01  3.26375954E-02 -2.34980348E-01  0.00000000E+00 -5.37359878E-01
 -4.65683834E-01  0.00000000E+00  4.48954084E-01 -4.41388402E-01  0.00000000E+00
  4.41388402E-01 -4.48954084E-01 -9.45152641E-02  6.76082859E-01  0.00000000E+00
  0.00000000E+00 -5.35933611E-02 -4.72980962E-02  3.38109297E-01  0.00000000E+00
  3.91172264E-01  6.20619668E-01  4.73354878E-02 -3.38467427E-01  0.00000000E+00
 -3.89175457E-01  6.20922562E-01  9.45085528E-02 -6.75774188E-01  0.00000000E+00
  0.00000000E+00 -5.70360998E-02  4.73354878E-02 -3.38467427E-01  0.00000000E+00
  3.89175457E-01  6.20922562E-01 -4.72980962E-02  3.38109297E-01  0.00000000E+00
 -3.91172264E-01  6.20619668E-01 -2.80939557E-01 -1.42064985E-01  1.40765500E-01
  2.84045094E-01  1.40765500E-01 -1.42064985E-01  0.00000000E+00  0.00000000E+00
  0.00000000E+00  8.49720151E-01  0.00000000E+00  8.25852907E-02 -5.90821704E-01
  0.00000000E+00  1.77915737E-01  3.81942939E-01  8.11632447E-02 -5.80480824E-01
  0.00000000E+00  1.63388145E-01 -3.98230700E-01  0.00000000E+00  0.00000000E+00
  0.00000000E+00  8.43098793E-01  0.00000000E+00 -8.11632447E-02  5.80480824E-01
  0.00000000E+00  1.63388145E-01  3.98230700E-01 -8.25852907E-02  5.90821704E-01
  0.00000000E+00  1.77915737E-01 -3.81942939E-01  0.00000000E+00  2.38563969E-01
  2.50310669E-01  0.00000000E+00 -2.50310669E-01 -2.38563969E-01  0.00000000E+00
  0.00000000E+00  0.00000000E+00  7.59015342E-01  0.00000000E+00  2.71326155E-04
 -2.23016075E-03  0.00000000E+00  3.79586073E-01  6.55020671E-01  5.11176989E-06
 -6.18079365E-05  0.00000000E+00 -3.78312665E-01  6.53736720E-01  0.00000000E+00
  0.00000000E+00  0.00000000E+00 -7.55381572E-01  0.00000000E+00 -5.11176989E-06
  6.18079365E-05  0.00000000E+00 -3.78312665E-01 -6.53736720E-01 -2.71326155E-04
  2.23016075E-03  0.00000000E+00  3.79586073E-01 -6.55020671E-01  0.00000000E+00
 -5.60175044E-05  4.89076202E-04  0.00000000E+00 -4.89076202E-04  5.60175044E-05
 -6.39705593E-02  4.84476049E-01  0.00000000E+00  0.00000000E+00  6.69873970E-01
  6.37807325E-02 -4.82662496E-01  0.00000000E+00  5.81120456E-01 -3.35234705E-01
 -6.37032676E-02  4.82056731E-01  0.00000000E+00 -5.80101520E-01 -3.35198464E-01
  6.36692337E-02 -4.81732448E-01  0.00000000E+00  0.00000000E+00  6.69915259E-01
 -6.37032676E-02  4.82056731E-01  0.00000000E+00  5.80101520E-01 -3.35198464E-01
  6.37807325E-02 -4.82662496E-01  0.00000000E+00 -5.81120456E-01 -3.35234705E-01
  2.63115405E-01 -2.64665493E-01  2.64288073E-01 -2.64356735E-01  2.64288073E-01
 -2.64665493E-01
Orthonormal basis                          R   N=        1296
  5.33045337E-02  2.08075504E-01  0.00000000E+00  0.00000000E+00  1.23602323E-01
  5.32725254E-02  2.07954665E-01  0.00000000E+00 -1.07028521E-01  6.17797212E-02
  5.32520401E-02  2.07899819E-01  0.00000000E+00 -1.06970466E-01 -6.18066121E-02
  5.32407317E-02  2.07861755E-01  0.00000000E+00  0.00000000E+00 -1.23533848E-01
  5.32520401E-02  2.07899819E-01  0.00000000E+00  1.06970466E-01 -6.18066121E-02
  5.32725254E-02  2.07954665E-01  0.00000000E+00  1.07028521E-01  6.17797212E-02
  6.60077349E-02  6.60311153E-02  6.60162751E-02  6.59983179E-02  6.60162751E-02
  6.60311153E-02 -9.20084417E-02 -2.77884452E-01  0.00000000E+00  0.00000000E+00
  4.05404016E-02 -4.60312637E-02 -1.39009431E-01  0.00000000E+00  5.38970831E-02
  1.33767681E-01  4.60425676E-02  1.39069421E-01  0.00000000E+00 -5.38749339E-02
  1.33892711E-01  9.20974549E-02  2.78160697E-01  0.00000000E+00  0.00000000E+00
  4.05661572E-02  4.60425676E-02  1.39069421E-01  0.00000000E+00  5.38749339E-02
  1.33892711E-01 -4.60312637E-02 -1.39009431E-01  0.00000000E+00 -5.38970831E-02
  1.33767681E-01 -1.98253867E-01 -9.91994222E-02  9.92866890E-02  1.98578651E-01
  9.92866890E-02 -9.91994222E-02  1.83469313E-02  6.12662414E-02  0.00000000E+00
  0.00000000E+00 -2.17808367E-01  2.38179232E-02  7.33358230E-02  0.00000000E+00
  1.99424115E-01 -1.04728475E-01  2.37461536E-02  7.31510878E-02  0.00000000E+00
  1.99445265E-01  1.04541745E-01  1.83610436E-02  6.12253230E-02  0.00000000E+00
  0.00000000E+00  2.17779963E-01  2.37461536E-02  7.31510878E-02  0.00000000E+00
 -1.99445265E-01  1.04541745E-01  2.38179232E-02  7.33358230E-02  0.00000000E+00
 -1.99424115E-01 -1.04728475E-01  1.72706791E-01  1.84992581E-01  1.84830711E-01
  1.72690394E-01  1.84830711E-01  1.84992581E-01 -9.13821988E-02 -2.02687325E-01
  0.00000000E+00  0.00000000E+00  1.30382929E-01  4.43264349E-02  9.70917902E-02
  0.00000000E+00  1.60168205E-01  1.73649532E-01  4.43991989E-02  9.72664047E-02
  0.00000000E+00  1.60107070E-01 -1.73496067E-01 -9.13437273E-02 -2.02607510E-01
  0.00000000E+00  0.00000000E+00 -1.30384037E-01  4.43991989E-02  9.72664047E-02
  0.00000000E+00 -1.60107070E-01 -1.73496067E-01  4.43264349E-02  9.70917902E-02
  0.00000000E+00 -1.60168205E-01  1.73649532E-01 -2.11033375E-01  9.46818087E-02
  9.48072942E-02 -2.11085712E-01  9.48072942E-02  9.46818087E-02  9.81862619E-02
  1.27972792E-01  0.00000000E+00  0.00000000E+00 -1.81656437E-01 -9.72766741E-02
 -1.26826442E-01  0.00000000E+00 -1.61302415E-01  9.18674487E-02  9.72617662E-02
  1.26838941E-01  0.00000000E+00  1.61304361E-01  9.24470538E-02 -9.81382724E-02
 -1.27911224E-01  0.00000000E+00  0.00000000E+00 -1.81820037E-01  9.72617662E-02
  1.26838941E-01  0.00000000E+00 -1.61304361E-01  9.24470538E-02 -9.72766741E-02
 -1.26826442E-01  0.00000000E+00  1.61302415E-01  9.18674487E-02  2.32201967E-01
 -2.34437022E-01  2.34660348E-01 -2.32336733E-01  2.34660348E-01 -2.34437022E-01
  8.89027240E-02  1.04065054E-01  0.00000000E+00  0.00000000E+00  3.85686908E-01
  4.54817727E-02  5.33162515E-02  0.00000000E+00 -2.22745232E-01 -3.37083808E-03
 -4.55146323E-02 -5.34199687E-02  0.00000000E+00  2.22880769E-01 -4.13054777E-03
 -8.88571672E-02 -1.04092628E-01  0.00000000E+00  0.00000000E+00  3.86416033E-01
 -4.55146323E-02 -5.34199687E-02  0.00000000E+00 -2.22880769E-01 -4.13054777E-03
  4.54817727E-02  5.33162515E-02  0.00000000E+00  2.22745232E-01 -3.37083808E-03
 -2.21555656E-01 -1.08488863E-01  1.08219487E-01  2.21978102E-01  1.08219487E-01
 -1.08488863E-01 -2.89140365E-02 -2.28674502E-03  0.00000000E+00  0.00000000E+00
 -2.92493230E-01  1.40665628E-02  9.57430413E-04  0.00000000E+00  1.99870647E-02
  3.26237608E-01  1.46208884E-02  1.30479986E-03  0.00000000E+00  1.96628767E-02
 -3.26181666E-01 -2.85988717E-02 -2.18923477E-03  0.00000000E+00  0.00000000E+00
  2.91431051E-01  1.46208884E-02  1.30479986E-03  0.00000000E+00 -1.96628767E-02
 -3.26181666E-01  1.40665628E-02  9.57430413E-04  0.00000000E+00 -1.99870647E-02
  3.26237608E-01  2.82128706E-01 -1.40752565E-01 -1.40693751E-01  2.81053837E-01
 -1.40693751E-01 -1.40752565E-01 -3.88552170E-01 -2.04754206E-02  0.00000000E+00
  0.00000000E+00 -7.51762941E-02  3.88099575E-01  2.04638347E-02  0.00000000E+00
 -6.51841473E-02  3.75618325E-02 -3.87588279E-01 -2.04389437E-02  0.00000000E+00
  6.50689480E-02  3.76109100E-02  3.87486008E-01  2.04328448E-02  0.00000000E+00
  0.00000000E+00 -7.51351432E-02 -3.87588279E-01 -2.04389437E-02  0.00000000E+00
 -6.50689480E-02  3.76109100E-02  3.88099575E-01  2.04638347E-02  0.00000000E+00
  6.51841473E-02  3.75618325E-02  1.13879018E-01 -1.13758819E-01  1.13616110E-01
 -1.13589924E-01  1.13616110E-01 -1.13758819E-01  5.59849547E-01  2.73497441E-02
  0.00000000E+00  0.00000000E+00  3.28602727E-02 -2.79959305E-01 -1.36585910E-02
  0.00000000E+00  7.43677326E-02  9.58309726E-02 -2.80543257E-01 -1.36906227E-02
  0.00000000E+00  7.44839683E-02 -9.57803868E-02  5.60809300E-01  2.73713331E-02
  0.00000000E+00  0.00000000E+00 -3.31759796E-02 -2.80543257E-01 -1.36906227E-02
  0.00000000E+00 -7.44839683E-02 -9.57803868E-02 -2.79959305E-01 -1.36585910E-02
  0.00000000E+00 -7.43677326E-02  9.58309726E-02 -7.45697907E-02  3.73189846E-02
  3.74918811E-02 -7.48944021E-02  3.74918811E-02  3.73189846E-02  4.06994526E-01
 -4.97152103E-02  0.00000000E+00  0.00000000E+00 -4.56556340E-02  4.07077140E-01
 -4.97113376E-02  0.00000000E+00  3.94183576E-02 -2.28159628E-02  4.07427971E-01
 -4.97630555E-02  0.00000000E+00  3.95689725E-02  2.26915217E-02  4.07743491E-01
 -4.97908630E-02  0.00000000E+00  0.00000000E+00  4.56621970E-02  4.07427971E-01
 -4.97630555E-02  0.00000000E+00 -3.95689725E-02  2.26915217E-02  4.07077140E-01
 -4.97113376E-02  0.00000000E+00 -3.94183576E-02 -2.28159628E-02 -8.65937121E-02
 -8.65613887E-02 -8.65897862E-02 -8.66040814E-02 -8.65897862E-02 -8.65613887E-02
  5.67352744E-01 -7.63340137E-02  0.00000000E+00  0.00000000E+00 -9.68866651E-02
  2.83814106E-01 -3.82018227E-02  0.00000000E+00  1.02733972E-01  8.13129371E-02
 -2.83392001E-01  3.81451563E-02  0.00000000E+00 -1.02598091E-01  8.10532814E-02
 -5.66625921E-01  7.62925377E-02  0.00000000E+00  0.00000000E+00 -9.65909777E-02
 -2.83392001E-01  3.81451563E-02  0.00000000E+00  1.02598091E-01  8.10532814E-02
  2.83814106E-01 -3.82018227E-02  0.00000000E+00 -1.02733972E-01  8.13129371E-02
 -5.90317507E-02 -2.97258019E-02  2.95154437E-02  5.91356979E-02  2.95154437E-02
 -2.97258019E-02  1.66114579E-02 -4.24645283E-02  0.00000000E+00  0.00000000E+00
  5.10794305E-01  8.27851568E-03 -2.14325836E-02  0.00000000E+00 -1.45842367E-03
  5.04070760E-01 -7.58904812E-03  1.90232675E-02  0.00000000E+00  1.32444847E-03
  5.03723271E-01 -1.56354890E-02  3.95127117E-02  0.00000000E+00  0.00000000E+00
  5.05226283E-01 -7.58904812E-03  1.90232675E-02  0.00000000E+00 -1.32444847E-03
  5.03723271E-01  8.27851568E-03 -2.14325836E-02  0.00000000E+00  1.45842367E-03
  5.04070760E-01  5.75465636E-01  2.86283608E-01 -2.84204948E-01 -5.68736075E-01
 -2.84204948E-01  2.86283608E-01  9.47502046E-02 -3.58790365E-01  0.00000000E+00
  0.00000000E+00  3.02350085E-01  9.44252298E-02 -3.58016158E-01  0.00000000E+00
 -2.55501632E-01  1.45742564E-01  9.45433405E-02 -3.58211527E-01  0.00000000E+00
 -2.56860928E-01 -1.51549568E-01  9.44538361E-02 -3.57834897E-01  0.00000000E+00
  0.00000000E+00 -3.04131231E-01  9.45433405E-02 -3.58211527E-01  0.00000000E+00
  2.56860928E-01 -1.51549568E-01  9.44252298E-02 -3.58016158E-01  0.00000000E+00
  2.55501632E-01  1.45742564E-01  4.95964877E-01  4.89252246E-01  4.93158796E-01
  4.98234239E-01  4.93158796E-01  4.89252246E-01  7.51612898E-03 -1.05541314E-02
  0.00000000E+00  0.00000000E+00  7.67738666E-01 -4.55073357E-03  8.48844876E-03
  0.00000000E+00  3.93007313E-01 -9.67323563E-02 -4.26332686E-03  7.80139490E-03
  0.00000000E+00  3.91820438E-01  9.11712088E-02  6.67155082E-03 -7.64205416E-03
  0.00000000E+00  0.00000000E+00 -7.67313759E-01 -4.26332686E-03  7.80139490E-03
  0.00000000E+00 -3.91820438E-01  9.11712088E-02 -4.55073357E-03  8.48844876E-03
  0.00000000E+00 -3.93007313E-01 -9.67323563E-02  6.36682363E-01 -3.24910792E-01
 -3.21209732E-01  6.36032534E-01 -3.21209732E-01 -3.24910792E-01 -4.99250173E-02
  1.68719842E-01  0.00000000E+00  0.00000000E+00 -5.34690551E-01  4.97692175E-02
 -1.68241996E-01  0.00000000E+00 -4.64494397E-01  2.71061232E-01 -4.92320485E-02
  1.65853346E-01  0.00000000E+00  4.66089198E-01  2.70321881E-01  4.98972970E-02
 -1.68919563E-01  0.00000000E+00  0.00000000E+00 -5.40851852E-01 -4.92320485E-02
  1.65853346E-01  0.00000000E+00 -4.66089198E-01  2.70321881E-01  4.97692175E-02
 -1.68241996E-01  0.00000000E+00  4.64494397E-01  2.71061232E-01 -4.92086827E-01
  4.95266940E-01 -4.94795304E-01  4.97785589E-01 -4.94795304E-01  4.95266940E-01
  1.48905937E-01 -7.53328160E-01  0.00000000E+00  0.00000000E+00  1.64815205E-01
  7.45980481E-02 -3.77109096E-01  0.00000000E+00 -3.84507838E-01 -4.95847825E-01
 -7.47633983E-02  3.77963168E-01  0.00000000E+00  3.83426548E-01 -4.95814031E-01
 -1.48992018E-01  7.53632583E-01  0.00000000E+00  0.00000000E+00  1.67681636E-01
 -7.47633983E-02  3.77963168E-01  0.00000000E+00 -3.83426548E-01 -4.95814031E-01
  7.45980481E-02 -3.77109096E-01  0.00000000E+00  3.84507838E-01 -4.95847825E-01
  4.22465309E-01  2.13732970E-01 -2.13506620E-01 -4.25529554E-01 -2.13506620E-01
  2.13732970E-01 -2.12037973E-01  1.10021850E+00  0.00000000E+00  0.00000000E+00
  2.03569121E-01  1.05893711E-01 -5.49494924E-01  0.00000000E+00  2.71975579E-01
  2.67613646E-01  1.06587003E-01 -5.52864172E-01  0.00000000E+00  2.72379041E-01
 -2.67326833E-01 -2.12809646E-01  1.10401047E+00  0.00000000E+00  0.00000000E+00
 -2.03767888E-01  1.06587003E-01 -5.52864172E-01  0.00000000E+00 -2.72379041E-01
 -2.67326833E-01  1.05893711E-01 -5.49494924E-01  0.00000000E+00 -2.71975579E-01
  2.67613646E-01 -3.09624488E-01  1.54978838E-01  1.56079746E-01 -3.11851340E-01
  1.56079746E-01  1.54978838E-01  1.54700244E-01 -8.87408166E-01  0.00000000E+00
  0.00000000E+00 -3.90750132E-01 -1.54423883E-01  8.85565343E-01  0.00000000E+00
 -3.38955631E-01  1.94549698E-01  1.54007548E-01 -8.83152045E-01  0.00000000E+00
  3.37083427E-01  1.95320390E-01 -1.53863065E-01  8.82255611E-01  0.00000000E+00
  0.00000000E+00 -3.89345020E-01  1.54007548E-01 -8.83152045E-01  0.00000000E+00
 -3.37083427E-01  1.95320390E-01 -1.54423883E-01  8.85565343E-01  0.00000000E+00
  3.38955631E-01  1.94549698E-01  1.09520609E-01 -1.09170311E-01  1.09005743E-01
 -1.08816868E-01  1.09005743E-01 -1.09170311E-01  0.00000000E+00  0.00000000E+00
  0.00000000E+00  0.00000000E+00  0.00000000E+00  0.00000000E+00  0.00000000E+00
  4.60458814E-01  0.00000000E+00  0.00000000E+00  0.00000000E+00  0.00000000E+00
  4.60458814E-01  0.00000000E+00  0.00000000E+00  0.00000000E+00  0.00000000E+00
  0.00000000E+00  0.00000000E+00  0.00000000E+00  0.00000000E+00  0.00000000E+00
 -4.60458814E-01  0.00000000E+00  0.00000000E+00  0.00000000E+00  0.00000000E+00
 -4.60458814E-01  0.00000000E+00  0.00000000E+00  0.00000000E+00  0.00000000E+00
  0.00000000E+00  0.00000000E+00  0.00000000E+00  0.00000000E+00  0.00000000E+00
  0.00000000E+00  0.00000000E+00  0.00000000E+00  0.00000000E+00  0.00000000E+00
  0.00000000E+00  5.69967912E-01  0.00000000E+00  0.00000000E+00  0.00000000E+00
  0.00000000E+00 -5.69967912E-01  0.00000000E+00  0.00000000E+00  0.00000000E+00
  0.00000000E+00  0.00000000E+00  0.00000000E+00  0.00000000E+00  0.00000000E+00
  0.00000000E+00  5.69967912E-01  0.00000000E+00  0.00000000E+00  0.00000000E+00
  0.00000000E+00 -5.69967912E-01  0.00000000E+00  0.00000000E+00  0.00000000E+00
  0.00000000E+00  0.00000000E+00  0.00000000E+00  0.00000000E+00  0.00000000E+00
  0.00000000E+00  0.00000000E+00  3.34554576E-01  0.00000000E+00  0.00000000E+00
  0.00000000E+00  0.00000000E+00  3.34345177E-01  0.00000000E+00  0.00000000E+00
  0.00000000E+00  0.00000000E+00  3.34144789E-01  0.00000000E+00  0.00000000E+00
  0.00000000E+00  0.00000000E+00  3.34074117E-01  0.00000000E+00  0.00000000E+00
  0.00000000E+00  0.00000000E+00  3.34144789E-01  0.00000000E+00  0.00000000E+00
  0.00000000E+00  0.00000000E+00  3.34345177E-01  0.00000000E+00  0.00000000E+00
  0.00000000E+00  0.00000000E+00  0.00000000E+00  0.00000000E+00  0.00000000E+00
  0.00000000E+00  0.00000000E+00  0.00000000E+00 -5.31418260E-01  0.00000000E+00
  0.00000000E+00  0.00000000E+00  0.00000000E+00 -2.65709929E-01  0.00000000E+00
  0.00000000E+00  0.00000000E+00  0.00000000E+00  2.66025433E-01  0.00000000E+00
  0.00000000E+00  0.00000000E+00  0.00000000E+00  5.31870156E-01  0.00000000E+00
  0.00000000E+00  0.00000000E+00  0.00000000E+00  2.66025433E-01  0.00000000E+00
  0.00000000E+00  0.00000000E+00  0.00000000E+00 -2.65709929E-01  0.00000000E+00
  0.00000000E+00  0.00000000E+00  0.00000000E+00  0.00000000E+00  0.00000000E+00
  0.00000000E+00  0.00000000E+00  0.00000000E+00  0.00000000E+00  6.57847436E-01
  0.00000000E+00  0.00000000E+00  0.00000000E+00  0.00000000E+00 -3.28751705E-01
  0.00000000E+00  0.00000000E+00  0.00000000E+00  0.00000000E+00 -3.29544319E-01
  0.00000000E+00  0.00000000E+00  0.00000000E+00  0.00000000E+00  6.58471418E-01
  0.00000000E+00  0.00000000E+00  0.00000000E+00  0.00000000E+00 -3.29544319E-01
  0.00000000E+00  0.00000000E+00  0.00000000E+00  0.00000000E+00 -3.28751705E-01
  0.00000000E+00  0.00000000E+00  0.00000000E+00  0.00000000E+00  0.00000000E+00
  0.00000000E+00  0.00000000E+00  0.00000000E+00  0.00000000E+00  0.00000000E+00
 -5.22861846E-01  0.00000000E+00  0.00000000E+00  0.00000000E+00  0.00000000E+00
  5.22521737E-01  0.00000000E+00  0.00000000E+00  0.00000000E+00  0.00000000E+00
 -5.21895843E-01  0.00000000E+00  0.00000000E+00  0.00000000E+00  0.00000000E+00
  5.21734913E-01  0.00000000E+00  0.00000000E+00  0.00000000E+00  0.00000000E+00
 -5.21895843E-01  0.00000000E+00  0.00000000E+00  0.00000000E+00  0.00000000E+00
  5.22521737E-01  0.00000000E+00  0.00000000E+00  0.00000000E+00  0.00000000E+00
  0.00000000E+00  0.00000000E+00  0.00000000E+00  0.00000000E+00  0.00000000E+00
  0.00000000E+00  0.00000000E+00  1.65161809E-01  0.00000000E+00  7.97507784E-02
  2.40858661E-01  0.00000000E+00  7.15396555E-02  5.38010362E-02  7.96863213E-02
  2.40711719E-01  0.00000000E+00  7.15717833E-02 -5.39323392E-02  0.00000000E+00
  0.00000000E+00  0.00000000E+00  1.64830143E-01  0.00000000E+00 -7.96863213E-02
 -2.40711719E-01  0.00000000E+00  7.15717833E-02  5.39323392E-02 -7.97507784E-02
 -2.40858661E-01  0.00000000E+00  7.15396555E-02 -5.38010362E-02  0.00000000E+00
  1.71898605E-01  1.71789508E-01  0.00000000E+00 -1.71789508E-01 -1.71898605E-01
  0.00000000E+00  0.00000000E+00  0.00000000E+00 -2.66181600E-01  0.00000000E+00
 -7.84042557E-02 -1.73183247E-01  0.00000000E+00 -2.44825053E-02  1.67894129E-01
  7.84579299E-02  1.73366585E-01  0.00000000E+00  2.47342000E-02  1.67912403E-01
  0.00000000E+00  0.00000000E+00  0.00000000E+00  2.66228827E-01  0.00000000E+00
 -7.84579299E-02 -1.73366585E-01  0.00000000E+00  2.47342000E-02 -1.67912403E-01
  7.84042557E-02  1.73183247E-01  0.00000000E+00 -2.44825053E-02 -1.67894129E-01
  0.00000000E+00 -1.76567609E-01  1.76834418E-01  0.00000000E+00 -1.76834418E-01
  1.76567609E-01  0.00000000E+00  0.00000000E+00  0.00000000E+00  3.32287599E-01
  0.00000000E+00  1.28226119E-04  1.25133397E-04  0.00000000E+00 -1.66617115E-01
 -2.87230576E-01  9.65978740E-05  1.24636224E-04  0.00000000E+00 -1.66475474E-01
  2.87269999E-01  0.00000000E+00  0.00000000E+00  0.00000000E+00  3.32301131E-01
  0.00000000E+00 -9.65978740E-05 -1.24636224E-04  0.00000000E+00 -1.66475474E-01
 -2.87269999E-01 -1.28226119E-04 -1.25133397E-04  0.00000000E+00 -1.66617115E-01
  2.87230576E-01  0.00000000E+00 -4.16602275E-04 -3.05955625E-04  0.00000000E+00
  3.05955625E-04  4.16602275E-04  0.00000000E+00  0.00000000E+00  0.00000000E+00
 -1.32011673E-01  0.00000000E+00 -7.74058408E-02 -9.07265940E-02  0.00000000E+00
  2.55307400E-01 -2.24572388E-01 -7.74933941E-02 -9.08799792E-02  0.00000000E+00
  2.54966906E-01  2.24428812E-01  0.00000000E+00  0.00000000E+00  0.00000000E+00
 -1.31691715E-01  0.00000000E+00  7.74933941E-02  9.08799792E-02  0.00000000E+00
  2.54966906E-01 -2.24428812E-01  7.74058408E-02  9.07265940E-02  0.00000000E+00
  2.55307400E-01  2.24572388E-01  0.00000000E+00  1.90796813E-01  1.90389856E-01
  0.00000000E+00 -1.90389856E-01 -1.90796813E-01  0.00000000E+00  0.00000000E+00
  0.00000000E+00  3.37399377E-01  0.00000000E+00  2.47104895E-02  1.83258688E-03
  0.00000000E+00 -3.03184982E-01 -1.98454978E-02 -2.49443084E-02 -2.04045212E-03
  0.00000000E+00  3.03571517E-01 -1.96379825E-02  0.00000000E+00  0.00000000E+00
  0.00000000E+00 -3.37777106E-01  0.00000000E+00  2.49443084E-02  2.04045212E-03
  0.00000000E+00  3.03571517E-01  1.96379825E-02 -2.47104895E-02 -1.83258688E-03
  0.00000000E+00 -3.03184982E-01  1.98454978E-02  0.00000000E+00 -2.43605079E-01
  2.43836415E-01  0.00000000E+00 -2.43836415E-01  2.43605079E-01  0.00000000E+00
  0.00000000E+00  0.00000000E+00  1.38654378E-01  0.00000000E+00 -4.85264213E-01
 -2.36652588E-02  0.00000000E+00 -9.89725291E-03 -7.45042390E-02  4.85369175E-01
  2.36594217E-02  0.00000000E+00  9.87126671E-03 -7.43602765E-02  0.00000000E+00
  0.00000000E+00  0.00000000E+00 -1.38778814E-01  0.00000000E+00 -4.85369175E-01
 -2.36594217E-02  0.00000000E+00  9.87126671E-03  7.43602765E-02  4.85264213E-01
  2.36652588E-02  0.00000000E+00 -9.89725291E-03  7.45042390E-02  0.00000000E+00
  6.47995753E-02 -6.47558405E-02  0.00000000E+00  6.47558405E-02 -6.47995753E-02
  0.00000000E+00  0.00000000E+00  0.00000000E+00 -1.40336652E-01  0.00000000E+00
  4.91191213E-01 -6.60451785E-02  0.00000000E+00  3.72995585E-02 -1.02609380E-01
  4.91039060E-01 -6.60426133E-02  0.00000000E+00  3.73458344E-02  1.02604658E-01
  0.00000000E+00  0.00000000E+00  0.00000000E+00 -1.40419569E-01  0.00000000E+00
 -4.91039060E-01  6.60426133E-02  0.00000000E+00  3.73458344E-02 -1.02604658E-01
 -4.91191213E-01  6.60451785E-02  0.00000000E+00  3.72995585E-02  1.02609380E-01
  0.00000000E+00 -5.13132595E-02 -5.12359861E-02  0.00000000E+00  5.12359861E-02
  5.13132595E-02  0.00000000E+00  0.00000000E+00  0.00000000E+00  5.02379702E-01
  0.00000000E+00 -1.40338502E-02  3.57924829E-02  0.00000000E+00  5.05826815E-01
 -2.24154527E-03 -1.38025772E-02  3.51604782E-02  0.00000000E+00  5.07343746E-01
  1.75115288E-03  0.00000000E+00  0.00000000E+00  0.00000000E+00  5.04133380E-01
  0.00000000E+00  1.38025772E-02 -3.51604782E-02  0.00000000E+00  5.07343746E-01
 -1.75115288E-03  1.40338502E-02 -3.57924829E-02  0.00000000E+00  5.05826815E-01
  2.24154527E-03  0.00000000E+00 -4.94857463E-01 -4.95480577E-01  0.00000000E+00
  4.95480577E-01  4.94857463E-01  0.00000000E+00  0.00000000E+00  0.00000000E+00
 -1.31799038E-01  0.00000000E+00  6.63211954E-03 -1.00388452E-02  0.00000000E+00
 -5.43802201E-01  3.92326835E-01 -6.38383212E-03  9.04925707E-03  0.00000000E+00
  5.43032678E-01  3.91734735E-01  0.00000000E+00  0.00000000E+00  0.00000000E+00
  1.31860919E-01  0.00000000E+00  6.38383212E-03 -9.04925707E-03  0.00000000E+00
  5.43032678E-01 -3.91734735E-01 -6.63211954E-03  1.00388452E-02  0.00000000E+00
 -5.43802201E-01 -3.92326835E-01  0.00000000E+00  5.54642347E-01 -5.53286617E-01
  0.00000000E+00  5.53286617E-01 -5.54642347E-01  0.00000000E+00  0.00000000E+00
  0.00000000E+00  7.55076514E-01  0.00000000E+00 -6.47395595E-04  2.64697728E-03
  0.00000000E+00  3.79756361E-01  6.53574779E-01 -1.48889720E-04  8.09061639E-04
  0.00000000E+00 -3.78715116E-01  6.55789439E-01  0.00000000E+00  0.00000000E+00
  0.00000000E+00 -7.57672565E-01  0.00000000E+00  1.48889720E-04 -8.09061639E-04
  0.00000000E+00 -3.78715116E-01 -6.55789439E-01  6.47395595E-04 -2.64697728E-03
  0.00000000E+00  3.79756361E-01 -6.53574779E-01  0.00000000E+00 -2.83130115E-03
 -2.93581788E-04  0.00000000E+00  2.93581788E-04  2.83130115E-03  0.00000000E+00
  0.00000000E+00  0.00000000E+00 -7.19462985E-01  0.00000000E+00 -1.28684564E-01
  6.51458092E-01  0.00000000E+00 -5.57377119E-02 -3.85206804E-01 -1.29511166E-01
  6.55068397E-01  0.00000000E+00 -5.26221445E-02  3.80939289E-01  0.00000000E+00
  0.00000000E+00  0.00000000E+00 -7.16148862E-01  0.00000000E+00  1.29511166E-01
 -6.55068397E-01  0.00000000E+00 -5.26221445E-02 -3.80939289E-01  1.28684564E-01
 -6.51458092E-01  0.00000000E+00 -5.57377119E-02  3.85206804E-01  0.00000000E+00
 -3.67214475E-01 -3.69212263E-01  0.00000000E+00  3.69212263E-01  3.67214475E-01
  0.00000000E+00  0.00000000E+00  0.00000000E+00 -4.27586140E-01  0.00000000E+00
 -1.84220138E-01  9.55938900E-01  0.00000000E+00 -4.71901841E-02  2.70202432E-01
  1.83722942E-01 -9.53018037E-01  0.00000000E+00  4.63144558E-02  2.71811691E-01
  0.00000000E+00  0.00000000E+00  0.00000000E+00  4.23652962E-01  0.00000000E+00
 -1.83722942E-01  9.53018037E-01  0.00000000E+00  4.63144558E-02 -2.71811691E-01
  1.84220138E-01 -9.55938900E-01  0.00000000E+00 -4.71901841E-02 -2.70202432E-01
  0.00000000E+00 -2.70220511E-01  2.69148923E-01  0.00000000E+00 -2.69148923E-01
  2.70220511E-01
Total SCF Density                          R   N=         666
  2.07001764E+00 -2.10923594E-01  8.00201055E-01  2.07538272E-35 -2.53835992E-34
  7.88630657E-01  3.15652659E-35 -3.86068580E-34 -7.39557099E-32  6.03409846E-01
  1.68375049E-03 -2.05936222E-02  1.24680248E-32  2.28829760E-32  6.17211018E-01
  2.42550990E-02 -6.32200945E-02  4.62223187E-33 -9.59169217E-02 -5.59274213E-02
  2.07001009E+00 -6.32264261E-02  9.47599337E-02 -1.07852077E-32  2.48843067E-01
  1.52241020E-01 -2.10885967E-01  8.00063251E-01 -4.62223187E-33  1.23259516E-32
  5.06112966E-01 -9.24446373E-33  1.23259516E-32  1.02315028E-34 -1.25185446E-33
  7.88980783E-01  9.64587137E-02 -2.56422182E-01 -9.24446373E-33 -3.51592106E-01
 -1.98788335E-01 -1.51503317E-03  1.78877742E-02 -7.08742220E-32  6.13657855E-01
  5.50797124E-02 -1.39462756E-01  1.30963236E-32 -2.09725483E-01 -1.15546211E-01
  8.84717988E-04 -1.02478640E-02  1.26389153E-32 -5.91404598E-03  6.06882147E-01
 -4.64968286E-03  1.46633360E-02 -4.81482486E-34  1.28639667E-02  1.91273190E-02
  2.42238658E-02 -6.31499023E-02 -1.39028068E-33  4.67010790E-04 -1.11017041E-01
  2.07001301E+00  1.46790805E-02 -3.78674492E-02  1.34815096E-33 -4.11710008E-02
 -7.48449804E-02 -6.31444635E-02  9.46730310E-02  3.99630463E-33 -7.24278090E-03
  2.91795717E-01 -2.10950469E-01  8.00333898E-01  2.88889492E-34 -1.54074396E-33
 -5.91818785E-02  1.54074396E-33 -2.88889492E-34  1.33912316E-33 -3.17778441E-33
  5.06126167E-01 -2.46519033E-32 -2.98519141E-33  6.62038418E-35 -7.70371978E-34
  7.88733281E-01 -1.01308772E-02  4.41992755E-02  1.54074396E-33  3.55890201E-02
  1.59844748E-02  4.86881220E-04 -7.35414888E-03 -2.46519033E-32  2.25257090E-03
  5.51900897E-03 -1.50159443E-03  1.77178252E-02 -7.47260818E-32  6.13689777E-01
 -2.07030693E-02  7.29758161E-02 -2.31111593E-33  5.42930325E-02  7.61721168E-02
  1.10964407E-01 -2.91594794E-01 -2.33519006E-33 -5.69161096E-03 -4.69652907E-01
 -8.57537016E-04  1.01944166E-02  1.20129880E-32  5.91938447E-03  6.06913703E-01
 -4.36918501E-03  1.52116023E-02  1.46012703E-34  2.22076138E-34  1.18459578E-02
 -4.64577037E-03  1.46495201E-02  8.66668475E-34 -1.01265263E-02  2.06849251E-02
  2.42325127E-02 -6.31776983E-02 -6.54816181E-33  9.63804794E-02 -5.50604642E-02
  2.07000776E+00  1.52158558E-02 -5.18799108E-02 -5.28908393E-34 -8.04436404E-34
 -4.29101467E-02  1.46517447E-02 -3.77993534E-02 -3.27408091E-33  4.41660072E-02
 -7.29481189E-02 -6.31753568E-02  9.47710656E-02  1.69481835E-32 -2.56332609E-01
  1.39433235E-01 -2.10927522E-01  8.00246134E-01 -1.46089765E-34  5.29043558E-34
 -3.41785665E-01  2.00296714E-32 -1.65438780E-33 -9.62964972E-34  3.27408091E-33
 -5.92362072E-02  3.85185989E-34  3.46667390E-33  6.16297582E-33 -1.69481835E-32
  5.06233559E-01 -3.08148791E-33 -1.07852077E-32 -2.14690140E-35  2.52682888E-34
  7.89009745E-01 -2.22193345E-34  8.04641981E-34  2.00296714E-32 -5.32010721E-02
 -3.09852696E-34  1.28513668E-02 -4.10768278E-02  0.00000000E+00  3.55537333E-02
 -5.42814634E-02 -9.58795215E-02  2.48957120E-01  0.00000000E+00 -3.51599502E-01
  2.09823279E-01 -3.26530201E-35  3.84314781E-34 -7.16445939E-32  6.03377667E-01
 -1.18522098E-02  4.29211126E-02 -1.65438780E-33 -3.09852696E-34  3.66729481E-02
 -1.91155954E-02  7.47269817E-02  1.44444746E-33 -1.60086859E-02  7.61367713E-02
  5.59356450E-02 -1.52271382E-01 -1.00148357E-32  1.98805136E-01 -1.15653605E-01
 -1.74177334E-03  2.05000713E-02  1.24686901E-32  2.28798312E-32  6.17075446E-01
 -4.64968286E-03  1.46633360E-02  9.62964972E-34 -1.28639667E-02  1.91273190E-02
 -4.36530184E-03  1.52032349E-02  6.74075481E-34 -1.02582420E-02  5.91820656E-03
 -4.64387836E-03  1.46457693E-02  1.25185446E-33 -2.29805629E-02  1.58337759E-03
  2.42325127E-02 -6.31753568E-02 -4.23704588E-33  9.58795215E-02  5.59356450E-02
  2.07001301E+00  1.46790805E-02 -3.78674492E-02 -3.27408091E-33  4.11710008E-02
 -7.48449804E-02  1.52006338E-02 -5.18524218E-02 -2.50370893E-33  3.71432613E-02
 -2.14295696E-02  1.46457693E-02 -3.77887733E-02 -4.62223187E-33  8.52789672E-02
  1.73098158E-03 -6.31776983E-02  9.47710656E-02  1.07852077E-32 -2.48957120E-01
 -1.52271382E-01 -2.10950469E-01  8.00333898E-01 -8.66668475E-34  3.27408091E-33
 -5.91818785E-02  7.70371978E-34  1.44444746E-33 -6.74075481E-34  2.31111593E-33
 -3.41963075E-01  1.38666956E-32 -3.85185989E-34 -1.25185446E-33  4.62223187E-33
 -5.90900101E-02 -2.31111593E-33  9.62964972E-34  4.62223187E-33 -1.23259516E-32
  5.06233559E-01 -9.24446373E-33  1.23259516E-32 -9.62964972E-35  1.15555797E-33
  7.88733281E-01  1.01308772E-02 -4.41992755E-02  1.15555797E-33  3.55890201E-02
 -1.59844748E-02  1.02522620E-02 -3.71325548E-02  1.38666956E-32  1.41787809E-02
 -3.89146622E-02  2.29805629E-02 -8.52789672E-02 -3.08148791E-33  9.64382408E-02
 -1.91295426E-02 -9.63804794E-02  2.56332609E-01 -1.23259516E-32 -3.51599502E-01
 -1.98805136E-01  1.50159443E-03 -1.77178252E-02 -7.47260818E-32  6.13689777E-01
 -2.07030693E-02  7.29758161E-02  3.46667390E-33 -5.42930325E-02  7.61721168E-02
 -5.92365448E-03  2.14658273E-02 -3.85185989E-34 -3.89433299E-02 -3.07484398E-02
  1.58337759E-03  1.73098158E-03 -1.25185446E-33  1.91295426E-02  1.53234119E-02
 -5.50604642E-02  1.39433235E-01  1.30963236E-32 -2.09823279E-01 -1.15653605E-01
 -8.57537016E-04  1.01944166E-02  1.26389153E-32 -5.91938447E-03  6.06913703E-01
  2.42550990E-02 -6.32200945E-02 -6.54816181E-33  9.59169217E-02 -5.59274213E-02
 -4.64726819E-03  1.46336495E-02  1.34815096E-33 -2.29788238E-02 -1.55875400E-03
 -4.36530184E-03  1.52006338E-02  4.33334237E-34 -1.02522620E-02 -5.92365448E-03
 -4.64577037E-03  1.46517447E-02  4.81482486E-34 -1.28513668E-02 -1.91155954E-02
  2.42238658E-02 -6.31444635E-02  1.39328994E-33 -4.86881220E-04  1.10964407E-01
  2.07001009E+00 -6.32264261E-02  9.47599337E-02  1.69481835E-32 -2.48843067E-01
  1.52241020E-01  1.46336495E-02 -3.76791866E-02 -4.62223187E-33  8.51940169E-02
 -1.87013305E-03  1.52032349E-02 -5.18524218E-02 -1.54074396E-33  3.71325548E-02
  2.14658273E-02  1.46495201E-02 -3.77993534E-02 -1.34815096E-33  4.10768278E-02
  7.47269817E-02 -6.31499023E-02  9.46730310E-02 -3.99630463E-33  7.35414888E-03
 -2.91594794E-01 -2.10885967E-01  8.00063251E-01  6.54816181E-33 -1.69481835E-32
  5.06112966E-01  3.08148791E-33 -1.00148357E-32 -1.34815096E-33  4.62223187E-33
 -5.93744934E-02 -3.08148791E-33 -1.25185446E-33 -4.33334237E-34  1.73333695E-33
 -3.41963075E-01  1.38666956E-32 -5.00741786E-33 -2.88889492E-34  1.54074396E-33
 -5.92362072E-02  1.15555797E-33 -2.88889492E-34 -1.34514170E-33  3.17778441E-33
  5.06126167E-01 -2.46519033E-32 -2.98519141E-33 -7.22223729E-35  8.66668475E-34
  7.88980783E-01 -9.64587137E-02  2.56422182E-01 -3.08148791E-33 -3.51592106E-01
  1.98788335E-01  2.29788238E-02 -8.51940169E-02 -7.70371978E-34  9.64115796E-02
  1.90314718E-02  1.02582420E-02 -3.71432613E-02  1.54074396E-32  1.41787809E-02
  3.89433299E-02  1.01265263E-02 -4.41660072E-02  1.15555797E-33  3.55537333E-02
  1.60086859E-02 -4.67010790E-04  7.24278090E-03 -2.46519033E-32  2.25257090E-03
  5.69161096E-03  1.51503317E-03 -1.78877742E-02 -7.08742220E-32  6.13657855E-01
  5.50797124E-02 -1.39462756E-01 -1.07852077E-32  2.09725483E-01 -1.15546211E-01
 -1.55875400E-03 -1.87013305E-03  9.62964972E-34 -1.90314718E-02  1.53162242E-02
  5.91820656E-03 -2.14295696E-02 -4.81482486E-33  3.89146622E-02 -3.07484398E-02
  2.06849251E-02 -7.29481189E-02 -2.31111593E-33  5.42814634E-02  7.61367713E-02
 -1.11017041E-01  2.91795717E-01 -2.35926418E-33 -5.51900897E-03 -4.69652907E-01
  8.84717988E-04 -1.02478640E-02  1.20129880E-32  5.91404598E-03  6.06882147E-01
 -1.08557727E-01  2.88771812E-01 -6.84802528E-33 -1.04154158E-32 -5.55577815E-01
  2.71502830E-02 -1.00216372E-01 -2.31111593E-33  6.61888991E-02  1.08013449E-01
 -1.72016620E-02  6.59521158E-02 -8.90742599E-34 -3.78645054E-03 -9.00683615E-02
 -1.99409807E-03  7.17804657E-03 -5.40389957E-35 -8.21899140E-35 -4.38416418E-03
 -1.72016620E-02  6.59521158E-02 -1.30000271E-33  3.78645054E-03 -9.00683615E-02
  2.71502830E-02 -1.00216372E-01  5.00741786E-33 -6.61888991E-02  1.08013449E-01
  6.03451849E-01  2.71337373E-02 -1.00146890E-01  6.93334780E-33 -1.26439677E-01
 -3.15431608E-03 -1.08737142E-01  2.89039542E-01 -3.08148791E-32  4.80652553E-01
 -2.77712539E-01  2.71305496E-02 -1.00120698E-01  5.00741786E-33 -6.04345698E-02
  1.11224478E-01 -1.71653269E-02  6.57863754E-02 -5.00741786E-33  7.59569190E-02
 -4.82240175E-02 -1.97808958E-03  7.10613453E-03 -2.40741243E-34  3.76959955E-03
 -2.14232341E-03 -1.71706231E-02  6.57957240E-02 -5.39260384E-33  7.97694808E-02
 -4.16586899E-02 -7.06394885E-02  6.02878661E-01 -1.71774849E-02  6.58052534E-02
 -3.46667390E-33  7.59669131E-02  4.82313099E-02  2.71213633E-02 -1.00115749E-01
  1.92592994E-33 -6.04763208E-02 -1.11270446E-01 -1.08693196E-01  2.88821870E-01
 -2.15704154E-32  4.80835814E-01  2.77661649E-01  2.71362494E-02 -1.00152655E-01
  6.93334780E-33 -1.26545590E-01  3.29429469E-03 -1.71670966E-02  6.57964326E-02
 -3.46667390E-33  7.97673385E-02  4.16998165E-02 -1.98801427E-03  7.17059901E-03
 -1.44444746E-34  3.80019747E-03  2.16172609E-03 -3.96239262E-02 -7.04502190E-02
  6.03005567E-01 -1.99053601E-03  7.16505525E-03  5.38509723E-35  8.19039423E-35
  4.36890991E-03 -1.71659893E-02  6.57868277E-02  1.30000271E-33 -3.76439040E-03
  8.99208644E-02  2.71341998E-02 -1.00144343E-01 -5.00741786E-33  6.61286376E-02
 -1.07948977E-01 -1.08707721E-01  2.88883850E-01  6.84345061E-33  1.04084580E-32
  5.55206674E-01  2.71341998E-02 -1.00144343E-01  2.31111593E-33 -6.61286376E-02
 -1.07948977E-01 -1.71659893E-02  6.57868277E-02  8.90742599E-34  3.76439040E-03
  8.99208644E-02  1.59971591E-02 -3.95487969E-02 -7.04792216E-02  6.02986999E-01
 -1.71774849E-02  6.58052534E-02  5.39260384E-33 -7.59669131E-02  4.82313099E-02
 -1.98801427E-03  7.17059901E-03  2.16667119E-34 -3.80019747E-03  2.16172609E-03
 -1.71670966E-02  6.57964326E-02  5.39260384E-33 -7.97673385E-02  4.16998165E-02
  2.71362494E-02 -1.00152655E-01 -6.93334780E-33  1.26545590E-01  3.29429469E-03
 -1.08693196E-01  2.88821870E-01  3.08148791E-32 -4.80835814E-01  2.77661649E-01
  2.71213633E-02 -1.00115749E-01 -5.00741786E-33  6.04763208E-02 -1.11270446E-01
 -3.96239262E-02  1.59913783E-02 -3.95422291E-02 -7.04792216E-02  6.03005567E-01
  2.71337373E-02 -1.00146890E-01 -6.93334780E-33  1.26439677E-01 -3.15431608E-03
 -1.71706231E-02  6.57957240E-02  3.46667390E-33 -7.97694808E-02 -4.16586899E-02
 -1.97808958E-03  7.10613453E-03  1.68518870E-34 -3.76959955E-03 -2.14232341E-03
 -1.71653269E-02  6.57863754E-02  3.08148791E-33 -7.59569190E-02 -4.82240175E-02
  2.71305496E-02 -1.00120698E-01 -1.92592994E-33  6.04345698E-02  1.11224478E-01
 -1.08737142E-01  2.89039542E-01  2.15704154E-32 -4.80652553E-01 -2.77712539E-01
 -7.06394885E-02 -3.94962467E-02  1.59913783E-02 -3.95487969E-02 -7.04502190E-02
  6.02878661E-01
Mulliken Charges                           R   N=          12
 -6.01841631E-02 -6.05081174E-02 -6.03204473E-02 -6.04646552E-02 -6.03204473E-02
 -6.05081174E-02  6.01951323E-02  6.04673462E-02  6.03891380E-02  6.03978471E-02
  6.03891380E-02  6.04673462E-02
ONIOM Charges                              I   N=          16
           0           0           0           0           0           0
           0           0           0           0           0           0
           0           0           0           0
ONIOM Multiplicities                       I   N=          16
           1           0           0           0           0           0
           0           0           0           0           0           0
           0           0           0           0
Atom Layers                                I   N=          12
           1           1           1           1           1           1
           1           1           1           1           1           1
Atom Modifiers                             I   N=          12
           0           0           0           0           0           0
           0           0           0           0           0           0
Int Atom Modified Types                    I   N=          12
           0           0           0           0           0           0
           0           0           0           0           0           0
Atom Modified Types                        C   N=          12
                                                            
                                                            
                        
Link Atoms                                 I   N=          12
           0           0           0           0           0           0
           0           0           0           0           0           0
Atom Modified MM Charges                   R   N=          12
  0.00000000E+00  0.00000000E+00  0.00000000E+00  0.00000000E+00  0.00000000E+00
  0.00000000E+00  0.00000000E+00  0.00000000E+00  0.00000000E+00  0.00000000E+00
  0.00000000E+00  0.00000000E+00
Link Distances                             R   N=          48
  0.00000000E+00  0.00000000E+00  0.00000000E+00  0.00000000E+00  0.00000000E+00
  0.00000000E+00  0.00000000E+00  0.00000000E+00  0.00000000E+00  0.00000000E+00
  0.00000000E+00  0.00000000E+00  0.00000000E+00  0.00000000E+00  0.00000000E+00
  0.00000000E+00  0.00000000E+00  0.00000000E+00  0.00000000E+00  0.00000000E+00
  0.00000000E+00  0.00000000E+00  0.00000000E+00  0.00000000E+00  0.00000000E+00
  0.00000000E+00  0.00000000E+00  0.00000000E+00  0.00000000E+00  0.00000000E+00
  0.00000000E+00  0.00000000E+00  0.00000000E+00  0.00000000E+00  0.00000000E+00
  0.00000000E+00  0.00000000E+00  0.00000000E+00  0.00000000E+00  0.00000000E+00
  0.00000000E+00  0.00000000E+00  0.00000000E+00  0.00000000E+00  0.00000000E+00
  0.00000000E+00  0.00000000E+00  0.00000000E+00
Cartesian Gradient                         R   N=          36
  0.00000000E+00  0.00000000E+00 -0.00000000E+00  0.00000000E+00  0.00000000E+00
 -0.00000000E+00  0.00000000E+00  0.00000000E+00 -0.00000000E+00  0.00000000E+00
  0.00000000E+00 -0.00000000E+00  0.00000000E+00  0.00000000E+00 -0.00000000E+00
  0.00000000E+00  0.00000000E+00 -0.00000000E+00  0.00000000E+00  0.00000000E+00
 -0.00000000E+00  0.00000000E+00  0.00000000E+00 -0.00000000E+00  0.00000000E+00
  0.00000000E+00 -0.00000000E+00  0.00000000E+00  0.00000000E+00 -0.00000000E+00
  0.00000000E+00  0.00000000E+00 -0.00000000E+00  0.00000000E+00  0.00000000E+00
 -0.00000000E+00
Dipole Moment                              R   N=           3
 -1.76222740E-17 -6.97809497E-16  1.38300169E-04
Quadrupole Moment                          R   N=           6
 -1.96844053E+00  9.86230318E-01  9.82210213E-01  1.62033768E-16  1.19227425E-19
 -2.65603988E-15
QEq coupling tensors                       R   N=          72
  1.48056393E-01 -3.11206821E-17 -7.01598051E-02  1.73221118E-17  1.28878131E-16
 -7.78965875E-02  1.48490804E-01 -1.97315639E-18 -7.63591007E-02  1.19822812E-19
  3.51949739E-03 -7.21317028E-02  1.48059347E-01 -1.97261171E-18 -7.61235728E-02
 -1.20012878E-19 -3.55473381E-03 -7.19357740E-02  1.48502332E-01 -3.10537294E-17
 -7.02023806E-02 -1.73080480E-17  8.22905574E-16 -7.82999509E-02  1.48059347E-01
  1.21447145E-16 -7.61235728E-02  7.01100227E-18  3.55473381E-03 -7.19357740E-02
  1.48490804E-01  1.21483587E-16 -7.63591007E-02 -7.01984130E-18 -3.51949739E-03
 -7.21317028E-02  1.51239044E-01 -1.28834786E-18  1.41841287E-01  3.08113789E-18
 -3.96473407E-18 -2.93080331E-01  1.52226525E-01 -4.29524200E-19 -1.85563781E-01
  1.11400221E-19  1.89600806E-01  3.33372558E-02  1.52226794E-01 -4.29463739E-19
 -1.85579573E-01 -1.11397091E-19 -1.89607827E-01  3.33527784E-02  1.52235203E-01
 -1.28929712E-18  1.42810688E-01 -3.08203839E-18  6.81722712E-17 -2.95045891E-01
  1.52226794E-01 -6.76047832E-17 -1.85579573E-01  4.15517537E-17  1.89607827E-01
  3.33527784E-02  1.52226525E-01 -6.76093301E-17 -1.85563781E-01 -4.15515170E-17
 -1.89600806E-01  3.33372558E-02
ClPar MaxAn                                I              200
ClPar NIntPar                              I               12
ClPar NRealPar                             I               16
ClPar NBits                                I               30
ClPar LenBitVec                            I                1
ClPar Read BitMap                          I   N=         200
           0           0           0           0           0           0
           0           0           0           0           0           0
           0           0           0           0           0           0
           0           0           0           0           0           0
           0           0           0           0           0           0
           0           0           0           0           0           0
           0           0           0           0           0           0
           0           0           0           0           0           0
           0           0           0           0           0           0
           0           0           0           0           0           0
           0           0           0           0           0           0
           0           0           0           0           0           0
           0           0           0           0           0           0
           0           0           0           0           0           0
           0           0           0           0           0           0
           0           0           0           0           0           0
           0           0           0           0           0           0
           0           0           0           0           0           0
           0           0           0           0           0           0
           0           0           0           0           0           0
           0           0           0           0           0           0
           0           0           0           0           0           0
           0           0           0           0           0           0
           0           0           0           0           0           0
           0           0           0           0           0           0
           0           0           0           0           0           0
           0           0           0           0           0           0
           0           0           0           0           0           0
           0           0           0           0           0           0
           0           0           0           0           0           0
           0           0           0           0           0           0
           0           0           0           0           0           0
           0           0           0           0           0           0
           0           0
ClPar Default BitMap                       I   N=         200
      516096      516096      516096      516096      516096      516096
      516096      516096      516096      516096      516096      516096
      516096      516096      516096      516096      516096      516096
      516096      516096      516096      516096      516096      516096
      516096      516096      516096      516096      516096      516096
      516096      516096      516096      516096      516096      516096
      516096      516096      516096      516096      516096      516096
      516096      516096      516096      516096      516096      516096
      516096      516096      516096      516096      516096      516096
      516096      516096      516096      516096      516096      516096
      516096      516096      516096      516096      516096      516096
      516096      516096      516096      516096      516096      516096
      516096      516096      516096      516096      516096      516096
      516096      516096      516096      516096      516096      516096
      516096      516096      122880      122880      122880      122880
      122880      122880      122880      122880      122880      122880
      122880      122880      122880      122880      122880      122880
      122880      122880      122880      122880      122880      122880
      122880      122880      122880      122880      122880      122880
      122880      122880      122880      122880      122880      122880
      122880      122880      122880      122880      122880      122880
      122880      122880      122880      122880      122880      122880
      122880      122880      122880      122880      122880      122880
      122880      122880      122880      122880      122880      122880
      122880      122880      122880      122880      122880      122880
      122880      122880      122880      122880      122880      122880
      122880      122880      122880      122880      122880      122880
      122880      122880      122880      122880      122880      122880
      122880      122880      122880      122880      122880      122880
      122880      122880      122880      122880      122880      122880
      122880      122880      122880      122880      122880      122880
      122880      122880      122880      122880      122880      122880
      122880      122880      122880      122880      122880      122880
      122880      122880
ClPar Int Params                           I   N=        2400
           0           0           0           0           0           0
           0           0           0           0           0           0
           0           0           0           0           0           0
           0           0           0           0           0           0
           0           0           0           0           0           0
           0           0           0           0           0           0
           0           0           0           0           0           0
           0           0           0           0           0           0
           0           0           0           0           0           0
           0           0           0           0           0           0
           0           0           0           0           0           0
           0           0           0           0           0           0
           0           0           0           0           0           0
           0           0           0           0           0           0
           0           0           0           0           0           0
           0           0           0           0           0           0
           0           0           0           0           0           0
           0           0           0           0           0           0
           0           0           0           0           0           0
           0           0           0           0           0           0
           0           0           0           0           0           0
           0           0           0           0           0           0
           0           0           0           0           0           0
           0           0           0           0           0           0
           0           0           0           0           0           0
           0           0           0           0           0           0
           0           0           0           0           0           0
           0           0           0           0           0           0
           0           0           0           0           0           0
           0           0           0           0           0           0
           0           0           0           0           0           0
           0           0           0           0           0           0
           0           0           0           0           0           0
           0           0           0           0           0           0
           0           0           0           0           0           0
           0           0           0           0           0           0
           0           0           0           0           0           0
           0           0           0           0           0           0
           0           0           0           0           0           0
           0           0           0           0           0           0
           0           0           0           0           0           0
           0           0           0           0           0           0
           0           0           0           0           0           0
           0           0           0           0           0           0
           0           0           0           0           0           0
           0           0           0           0           0           0
           0           0           0           0           0           0
           0           0           0           0           0           0
           0           0           0           0           0           0
           0           0           0           0           0           0
           0           0           0           0           0           0
           0           0           0           0           0           0
           0           0           0           0           0           0
           0           0           0           0           0           0
           0           0           0           0           0           0
           0           0           0           0           0           0
           0           0           0           0           0           0
           0           0           0           0           0           0
           0           0           0           0           0           0
           0           0           0           0           0           0
           0           0           0           0           0           0
           0           0           0           0           0           0
           0           0           0           0           0           0
           0           0           0           0           0           0
           0           0           0           0           0           0
           0           0           0           0           0           0
           0           0           0           0           0           0
           0           0           0           0           0           0
           0           0           0           0           0           0
           0           0           0           0           0           0
           0           0           0           0           0           0
           0           0           0           0           0           0
           0           0           0           0           0           0
           0           0           0           0           0           0
           0           0           0           0           0           0
           0           0           0           0           0           0
           0           0           0           0           0           0
           0           0           0           0           0           0
           0           0           0           0           0           0
           0           0           0           0           0           0
           0           0           0           0           0           0
           0           0           0           0           0           0
           0           0           0           0           0           0
           0           0           0           0           0           0
           0           0           0           0           0           0
           0           0           0           0           0           0
           0           0           0           0           0           0
           0           0           0           0           0           0
           0           0           0           0           0           0
           0           0           0           0           0           0
           0           0           0           0           0           0
           0           0           0           0           0           0
           0           0           0           0           0           0
           0           0           0           0           0           0
           0           0           0           0           0           0
           0           0           0           0           0           0
           0           0           0           0           0           0
           0           0           0           0           0           0
           0           0           0           0           0           0
           0           0           0           0           0           0
           0           0           0           0           0           0
           0           0           0           0           0           0
           0           0           0           0           0           0
           0           0           0           0           0           0
           0           0           0           0           0           0
           0           0           0           0           0           0
           0           0           0           0           0           0
           0           0           0           0           0           0
           0           0           0           0           0           0
           0           0           0           0           0           0
           0           0           0           0           0           0
           0           0           0           0           0           0
           0           0           0           0           0           0
           0           0           0           0           0           0
           0           0           0           0           0           0
           0           0           0           0           0           0
           0           0           0           0           0           0
           0           0           0           0           0           0
           0           0           0           0           0           0
           0           0           0           0           0           0
           0           0           0           0           0           0
           0           0           0           0           0           0
           0           0           0           0           0           0
           0           0           0           0           0           0
           0           0           0           0           0           0
           0           0           0           0           0           0
           0           0           0           0           0           0
           0           0           0           0           0           0
           0           0           0           0           0           0
           0           0           0           0           0           0
           0           0           0           0           0           0
           0           0           0           0           0           0
           0           0           0           0           0           0
           0           0           0           0           0           0
           0           0           0           0           0           0
           0           0           0           0           0           0
           0           0           0           0           0           0
           0           0           0           0           0           0
           0           0           0           0           0           0
           0           0           0           0           0           0
           0           0           0           0           0           0
           0           0           0           0           0           0
           0           0           0           0           0           0
           0           0           0           0           0           0
           0           0           0           0           0           0
           0           0           0           0           0           0
           0           0           0           0           0           0
           0           0           0           0           0           0
           0           0           0           0           0           0
           0           0           0           0           0           0
           0           0           0           0           0           0
           0           0           0           0           0           0
           0           0           0           0           0           0
           0           0           0           0           0           0
           0           0           0           0           0           0
           0           0           0           0           0           0
           0           0           0           0           0           0
           0           0           0           0           0           0
           0           0           0           0           0           0
           0           0           0           0           0           0
           0           0           0           0           0           0
           0           0           0           0           0           0
           0           0           0           0           0           0
           0           0           0           0           0           0
           0           0           0           0           0           0
           0           0           0           0           0           0
           0           0           0           0           0           0
           0           0           0           0           0           0
           0           0           0           0           0           0
           0           0           0           0           0           0
           0           0           0           0           0           0
           0           0           0           0           0           0
           0           0           0           0           0           0
           0           0           0           0           0           0
           0           0           0           0           0           0
           0           0           0           0           0           0
           0           0           0           0           0           0
           0           0           0           0           0           0
           0           0           0           0           0           0
           0           0           0           0           0           0
           0           0           0           0           0           0
           0           0           0           0           0           0
           0           0           0           0           0           0
           0           0           0           0           0           0
           0           0           0           0           0           0
           0           0           0           0           0           0
           0           0           0           0           0           0
           0           0           0           0           0           0
           0           0           0           0           0           0
           0           0           0           0           0           0
           0           0           0           0           0           0
           0           0           0           0           0           0
           0           0           0           0           0           0
           0           0           0           0           0           0
           0           0           0           0           0           0
           0           0           0           0           0           0
           0           0           0           0           0           0
           0           0           0           0           0           0
           0           0           0           0           0           0
           0           0           0           0           0           0
           0           0           0           0           0           0
           0           0           0           0           0           0
           0           0           0           0           0           0
           0           0           0           0           0           0
           0           0           0           0           0           0
           0           0           0           0           0           0
           0           0           0           0           0           0
           0           0           0           0           0           0
           0           0           0           0           0           0
           0           0           0           0           0           0
           0           0           0           0           0           0
           0           0           0           0           0           0
           0           0           0           0           0           0
           0           0           0           0           0           0
           0           0           0           0           0           0
           0           0           0           0           0           0
           0           0           0           0           0           0
           0           0           0           0           0           0
           0           0           0           0           0           0
           0           0           0           0           0           0
           0           0           0           0           0           0
           0           0           0           0           0           0
           0           0           0           0           0           0
           0           0           0           0           0           0
           0           0           0           0           0           0
           0           0           0           0           0           0
           0           0           0           0           0           0
           0           0           0           0           0           0
           0           0           0           0           0           0
           0           0           0           0           0           0
           0           0           0           0           0           0
           0           0           0           0           0           0
           0           0           0           0           0           0
           0           0           0           0           0           0
           0           0           0           0           0           0
           0           0           0           0           0           0
           0           0           0           0           0           0
           0           0           0           0           0           0
           0           0           0           0           0           0
           0           0           0           0           0           0
           0           0           0           0           0           0
           0           0           0           0           0           0
           0           0           0           0           0           0
           0           0           0           0           0           0
           0           0           0           0           0           0
           0           0           0           0           0           0
           0           0           0           0           0           0
           0           0           0           0           0           0
           0           0           0           0           0           0
           0           0           0           0           0           0
           0           0           0           0           0           0
           0           0           0           0           0           0
           0           0           0           0           0           0
           0           0           0           0           0           0
           0           0           0           0           0           0
           0           0           0           0           0           0
           0           0           0           0           0           0
           0           0           0           0           0           0
           0           0           0           0           0           0
           0           0           0           0           0           0
           0           0           0           0           0           0
           0           0           0           0           0           0
           0           0           0           0           0           0
           0           0           0           0           0           0
           0           0           0           0           0           0
           0           0           0           0           0           0
           0           0           0           0           0           0
           0           0           0           0           0           0
           0           0           0           0           0           0
           0           0           0           0           0           0
           0           0           0           0           0           0
           0           0           0           0           0           0
           0           0           0           0           0           0
           0           0           0           0           0           0
           0           0           0           0           0           0
           0           0           0           0           0           0
           0           0           0           0           0           0
           0           0           0           0           0           0
           0           0           0           0           0           0
           0           0           0           0           0           0
           0           0           0           0           0           0
           0           0           0           0           0           0
           0           0           0           0           0           0
           0           0           0           0           0           0
           0           0           0           0           0           0
           0           0           0           0           0           0
           0           0           0           0           0           0
           0           0           0           0           0           0
           0           0           0           0           0           0
           0           0           0           0           0           0
           0           0           0           0           0           0
           0           0           0           0           0           0
           0           0           0           0           0           0
           0           0           0           0           0           0
           0           0           0           0           0           0
           0           0           0           0           0           0
           0           0           0           0           0           0
           0           0           0           0           0           0
           0           0           0           0           0           0
           0           0           0           0           0           0
           0           0           0           0           0           0
           0           0           0           0           0           0
           0           0           0           0           0           0
           0           0           0           0           0           0
           0           0           0           0           0           0
           0           0           0           0           0           0
           0           0           0           0           0           0
           0           0           0           0           0           0
           0           0           0           0           0           0
           0           0           0           0           0           0
           0           0           0           0           0           0
           0           0           0           0           0           0
           0           0           0           0           0           0
           0           0           0           0           0           0
           0           0           0           0           0           0
           0           0           0           0           0           0
           0           0           0           0           0           0
           0           0           0           0           0           0
           0           0           0           0           0           0
           0           0           0           0           0           0
           0           0           0           0           0           0
           0           0           0           0           0           0
           0           0           0           0           0           0
           0           0           0           0           0           0
           0           0           0           0           0           0
           0           0           0           0           0           0
           0           0           0           0           0           0
           0           0           0           0           0           0
           0           0           0           0           0           0
           0           0           0           0           0           0
           0           0           0           0           0           0
           0           0           0           0           0           0
           0           0           0           0           0           0
           0           0           0           0           0           0
           0           0           0           0           0           0
           0           0           0           0           0           0
           0           0           0           0           0           0
           0           0           0           0           0           0
           0           0           0           0           0           0
           0           0           0           0           0           0
           0           0           0           0           0           0
           0           0           0           0           0           0
           0           0           0           0           0           0
           0           0           0           0           0           0
           0           0           0           0           0           0
           0           0           0           0           0           0
           0           0           0           0           0           0
           0           0           0           0           0           0
           0           0           0           0           0           0
           0           0           0           0           0           0
           0           0           0           0           0           0
           0           0           0           0           0           0
           0           0           0           0           0           0
           0           0           0           0           0           0
           0           0           0           0           0           0
           0           0           0           0           0           0
           0           0           0           0           0           0
           0           0           0           0           0           0
           0           0           0           0           0           0
           0           0           0           0           0           0
           0           0           0           0           0           0
           0           0           0           0           0           0
           0           0           0           0           0           0
           0           0           0           0           0           0
           0           0           0           0           0           0
           0           0           0           0           0           0
           0           0           0           0           0           0
           0           0           0           0           0           0
           0           0           0           0           0           0
           0           0           0           0           0           0
           0           0           0           0           0           0
           0           0           0           0           0           0
           0           0           0           0           0           0
           0           0           0           0           0           0
           0           0           0           0           0           0
           0           0           0           0           0           0
           0           0           0           0           0           0
           0           0           0           0           0           0
           0           0           0           0           0           0
           0           0           0           0           0           0
           0           0           0           0           0           0
           0           0           0           0           0           0
           0           0           0           0           0           0
           0           0           0           0           0           0
           0           0           0           0           0           0
           0           0           0           0           0           0
           0           0           0           0           0           0
           0           0           0           0           0           0
           0           0           0           0           0           0
           0           0           0           0           0           0
           0           0           0           0           0           0
           0           0           0           0           0           0
           0           0           0           0           0           0
           0           0           0           0           0           0
           0           0           0           0           0           0
           0           0           0           0           0           0
           0           0           0           0           0           0
           0           0           0           0           0           0
           0           0           0           0           0           0
           0           0           0           0           0           0
ClPar Real Params                          R   N=        3200
  0.00000000E+00  0.00000000E+00  0.00000000E+00  0.00000000E+00  0.00000000E+00
  0.00000000E+00  0.00000000E+00  0.00000000E+00  0.00000000E+00  0.00000000E+00
  0.00000000E+00  0.00000000E+00  0.00000000E+00  0.00000000E+00  0.00000000E+00
  0.00000000E+00  0.00000000E+00  0.00000000E+00  0.00000000E+00  0.00000000E+00
  0.00000000E+00  0.00000000E+00  0.00000000E+00  0.00000000E+00  0.00000000E+00
  0.00000000E+00  0.00000000E+00  0.00000000E+00  0.00000000E+00  0.00000000E+00
  0.00000000E+00  0.00000000E+00  0.00000000E+00  0.00000000E+00  0.00000000E+00
  0.00000000E+00  0.00000000E+00  0.00000000E+00  0.00000000E+00  0.00000000E+00
  0.00000000E+00  0.00000000E+00  0.00000000E+00  0.00000000E+00  0.00000000E+00
  0.00000000E+00  0.00000000E+00  0.00000000E+00  0.00000000E+00  0.00000000E+00
  0.00000000E+00  0.00000000E+00  0.00000000E+00  0.00000000E+00  0.00000000E+00
  0.00000000E+00  0.00000000E+00  0.00000000E+00  0.00000000E+00  0.00000000E+00
  0.00000000E+00  0.00000000E+00  0.00000000E+00  0.00000000E+00  0.00000000E+00
  0.00000000E+00  0.00000000E+00  0.00000000E+00  0.00000000E+00  0.00000000E+00
  0.00000000E+00  0.00000000E+00  0.00000000E+00  0.00000000E+00  0.00000000E+00
  0.00000000E+00  0.00000000E+00  0.00000000E+00  0.00000000E+00  0.00000000E+00
  0.00000000E+00  0.00000000E+00  0.00000000E+00  0.00000000E+00  0.00000000E+00
  0.00000000E+00  0.00000000E+00  0.00000000E+00  0.00000000E+00  0.00000000E+00
  0.00000000E+00  0.00000000E+00  0.00000000E+00  0.00000000E+00  0.00000000E+00
  0.00000000E+00  0.00000000E+00  0.00000000E+00  0.00000000E+00  0.00000000E+00
  0.00000000E+00  0.00000000E+00  0.00000000E+00  0.00000000E+00  0.00000000E+00
  0.00000000E+00  0.00000000E+00  0.00000000E+00  0.00000000E+00  0.00000000E+00
  0.00000000E+00  0.00000000E+00  0.00000000E+00  0.00000000E+00  0.00000000E+00
  0.00000000E+00  0.00000000E+00  0.00000000E+00  0.00000000E+00  0.00000000E+00
  0.00000000E+00  0.00000000E+00  0.00000000E+00  0.00000000E+00  0.00000000E+00
  0.00000000E+00  0.00000000E+00  0.00000000E+00  0.00000000E+00  0.00000000E+00
  0.00000000E+00  0.00000000E+00  0.00000000E+00  0.00000000E+00  0.00000000E+00
  0.00000000E+00  0.00000000E+00  0.00000000E+00  0.00000000E+00  0.00000000E+00
  0.00000000E+00  0.00000000E+00  0.00000000E+00  0.00000000E+00  0.00000000E+00
  0.00000000E+00  0.00000000E+00  0.00000000E+00  0.00000000E+00  0.00000000E+00
  0.00000000E+00  0.00000000E+00  0.00000000E+00  0.00000000E+00  0.00000000E+00
  0.00000000E+00  0.00000000E+00  0.00000000E+00  0.00000000E+00  0.00000000E+00
  0.00000000E+00  0.00000000E+00  0.00000000E+00  0.00000000E+00  0.00000000E+00
  0.00000000E+00  0.00000000E+00  0.00000000E+00  0.00000000E+00  0.00000000E+00
  0.00000000E+00  0.00000000E+00  0.00000000E+00  0.00000000E+00  0.00000000E+00
  0.00000000E+00  0.00000000E+00  0.00000000E+00  0.00000000E+00  0.00000000E+00
  0.00000000E+00  0.00000000E+00  0.00000000E+00  0.00000000E+00  0.00000000E+00
  0.00000000E+00  0.00000000E+00  0.00000000E+00  0.00000000E+00  0.00000000E+00
  0.00000000E+00  0.00000000E+00  0.00000000E+00  0.00000000E+00  0.00000000E+00
  0.00000000E+00  0.00000000E+00  0.00000000E+00  0.00000000E+00  0.00000000E+00
  2.26000000E-01  4.43000000E-01  1.01000000E-01  1.47000000E-01  1.92000000E-01
  2.40000000E-01  2.75000000E-01  3.03000000E-01  3.25000000E-01  4.13000000E-01
  9.60000000E-02  1.35000000E-01  1.73000000E-01  2.11000000E-01  2.48000000E-01
  2.86000000E-01  3.23000000E-01  3.60000000E-01  8.20000000E-02  1.04000000E-01
  1.17000000E-01  1.23000000E-01  1.29000000E-01  1.34000000E-01  1.40000000E-01
  1.44000000E-01  1.48000000E-01  1.52000000E-01  1.55000000E-01  1.76000000E-01
  1.98000000E-01  2.19000000E-01  2.39000000E-01  2.60000000E-01  2.80000000E-01
  3.00000000E-01  7.90000000E-02  9.90000000E-02  1.19000000E-01  1.26000000E-01
  1.33000000E-01  1.40000000E-01  1.47000000E-01  1.53000000E-01  1.58000000E-01
  1.63000000E-01  1.57000000E-01  1.70000000E-01  1.87000000E-01  2.03000000E-01
  2.19000000E-01  2.34000000E-01  2.50000000E-01  2.65000000E-01  7.40000000E-02
  9.20000000E-02  1.05000000E-01  1.06000000E-01  1.07000000E-01  1.08000000E-01
  1.09000000E-01  1.10000000E-01  1.11000000E-01  1.12000000E-01  1.13000000E-01
  1.14000000E-01  1.15000000E-01  1.16000000E-01  1.17000000E-01  1.17000000E-01
  1.26000000E-01  1.36000000E-01  1.46000000E-01  1.55000000E-01  1.65000000E-01
  1.73000000E-01  1.82000000E-01  1.90000000E-01  1.62000000E-01  1.78000000E-01
  1.10000000E-01  1.35000000E-01  1.59000000E-01  1.83000000E-01  2.07000000E-01
  2.31000000E-01  6.90000000E-02  9.40000000E-02  1.02000000E-01  1.03000000E-01
  1.05000000E-01  1.07000000E-01  1.09000000E-01  1.11000000E-01  1.13000000E-01
  1.15000000E-01  1.17000000E-01  1.19000000E-01  1.20000000E-01  1.22000000E-01
  1.24000000E-01  1.26000000E-01  1.28000000E-01  1.28000000E-01  1.28000000E-01
  1.28000000E-01  1.28000000E-01  1.28000000E-01  1.28000000E-01  1.28000000E-01
  1.28000000E-01  1.28000000E-01  1.28000000E-01  1.28000000E-01  1.28000000E-01
  1.28000000E-01  1.28000000E-01  1.28000000E-01  1.28000000E-01  1.28000000E-01
  1.28000000E-01  1.28000000E-01  1.28000000E-01  1.28000000E-01  1.28000000E-01
  1.28000000E-01  1.28000000E-01  1.28000000E-01  1.28000000E-01  1.28000000E-01
  1.28000000E-01  1.28000000E-01  1.28000000E-01  1.28000000E-01  1.28000000E-01
  1.28000000E-01  1.28000000E-01  1.28000000E-01  1.28000000E-01  1.28000000E-01
  1.28000000E-01  1.28000000E-01  1.28000000E-01  1.28000000E-01  1.28000000E-01
  1.28000000E-01  1.28000000E-01  1.28000000E-01  1.28000000E-01  1.28000000E-01
  1.28000000E-01  1.28000000E-01  1.28000000E-01  1.28000000E-01  1.28000000E-01
  1.28000000E-01  1.28000000E-01  1.28000000E-01  1.28000000E-01  1.28000000E-01
  1.28000000E-01  1.28000000E-01  1.28000000E-01  1.28000000E-01  1.28000000E-01
  1.28000000E-01  1.28000000E-01  1.28000000E-01  1.28000000E-01  1.28000000E-01
  1.28000000E-01  1.28000000E-01  1.28000000E-01  1.28000000E-01  1.28000000E-01
  1.28000000E-01  1.28000000E-01  1.28000000E-01  1.28000000E-01  1.28000000E-01
  1.28000000E-01  1.28000000E-01  1.28000000E-01  1.28000000E-01  1.28000000E-01
  1.28000000E-01  1.28000000E-01  1.28000000E-01  1.28000000E-01  1.28000000E-01
  1.28000000E-01  1.28000000E-01  1.28000000E-01  1.28000000E-01  1.28000000E-01
  1.28000000E-01  1.28000000E-01  1.28000000E-01  1.28000000E-01  1.28000000E-01
  5.47000000E-01  5.92000000E-01  5.99000000E-01  6.68000000E-01  6.98000000E-01
  7.18000000E-01  7.26000000E-01  7.36000000E-01  7.43000000E-01  7.45000000E-01
  6.07000000E-01  6.66000000E-01  6.93000000E-01  7.09000000E-01  7.20000000E-01
  7.29000000E-01  7.35000000E-01  7.40000000E-01  6.08000000E-01  7.34000000E-01
  7.46000000E-01  7.55000000E-01  7.61000000E-01  7.65000000E-01  7.67000000E-01
  7.60000000E-01  7.49000000E-01  7.33000000E-01  7.08000000E-01  6.48000000E-01
  6.88000000E-01  7.09000000E-01  7.22000000E-01  7.31000000E-01  7.38000000E-01
  7.44000000E-01  6.09000000E-01  7.30000000E-01  7.41000000E-01  7.52000000E-01
  7.58000000E-01  7.63000000E-01  7.66000000E-01  7.58000000E-01  7.48000000E-01
  7.33000000E-01  7.01000000E-01  6.45000000E-01  6.86000000E-01  7.08000000E-01
  7.22000000E-01  7.31000000E-01  7.38000000E-01  7.44000000E-01  6.08000000E-01
  7.28000000E-01  7.32000000E-01  7.32000000E-01  7.32000000E-01  7.32000000E-01
  7.32000000E-01  7.32000000E-01  7.32000000E-01  7.32000000E-01  7.32000000E-01
  7.31000000E-01  7.31000000E-01  7.31000000E-01  7.31000000E-01  7.46000000E-01
  7.37000000E-01  7.46000000E-01  7.51000000E-01  7.55000000E-01  7.58000000E-01
  7.47000000E-01  7.32000000E-01  7.11000000E-01  7.41000000E-01  7.07000000E-01
  7.47000000E-01  7.43000000E-01  7.42000000E-01  7.42000000E-01  7.43000000E-01
  7.44000000E-01  6.05000000E-01  7.24000000E-01  7.26000000E-01  7.26000000E-01
  7.27000000E-01  7.27000000E-01  7.27000000E-01  7.28000000E-01  7.28000000E-01
  7.28000000E-01  7.28000000E-01  7.28000000E-01  7.29000000E-01  7.29000000E-01
  7.29000000E-01  7.29000000E-01  7.29000000E-01  7.29000000E-01  7.29000000E-01
  7.29000000E-01  7.29000000E-01  7.29000000E-01  7.29000000E-01  7.29000000E-01
  7.29000000E-01  7.29000000E-01  7.29000000E-01  7.29000000E-01  7.29000000E-01
  7.29000000E-01  7.29000000E-01  7.29000000E-01  7.29000000E-01  7.29000000E-01
  7.29000000E-01  7.29000000E-01  7.29000000E-01  7.29000000E-01  7.29000000E-01
  7.29000000E-01  7.29000000E-01  7.29000000E-01  7.29000000E-01  7.29000000E-01
  7.29000000E-01  7.29000000E-01  7.29000000E-01  7.29000000E-01  7.29000000E-01
  7.29000000E-01  7.29000000E-01  7.29000000E-01  7.29000000E-01  7.29000000E-01
  7.29000000E-01  7.29000000E-01  7.29000000E-01  7.29000000E-01  7.29000000E-01
  7.29000000E-01  7.29000000E-01  7.29000000E-01  7.29000000E-01  7.29000000E-01
  7.29000000E-01  7.29000000E-01  7.29000000E-01  7.29000000E-01  7.29000000E-01
  7.29000000E-01  7.29000000E-01  7.29000000E-01  7.29000000E-01  7.29000000E-01
  7.29000000E-01  7.29000000E-01  7.29000000E-01  7.29000000E-01  7.29000000E-01
  7.29000000E-01  7.29000000E-01  7.29000000E-01  7.29000000E-01  7.29000000E-01
  7.29000000E-01  7.29000000E-01  7.29000000E-01  7.29000000E-01  7.29000000E-01
  7.29000000E-01  7.29000000E-01  7.29000000E-01  7.29000000E-01  7.29000000E-01
  7.29000000E-01  7.29000000E-01  7.29000000E-01  7.29000000E-01  7.29000000E-01
  7.29000000E-01  7.29000000E-01  7.29000000E-01  7.29000000E-01  7.29000000E-01
  7.29000000E-01  7.29000000E-01  7.29000000E-01  7.29000000E-01  7.29000000E-01
  7.29000000E-01  7.29000000E-01  7.29000000E-01  7.29000000E-01  7.29000000E-01
  1.00000000E+00  1.70400000E+00  3.23000000E-01  3.89000000E-01  4.67000000E-01
  5.67000000E-01  6.36000000E-01  6.64000000E-01  6.96000000E-01  8.79000000E-01
  3.07000000E-01  3.48000000E-01  4.00000000E-01  4.54000000E-01  5.09000000E-01
  5.65000000E-01  6.21000000E-01  6.77000000E-01  2.56000000E-01  3.50000000E-01
  3.64000000E-01  3.62000000E-01  3.62000000E-01  3.62000000E-01  3.62000000E-01
  3.65000000E-01  3.69000000E-01  3.75000000E-01  3.86000000E-01  4.46000000E-01
  4.55000000E-01  4.74000000E-01  4.96000000E-01  5.20000000E-01  5.45000000E-01
  5.70000000E-01  2.45000000E-01  3.22000000E-01  3.55000000E-01  3.59000000E-01
  3.64000000E-01  3.70000000E-01  3.76000000E-01  3.85000000E-01  3.95000000E-01
  4.08000000E-01  3.76000000E-01  4.23000000E-01  4.22000000E-01  4.32000000E-01
  4.45000000E-01  4.59000000E-01  4.75000000E-01  4.91000000E-01  2.28000000E-01
  2.92000000E-01  2.89000000E-01  2.92000000E-01  2.95000000E-01  2.98000000E-01
  3.00000000E-01  3.03000000E-01  3.06000000E-01  3.09000000E-01  3.12000000E-01
  3.15000000E-01  3.18000000E-01  3.21000000E-01  3.24000000E-01  3.61000000E-01
  3.69000000E-01  3.70000000E-01  3.72000000E-01  3.75000000E-01  3.78000000E-01
  3.85000000E-01  3.94000000E-01  4.07000000E-01  5.26000000E-01  6.21000000E-01
  3.36000000E-01  3.54000000E-01  3.71000000E-01  3.86000000E-01  4.02000000E-01
  4.17000000E-01  2.09000000E-01  2.94000000E-01  2.65000000E-01  2.72000000E-01
  2.78000000E-01  2.84000000E-01  2.91000000E-01  2.97000000E-01  3.03000000E-01
  3.10000000E-01  3.16000000E-01  3.22000000E-01  3.29000000E-01  3.35000000E-01
  3.41000000E-01  3.48000000E-01  3.54000000E-01  3.54000000E-01  3.54000000E-01
  3.54000000E-01  3.54000000E-01  3.54000000E-01  3.54000000E-01  3.54000000E-01
  3.54000000E-01  3.54000000E-01  3.54000000E-01  3.54000000E-01  3.54000000E-01
  3.54000000E-01  3.54000000E-01  3.54000000E-01  3.54000000E-01  3.54000000E-01
  3.54000000E-01  3.54000000E-01  3.54000000E-01  3.54000000E-01  3.54000000E-01
  3.54000000E-01  3.54000000E-01  3.54000000E-01  3.54000000E-01  3.54000000E-01
  3.54000000E-01  3.54000000E-01  3.54000000E-01  3.54000000E-01  3.54000000E-01
  3.54000000E-01  3.54000000E-01  3.54000000E-01  3.54000000E-01  3.54000000E-01
  3.54000000E-01  3.54000000E-01  3.54000000E-01  3.54000000E-01  3.54000000E-01
  3.54000000E-01  3.54000000E-01  3.54000000E-01  3.54000000E-01  3.54000000E-01
  3.54000000E-01  3.54000000E-01  3.54000000E-01  3.54000000E-01  3.54000000E-01
  3.54000000E-01  3.54000000E-01  3.54000000E-01  3.54000000E-01  3.54000000E-01
  3.54000000E-01  3.54000000E-01  3.54000000E-01  3.54000000E-01  3.54000000E-01
  3.54000000E-01  3.54000000E-01  3.54000000E-01  3.54000000E-01  3.54000000E-01
  3.54000000E-01  3.54000000E-01  3.54000000E-01  3.54000000E-01  3.54000000E-01
  3.54000000E-01  3.54000000E-01  3.54000000E-01  3.54000000E-01  3.54000000E-01
  3.54000000E-01  3.54000000E-01  3.54000000E-01  3.54000000E-01  3.54000000E-01
  3.54000000E-01  3.54000000E-01  3.54000000E-01  3.54000000E-01  3.54000000E-01
  3.54000000E-01  3.54000000E-01  3.54000000E-01  3.54000000E-01  3.54000000E-01
  3.54000000E-01  3.54000000E-01  3.54000000E-01  3.54000000E-01  3.54000000E-01
  2.74000000E-01  2.96000000E-01  5.80000000E-02  4.40000000E-02  3.90000000E-02
  3.90000000E-02  3.60000000E-02  3.20000000E-02  2.90000000E-02  3.30000000E-02
  5.50000000E-02  3.90000000E-02  3.30000000E-02  3.00000000E-02  2.80000000E-02
  2.60000000E-02  2.50000000E-02  2.50000000E-02  4.50000000E-02  4.40000000E-02
  3.30000000E-02  2.50000000E-02  2.10000000E-02  1.80000000E-02  1.50000000E-02
  1.80000000E-02  2.10000000E-02  2.50000000E-02  3.30000000E-02  5.00000000E-02
  3.80000000E-02  3.10000000E-02  2.70000000E-02  2.40000000E-02  2.20000000E-02
  2.10000000E-02  4.30000000E-02  4.00000000E-02  3.20000000E-02  2.50000000E-02
  2.10000000E-02  1.80000000E-02  1.60000000E-02  1.90000000E-02  2.20000000E-02
  2.80000000E-02  3.10000000E-02  4.70000000E-02  3.40000000E-02  2.80000000E-02
  2.40000000E-02  2.10000000E-02  1.90000000E-02  1.80000000E-02  3.90000000E-02
  3.60000000E-02  2.50000000E-02  2.50000000E-02  2.50000000E-02  2.60000000E-02
  2.60000000E-02  2.60000000E-02  2.70000000E-02  2.70000000E-02  2.70000000E-02
  2.70000000E-02  2.80000000E-02  2.80000000E-02  2.80000000E-02  3.30000000E-02
  3.30000000E-02  2.60000000E-02  2.10000000E-02  1.80000000E-02  1.60000000E-02
  1.80000000E-02  2.20000000E-02  2.60000000E-02  4.90000000E-02  8.20000000E-02
  3.00000000E-02  2.40000000E-02  2.10000000E-02  1.80000000E-02  1.60000000E-02
  1.50000000E-02  3.50000000E-02  3.60000000E-02  2.20000000E-02  2.30000000E-02
  2.40000000E-02  2.40000000E-02  2.50000000E-02  2.50000000E-02  2.60000000E-02
  2.70000000E-02  2.70000000E-02  2.80000000E-02  2.80000000E-02  2.90000000E-02
  3.00000000E-02  3.00000000E-02  3.10000000E-02  3.10000000E-02  3.10000000E-02
  3.10000000E-02  3.10000000E-02  3.10000000E-02  3.10000000E-02  3.10000000E-02
  3.10000000E-02  3.10000000E-02  3.10000000E-02  3.10000000E-02  3.10000000E-02
  3.10000000E-02  3.10000000E-02  3.10000000E-02  3.10000000E-02  3.10000000E-02
  3.10000000E-02  3.10000000E-02  3.10000000E-02  3.10000000E-02  3.10000000E-02
  3.10000000E-02  3.10000000E-02  3.10000000E-02  3.10000000E-02  3.10000000E-02
  3.10000000E-02  3.10000000E-02  3.10000000E-02  3.10000000E-02  3.10000000E-02
  3.10000000E-02  3.10000000E-02  3.10000000E-02  3.10000000E-02  3.10000000E-02
  3.10000000E-02  3.10000000E-02  3.10000000E-02  3.10000000E-02  3.10000000E-02
  3.10000000E-02  3.10000000E-02  3.10000000E-02  3.10000000E-02  3.10000000E-02
  3.10000000E-02  3.10000000E-02  3.10000000E-02  3.10000000E-02  3.10000000E-02
  3.10000000E-02  3.10000000E-02  3.10000000E-02  3.10000000E-02  3.10000000E-02
  3.10000000E-02  3.10000000E-02  3.10000000E-02  3.10000000E-02  3.10000000E-02
  3.10000000E-02  3.10000000E-02  3.10000000E-02  3.10000000E-02  3.10000000E-02
  3.10000000E-02  3.10000000E-02  3.10000000E-02  3.10000000E-02  3.10000000E-02
  3.10000000E-02  3.10000000E-02  3.10000000E-02  3.10000000E-02  3.10000000E-02
  3.10000000E-02  3.10000000E-02  3.10000000E-02  3.10000000E-02  3.10000000E-02
  3.10000000E-02  3.10000000E-02  3.10000000E-02  3.10000000E-02  3.10000000E-02
  3.10000000E-02  3.10000000E-02  3.10000000E-02  3.10000000E-02  3.10000000E-02
  3.10000000E-02  3.10000000E-02  3.10000000E-02  3.10000000E-02  3.10000000E-02
 -5.92770000E-01 -9.17860000E-01 -2.48668000E+00 -8.36430000E-01 -3.18470000E-01
 -4.55790000E-01 -5.70730000E-01 -6.77940000E-01 -7.69860000E-01 -8.51140000E-01
 -1.51908000E+00 -3.18830000E-01 -2.17900000E-01 -3.01260000E-01 -3.72750000E-01
 -4.15890000E-01 -4.45930000E-01 -5.91320000E-01 -9.56370000E-01 -2.88450000E-01
 -4.87320000E-01 -6.34280000E-01 -7.17490000E-01 -7.91980000E-01 -8.68490000E-01
 -9.17520000E-01 -9.54890000E-01 -9.88460000E-01 -1.50055000E+00 -2.92560000E-01
 -2.14960000E-01 -2.91180000E-01 -3.42080000E-01 -3.84480000E-01 -4.34940000E-01
 -5.24310000E-01 -8.10070000E-01 -2.58460000E-01 -4.35550000E-01 -5.32740000E-01
 -6.08450000E-01 -6.10260000E-01 -7.58920000E-01 -8.90130000E-01 -8.45780000E-01
 -8.69340000E-01 -1.38234000E+00 -2.64850000E-01 -1.97280000E-01 -2.65040000E-01
 -2.94470000E-01 -3.16570000E-01 -3.63590000E-01 -4.57840000E-01 -8.61830000E-01
 -1.33004000E+00 -6.82880000E-01 -6.25540000E-01 -6.35430000E-01 -8.79690000E-01
 -9.02690000E-01 -9.59650000E-01 -1.01869000E+00 -6.81170000E-01 -7.96500000E-01
 -9.04950000E-01 -8.34790000E-01 -9.01560000E-01 -9.74130000E-01 -1.03326000E+00
 -7.15490000E-01 -7.83960000E-01 -8.28380000E-01 -5.61040000E-01 -1.03841000E+00
 -8.62500000E-01 -9.59300000E-01 -1.01755000E+00 -7.64900000E-01 -1.29467000E+00
 -1.92740000E-01 -2.56010000E-01 -3.19820000E-01 -1.94660000E-01 -2.60090000E-01
 -4.27990000E-01  0.00000000E+00  0.00000000E+00  0.00000000E+00  0.00000000E+00
  0.00000000E+00  0.00000000E+00  0.00000000E+00  0.00000000E+00  0.00000000E+00
  0.00000000E+00  0.00000000E+00  0.00000000E+00  0.00000000E+00  0.00000000E+00
  0.00000000E+00  0.00000000E+00  0.00000000E+00  0.00000000E+00  0.00000000E+00
  0.00000000E+00  0.00000000E+00  0.00000000E+00  0.00000000E+00  0.00000000E+00
  0.00000000E+00  0.00000000E+00  0.00000000E+00  0.00000000E+00  0.00000000E+00
  0.00000000E+00  0.00000000E+00  0.00000000E+00  0.00000000E+00  0.00000000E+00
  0.00000000E+00  0.00000000E+00  0.00000000E+00  0.00000000E+00  0.00000000E+00
  0.00000000E+00  0.00000000E+00  0.00000000E+00  0.00000000E+00  0.00000000E+00
  0.00000000E+00  0.00000000E+00  0.00000000E+00  0.00000000E+00  0.00000000E+00
  0.00000000E+00  0.00000000E+00  0.00000000E+00  0.00000000E+00  0.00000000E+00
  0.00000000E+00  0.00000000E+00  0.00000000E+00  0.00000000E+00  0.00000000E+00
  0.00000000E+00  0.00000000E+00  0.00000000E+00  0.00000000E+00  0.00000000E+00
  0.00000000E+00  0.00000000E+00  0.00000000E+00  0.00000000E+00  0.00000000E+00
  0.00000000E+00  0.00000000E+00  0.00000000E+00  0.00000000E+00  0.00000000E+00
  0.00000000E+00  0.00000000E+00  0.00000000E+00  0.00000000E+00  0.00000000E+00
  0.00000000E+00  0.00000000E+00  0.00000000E+00  0.00000000E+00  0.00000000E+00
  0.00000000E+00  0.00000000E+00  0.00000000E+00  0.00000000E+00  0.00000000E+00
  0.00000000E+00  0.00000000E+00  0.00000000E+00  0.00000000E+00  0.00000000E+00
  0.00000000E+00  0.00000000E+00  0.00000000E+00  0.00000000E+00  0.00000000E+00
  0.00000000E+00  0.00000000E+00  0.00000000E+00  0.00000000E+00  0.00000000E+00
  0.00000000E+00  0.00000000E+00  0.00000000E+00  0.00000000E+00  0.00000000E+00
  0.00000000E+00  0.00000000E+00  0.00000000E+00  0.00000000E+00  0.00000000E+00
  1.90440000E+00  1.36430000E+00  4.84000000E-01  7.31600000E+00  9.24030000E+00
  8.78200000E+00  5.61290000E+00  4.83340000E+00  3.24870000E+00  2.71090000E+00
  2.01130000E+00  1.50282000E+01  1.46788000E+01  2.13546000E+01  2.38290000E+01
  1.98022000E+01  1.50468000E+01  1.09745000E+01  1.27219000E+01  1.51949000E+01
  1.57342000E+01  2.79222000E+01  1.61366000E+01  2.21252000E+01  2.45676000E+01
  1.96016000E+01  1.79818000E+01  1.72396000E+01  5.01500000E+00  1.92898000E+01
  2.34477000E+01  2.23993000E+01  2.96586000E+01  2.60081000E+01  2.15580000E+01
  1.69594000E+01  1.56479000E+01  1.86897000E+01  1.93530000E+01  3.43444000E+01
  1.98480000E+01  2.72140000E+01  3.02182000E+01  2.41099000E+01  2.21176000E+01
  2.12047000E+01  7.56690000E+00  2.37264000E+01  2.93879000E+01  3.01278000E+01
  4.19382000E+01  3.85203000E+01  3.39511000E+01  2.75774000E+01  1.56460000E+01
  1.04460000E+01  2.01830000E+01  4.99540000E+01  4.76430000E+01  1.18690000E+01
  1.08670000E+01  9.96100000E+00  9.18700000E+00  3.67980000E+01  1.34070000E+01
  9.38200000E+00  9.81700000E+00  8.90800000E+00  8.40700000E+00  8.05800000E+00
  1.29600000E+01  2.67920000E+01  2.49300000E+01  3.45630000E+01  1.11860000E+01
  1.09440000E+01  1.01270000E+01  9.40400000E+00  1.36660000E+01  7.81000000E+00
  6.93600000E+01  5.86630000E+01  4.79690000E+01  4.52740000E+01  3.92290000E+01
  3.30660000E+01  0.00000000E+00  0.00000000E+00  0.00000000E+00  0.00000000E+00
  0.00000000E+00  0.00000000E+00  0.00000000E+00  0.00000000E+00  0.00000000E+00
  0.00000000E+00  0.00000000E+00  0.00000000E+00  0.00000000E+00  0.00000000E+00
  0.00000000E+00  0.00000000E+00  0.00000000E+00  0.00000000E+00  0.00000000E+00
  0.00000000E+00  0.00000000E+00  0.00000000E+00  0.00000000E+00  0.00000000E+00
  0.00000000E+00  0.00000000E+00  0.00000000E+00  0.00000000E+00  0.00000000E+00
  0.00000000E+00  0.00000000E+00  0.00000000E+00  0.00000000E+00  0.00000000E+00
  0.00000000E+00  0.00000000E+00  0.00000000E+00  0.00000000E+00  0.00000000E+00
  0.00000000E+00  0.00000000E+00  0.00000000E+00  0.00000000E+00  0.00000000E+00
  0.00000000E+00  0.00000000E+00  0.00000000E+00  0.00000000E+00  0.00000000E+00
  0.00000000E+00  0.00000000E+00  0.00000000E+00  0.00000000E+00  0.00000000E+00
  0.00000000E+00  0.00000000E+00  0.00000000E+00  0.00000000E+00  0.00000000E+00
  0.00000000E+00  0.00000000E+00  0.00000000E+00  0.00000000E+00  0.00000000E+00
  0.00000000E+00  0.00000000E+00  0.00000000E+00  0.00000000E+00  0.00000000E+00
  0.00000000E+00  0.00000000E+00  0.00000000E+00  0.00000000E+00  0.00000000E+00
  0.00000000E+00  0.00000000E+00  0.00000000E+00  0.00000000E+00  0.00000000E+00
  0.00000000E+00  0.00000000E+00  0.00000000E+00  0.00000000E+00  0.00000000E+00
  0.00000000E+00  0.00000000E+00  0.00000000E+00  0.00000000E+00  0.00000000E+00
  0.00000000E+00  0.00000000E+00  0.00000000E+00  0.00000000E+00  0.00000000E+00
  0.00000000E+00  0.00000000E+00  0.00000000E+00  0.00000000E+00  0.00000000E+00
  0.00000000E+00  0.00000000E+00  0.00000000E+00  0.00000000E+00  0.00000000E+00
  0.00000000E+00  0.00000000E+00  0.00000000E+00  0.00000000E+00  0.00000000E+00
  0.00000000E+00  0.00000000E+00  0.00000000E+00  0.00000000E+00  0.00000000E+00
  0.00000000E+00  0.00000000E+00  0.00000000E+00  0.00000000E+00  0.00000000E+00
  0.00000000E+00  0.00000000E+00  0.00000000E+00  0.00000000E+00  0.00000000E+00
  0.00000000E+00  0.00000000E+00  0.00000000E+00  0.00000000E+00  0.00000000E+00
  0.00000000E+00  0.00000000E+00  0.00000000E+00  0.00000000E+00  0.00000000E+00
  0.00000000E+00  0.00000000E+00  0.00000000E+00  0.00000000E+00  0.00000000E+00
  0.00000000E+00  0.00000000E+00  0.00000000E+00  0.00000000E+00  0.00000000E+00
  0.00000000E+00  0.00000000E+00  0.00000000E+00  0.00000000E+00  0.00000000E+00
  0.00000000E+00  0.00000000E+00  0.00000000E+00  0.00000000E+00  0.00000000E+00
  0.00000000E+00  0.00000000E+00  0.00000000E+00  0.00000000E+00  0.00000000E+00
  0.00000000E+00  0.00000000E+00  0.00000000E+00  0.00000000E+00  0.00000000E+00
  0.00000000E+00  0.00000000E+00  0.00000000E+00  0.00000000E+00  0.00000000E+00
  0.00000000E+00  0.00000000E+00  0.00000000E+00  0.00000000E+00  0.00000000E+00
  0.00000000E+00  0.00000000E+00  0.00000000E+00  0.00000000E+00  0.00000000E+00
  0.00000000E+00  0.00000000E+00  0.00000000E+00  0.00000000E+00  0.00000000E+00
  0.00000000E+00  0.00000000E+00  0.00000000E+00  0.00000000E+00  0.00000000E+00
  0.00000000E+00  0.00000000E+00  0.00000000E+00  0.00000000E+00  0.00000000E+00
  0.00000000E+00  0.00000000E+00  0.00000000E+00  0.00000000E+00  0.00000000E+00
  0.00000000E+00  0.00000000E+00  0.00000000E+00  0.00000000E+00  0.00000000E+00
  0.00000000E+00  0.00000000E+00  0.00000000E+00  0.00000000E+00  0.00000000E+00
  0.00000000E+00  0.00000000E+00  0.00000000E+00  0.00000000E+00  0.00000000E+00
  0.00000000E+00  0.00000000E+00  0.00000000E+00  0.00000000E+00  0.00000000E+00
  0.00000000E+00  0.00000000E+00  0.00000000E+00  0.00000000E+00  0.00000000E+00
  0.00000000E+00  0.00000000E+00  0.00000000E+00  0.00000000E+00  0.00000000E+00
  0.00000000E+00  0.00000000E+00  0.00000000E+00  0.00000000E+00  0.00000000E+00
  0.00000000E+00  0.00000000E+00  0.00000000E+00  0.00000000E+00  0.00000000E+00
  0.00000000E+00  0.00000000E+00  0.00000000E+00  0.00000000E+00  0.00000000E+00
  0.00000000E+00  0.00000000E+00  0.00000000E+00  0.00000000E+00  0.00000000E+00
  0.00000000E+00  0.00000000E+00  0.00000000E+00  0.00000000E+00  0.00000000E+00
  0.00000000E+00  0.00000000E+00  0.00000000E+00  0.00000000E+00  0.00000000E+00
  0.00000000E+00  0.00000000E+00  0.00000000E+00  0.00000000E+00  0.00000000E+00
  0.00000000E+00  0.00000000E+00  0.00000000E+00  0.00000000E+00  0.00000000E+00
  0.00000000E+00  0.00000000E+00  0.00000000E+00  0.00000000E+00  0.00000000E+00
  0.00000000E+00  0.00000000E+00  0.00000000E+00  0.00000000E+00  0.00000000E+00
  0.00000000E+00  0.00000000E+00  0.00000000E+00  0.00000000E+00  0.00000000E+00
  0.00000000E+00  0.00000000E+00  0.00000000E+00  0.00000000E+00  0.00000000E+00
  0.00000000E+00  0.00000000E+00  0.00000000E+00  0.00000000E+00  0.00000000E+00
  0.00000000E+00  0.00000000E+00  0.00000000E+00  0.00000000E+00  0.00000000E+00
  0.00000000E+00  0.00000000E+00  0.00000000E+00  0.00000000E+00  0.00000000E+00
  0.00000000E+00  0.00000000E+00  0.00000000E+00  0.00000000E+00  0.00000000E+00
  0.00000000E+00  0.00000000E+00  0.00000000E+00  0.00000000E+00  0.00000000E+00
  0.00000000E+00  0.00000000E+00  0.00000000E+00  0.00000000E+00  0.00000000E+00
  0.00000000E+00  0.00000000E+00  0.00000000E+00  0.00000000E+00  0.00000000E+00
  0.00000000E+00  0.00000000E+00  0.00000000E+00  0.00000000E+00  0.00000000E+00
  0.00000000E+00  0.00000000E+00  0.00000000E+00  0.00000000E+00  0.00000000E+00
  0.00000000E+00  0.00000000E+00  0.00000000E+00  0.00000000E+00  0.00000000E+00
  0.00000000E+00  0.00000000E+00  0.00000000E+00  0.00000000E+00  0.00000000E+00
  0.00000000E+00  0.00000000E+00  0.00000000E+00  0.00000000E+00  0.00000000E+00
  0.00000000E+00  0.00000000E+00  0.00000000E+00  0.00000000E+00  0.00000000E+00
  0.00000000E+00  0.00000000E+00  0.00000000E+00  0.00000000E+00  0.00000000E+00
  0.00000000E+00  0.00000000E+00  0.00000000E+00  0.00000000E+00  0.00000000E+00
  0.00000000E+00  0.00000000E+00  0.00000000E+00  0.00000000E+00  0.00000000E+00
  0.00000000E+00  0.00000000E+00  0.00000000E+00  0.00000000E+00  0.00000000E+00
  0.00000000E+00  0.00000000E+00  0.00000000E+00  0.00000000E+00  0.00000000E+00
  0.00000000E+00  0.00000000E+00  0.00000000E+00  0.00000000E+00  0.00000000E+00
  0.00000000E+00  0.00000000E+00  0.00000000E+00  0.00000000E+00  0.00000000E+00
  0.00000000E+00  0.00000000E+00  0.00000000E+00  0.00000000E+00  0.00000000E+00
  0.00000000E+00  0.00000000E+00  0.00000000E+00  0.00000000E+00  0.00000000E+00
  0.00000000E+00  0.00000000E+00  0.00000000E+00  0.00000000E+00  0.00000000E+00
  0.00000000E+00  0.00000000E+00  0.00000000E+00  0.00000000E+00  0.00000000E+00
  0.00000000E+00  0.00000000E+00  0.00000000E+00  0.00000000E+00  0.00000000E+00
  0.00000000E+00  0.00000000E+00  0.00000000E+00  0.00000000E+00  0.00000000E+00
  0.00000000E+00  0.00000000E+00  0.00000000E+00  0.00000000E+00  0.00000000E+00
  0.00000000E+00  0.00000000E+00  0.00000000E+00  0.00000000E+00  0.00000000E+00
  0.00000000E+00  0.00000000E+00  0.00000000E+00  0.00000000E+00  0.00000000E+00
  0.00000000E+00  0.00000000E+00  0.00000000E+00  0.00000000E+00  0.00000000E+00
  0.00000000E+00  0.00000000E+00  0.00000000E+00  0.00000000E+00  0.00000000E+00
  0.00000000E+00  0.00000000E+00  0.00000000E+00  0.00000000E+00  0.00000000E+00
  0.00000000E+00  0.00000000E+00  0.00000000E+00  0.00000000E+00  0.00000000E+00
  0.00000000E+00  0.00000000E+00  0.00000000E+00  0.00000000E+00  0.00000000E+00
  0.00000000E+00  0.00000000E+00  0.00000000E+00  0.00000000E+00  0.00000000E+00
  0.00000000E+00  0.00000000E+00  0.00000000E+00  0.00000000E+00  0.00000000E+00
  0.00000000E+00  0.00000000E+00  0.00000000E+00  0.00000000E+00  0.00000000E+00
  0.00000000E+00  0.00000000E+00  0.00000000E+00  0.00000000E+00  0.00000000E+00
  0.00000000E+00  0.00000000E+00  0.00000000E+00  0.00000000E+00  0.00000000E+00
  0.00000000E+00  0.00000000E+00  0.00000000E+00  0.00000000E+00  0.00000000E+00
  0.00000000E+00  0.00000000E+00  0.00000000E+00  0.00000000E+00  0.00000000E+00
  0.00000000E+00  0.00000000E+00  0.00000000E+00  0.00000000E+00  0.00000000E+00
  0.00000000E+00  0.00000000E+00  0.00000000E+00  0.00000000E+00  0.00000000E+00
  0.00000000E+00  0.00000000E+00  0.00000000E+00  0.00000000E+00  0.00000000E+00
  0.00000000E+00  0.00000000E+00  0.00000000E+00  0.00000000E+00  0.00000000E+00
  0.00000000E+00  0.00000000E+00  0.00000000E+00  0.00000000E+00  0.00000000E+00
  0.00000000E+00  0.00000000E+00  0.00000000E+00  0.00000000E+00  0.00000000E+00
  0.00000000E+00  0.00000000E+00  0.00000000E+00  0.00000000E+00  0.00000000E+00
  0.00000000E+00  0.00000000E+00  0.00000000E+00  0.00000000E+00  0.00000000E+00
  0.00000000E+00  0.00000000E+00  0.00000000E+00  0.00000000E+00  0.00000000E+00
  0.00000000E+00  0.00000000E+00  0.00000000E+00  0.00000000E+00  0.00000000E+00
  0.00000000E+00  0.00000000E+00  0.00000000E+00  0.00000000E+00  0.00000000E+00
  0.00000000E+00  0.00000000E+00  0.00000000E+00  0.00000000E+00  0.00000000E+00
  0.00000000E+00  0.00000000E+00  0.00000000E+00  0.00000000E+00  0.00000000E+00
  0.00000000E+00  0.00000000E+00  0.00000000E+00  0.00000000E+00  0.00000000E+00
  0.00000000E+00  0.00000000E+00  0.00000000E+00  0.00000000E+00  0.00000000E+00
  0.00000000E+00  0.00000000E+00  0.00000000E+00  0.00000000E+00  0.00000000E+00
  0.00000000E+00  0.00000000E+00  0.00000000E+00  0.00000000E+00  0.00000000E+00
  0.00000000E+00  0.00000000E+00  0.00000000E+00  0.00000000E+00  0.00000000E+00
  0.00000000E+00  0.00000000E+00  0.00000000E+00  0.00000000E+00  0.00000000E+00
  0.00000000E+00  0.00000000E+00  0.00000000E+00  0.00000000E+00  0.00000000E+00
  0.00000000E+00  0.00000000E+00  0.00000000E+00  0.00000000E+00  0.00000000E+00
  0.00000000E+00  0.00000000E+00  0.00000000E+00  0.00000000E+00  0.00000000E+00
  0.00000000E+00  0.00000000E+00  0.00000000E+00  0.00000000E+00  0.00000000E+00
  0.00000000E+00  0.00000000E+00  0.00000000E+00  0.00000000E+00  0.00000000E+00
  0.00000000E+00  0.00000000E+00  0.00000000E+00  0.00000000E+00  0.00000000E+00
  0.00000000E+00  0.00000000E+00  0.00000000E+00  0.00000000E+00  0.00000000E+00
  0.00000000E+00  0.00000000E+00  0.00000000E+00  0.00000000E+00  0.00000000E+00
  0.00000000E+00  0.00000000E+00  0.00000000E+00  0.00000000E+00  0.00000000E+00
  0.00000000E+00  0.00000000E+00  0.00000000E+00  0.00000000E+00  0.00000000E+00
  0.00000000E+00  0.00000000E+00  0.00000000E+00  0.00000000E+00  0.00000000E+00
  0.00000000E+00  0.00000000E+00  0.00000000E+00  0.00000000E+00  0.00000000E+00
  0.00000000E+00  0.00000000E+00  0.00000000E+00  0.00000000E+00  0.00000000E+00
  0.00000000E+00  0.00000000E+00  0.00000000E+00  0.00000000E+00  0.00000000E+00
  0.00000000E+00  0.00000000E+00  0.00000000E+00  0.00000000E+00  0.00000000E+00
  0.00000000E+00  0.00000000E+00  0.00000000E+00  0.00000000E+00  0.00000000E+00
  0.00000000E+00  0.00000000E+00  0.00000000E+00  0.00000000E+00  0.00000000E+00
  0.00000000E+00  0.00000000E+00  0.00000000E+00  0.00000000E+00  0.00000000E+00
  0.00000000E+00  0.00000000E+00  0.00000000E+00  0.00000000E+00  0.00000000E+00
  0.00000000E+00  0.00000000E+00  0.00000000E+00  0.00000000E+00  0.00000000E+00
  0.00000000E+00  0.00000000E+00  0.00000000E+00  0.00000000E+00  0.00000000E+00
  0.00000000E+00  0.00000000E+00  0.00000000E+00  0.00000000E+00  0.00000000E+00
  0.00000000E+00  0.00000000E+00  0.00000000E+00  0.00000000E+00  0.00000000E+00
  0.00000000E+00  0.00000000E+00  0.00000000E+00  0.00000000E+00  0.00000000E+00
  0.00000000E+00  0.00000000E+00  0.00000000E+00  0.00000000E+00  0.00000000E+00
  0.00000000E+00  0.00000000E+00  0.00000000E+00  0.00000000E+00  0.00000000E+00
  0.00000000E+00  0.00000000E+00  0.00000000E+00  0.00000000E+00  0.00000000E+00
  0.00000000E+00  0.00000000E+00  0.00000000E+00  0.00000000E+00  0.00000000E+00
  0.00000000E+00  0.00000000E+00  0.00000000E+00  0.00000000E+00  0.00000000E+00
  0.00000000E+00  0.00000000E+00  0.00000000E+00  0.00000000E+00  0.00000000E+00
  0.00000000E+00  0.00000000E+00  0.00000000E+00  0.00000000E+00  0.00000000E+00
  0.00000000E+00  0.00000000E+00  0.00000000E+00  0.00000000E+00  0.00000000E+00
  0.00000000E+00  0.00000000E+00  0.00000000E+00  0.00000000E+00  0.00000000E+00
  0.00000000E+00  0.00000000E+00  0.00000000E+00  0.00000000E+00  0.00000000E+00
  0.00000000E+00  0.00000000E+00  0.00000000E+00  0.00000000E+00  0.00000000E+00
  0.00000000E+00  0.00000000E+00  0.00000000E+00  0.00000000E+00  0.00000000E+00
  0.00000000E+00  0.00000000E+00  0.00000000E+00  0.00000000E+00  0.00000000E+00
  0.00000000E+00  0.00000000E+00  0.00000000E+00  0.00000000E+00  0.00000000E+00
  0.00000000E+00  0.00000000E+00  0.00000000E+00  0.00000000E+00  0.00000000E+00
  0.00000000E+00  0.00000000E+00  0.00000000E+00  0.00000000E+00  0.00000000E+00
  0.00000000E+00  0.00000000E+00  0.00000000E+00  0.00000000E+00  0.00000000E+00
  0.00000000E+00  0.00000000E+00  0.00000000E+00  0.00000000E+00  0.00000000E+00
  0.00000000E+00  0.00000000E+00  0.00000000E+00  0.00000000E+00  0.00000000E+00
  0.00000000E+00  0.00000000E+00  0.00000000E+00  0.00000000E+00  0.00000000E+00
  0.00000000E+00  0.00000000E+00  0.00000000E+00  0.00000000E+00  0.00000000E+00
  0.00000000E+00  0.00000000E+00  0.00000000E+00  0.00000000E+00  0.00000000E+00
  0.00000000E+00  0.00000000E+00  0.00000000E+00  0.00000000E+00  0.00000000E+00
  0.00000000E+00  0.00000000E+00  0.00000000E+00  0.00000000E+00  0.00000000E+00
  0.00000000E+00  0.00000000E+00  0.00000000E+00  0.00000000E+00  0.00000000E+00
  0.00000000E+00  0.00000000E+00  0.00000000E+00  0.00000000E+00  0.00000000E+00
  0.00000000E+00  0.00000000E+00  0.00000000E+00  0.00000000E+00  0.00000000E+00
  0.00000000E+00  0.00000000E+00  0.00000000E+00  0.00000000E+00  0.00000000E+00
  0.00000000E+00  0.00000000E+00  0.00000000E+00  0.00000000E+00  0.00000000E+00
  0.00000000E+00  0.00000000E+00  0.00000000E+00  0.00000000E+00  0.00000000E+00
  0.00000000E+00  0.00000000E+00  0.00000000E+00  0.00000000E+00  0.00000000E+00
  0.00000000E+00  0.00000000E+00  0.00000000E+00  0.00000000E+00  0.00000000E+00
  0.00000000E+00  0.00000000E+00  0.00000000E+00  0.00000000E+00  0.00000000E+00
  0.00000000E+00  0.00000000E+00  0.00000000E+00  0.00000000E+00  0.00000000E+00
  0.00000000E+00  0.00000000E+00  0.00000000E+00  0.00000000E+00  0.00000000E+00
  0.00000000E+00  0.00000000E+00  0.00000000E+00  0.00000000E+00  0.00000000E+00
  0.00000000E+00  0.00000000E+00  0.00000000E+00  0.00000000E+00  0.00000000E+00
  0.00000000E+00  0.00000000E+00  0.00000000E+00  0.00000000E+00  0.00000000E+00
  0.00000000E+00  0.00000000E+00  0.00000000E+00  0.00000000E+00  0.00000000E+00
  0.00000000E+00  0.00000000E+00  0.00000000E+00  0.00000000E+00  0.00000000E+00
  0.00000000E+00  0.00000000E+00  0.00000000E+00  0.00000000E+00  0.00000000E+00
  0.00000000E+00  0.00000000E+00  0.00000000E+00  0.00000000E+00  0.00000000E+00
  0.00000000E+00  0.00000000E+00  0.00000000E+00  0.00000000E+00  0.00000000E+00
  0.00000000E+00  0.00000000E+00  0.00000000E+00  0.00000000E+00  0.00000000E+00
  0.00000000E+00  0.00000000E+00  0.00000000E+00  0.00000000E+00  0.00000000E+00
  0.00000000E+00  0.00000000E+00  0.00000000E+00  0.00000000E+00  0.00000000E+00
  0.00000000E+00  0.00000000E+00  0.00000000E+00  0.00000000E+00  0.00000000E+00
  0.00000000E+00  0.00000000E+00  0.00000000E+00  0.00000000E+00  0.00000000E+00
  0.00000000E+00  0.00000000E+00  0.00000000E+00  0.00000000E+00  0.00000000E+00
  0.00000000E+00  0.00000000E+00  0.00000000E+00  0.00000000E+00  0.00000000E+00
  0.00000000E+00  0.00000000E+00  0.00000000E+00  0.00000000E+00  0.00000000E+00
  0.00000000E+00  0.00000000E+00  0.00000000E+00  0.00000000E+00  0.00000000E+00
  0.00000000E+00  0.00000000E+00  0.00000000E+00  0.00000000E+00  0.00000000E+00
  0.00000000E+00  0.00000000E+00  0.00000000E+00  0.00000000E+00  0.00000000E+00
  0.00000000E+00  0.00000000E+00  0.00000000E+00  0.00000000E+00  0.00000000E+00
  0.00000000E+00  0.00000000E+00  0.00000000E+00  0.00000000E+00  0.00000000E+00
  0.00000000E+00  0.00000000E+00  0.00000000E+00  0.00000000E+00  0.00000000E+00
  0.00000000E+00  0.00000000E+00  0.00000000E+00  0.00000000E+00  0.00000000E+00
  0.00000000E+00  0.00000000E+00  0.00000000E+00  0.00000000E+00  0.00000000E+00
  0.00000000E+00  0.00000000E+00  0.00000000E+00  0.00000000E+00  0.00000000E+00
  0.00000000E+00  0.00000000E+00  0.00000000E+00  0.00000000E+00  0.00000000E+00
  0.00000000E+00  0.00000000E+00  0.00000000E+00  0.00000000E+00  0.00000000E+00
  0.00000000E+00  0.00000000E+00  0.00000000E+00  0.00000000E+00  0.00000000E+00
  0.00000000E+00  0.00000000E+00  0.00000000E+00  0.00000000E+00  0.00000000E+00
  0.00000000E+00  0.00000000E+00  0.00000000E+00  0.00000000E+00  0.00000000E+00
  0.00000000E+00  0.00000000E+00  0.00000000E+00  0.00000000E+00  0.00000000E+00
  0.00000000E+00  0.00000000E+00  0.00000000E+00  0.00000000E+00  0.00000000E+00
  0.00000000E+00  0.00000000E+00  0.00000000E+00  0.00000000E+00  0.00000000E+00
  0.00000000E+00  0.00000000E+00  0.00000000E+00  0.00000000E+00  0.00000000E+00
  0.00000000E+00  0.00000000E+00  0.00000000E+00  0.00000000E+00  0.00000000E+00
  0.00000000E+00  0.00000000E+00  0.00000000E+00  0.00000000E+00  0.00000000E+00
  0.00000000E+00  0.00000000E+00  0.00000000E+00  0.00000000E+00  0.00000000E+00
  0.00000000E+00  0.00000000E+00  0.00000000E+00  0.00000000E+00  0.00000000E+00
  0.00000000E+00  0.00000000E+00  0.00000000E+00  0.00000000E+00  0.00000000E+00
  0.00000000E+00  0.00000000E+00  0.00000000E+00  0.00000000E+00  0.00000000E+00
  0.00000000E+00  0.00000000E+00  0.00000000E+00  0.00000000E+00  0.00000000E+00
  0.00000000E+00  0.00000000E+00  0.00000000E+00  0.00000000E+00  0.00000000E+00
  0.00000000E+00  0.00000000E+00  0.00000000E+00  0.00000000E+00  0.00000000E+00
  0.00000000E+00  0.00000000E+00  0.00000000E+00  0.00000000E+00  0.00000000E+00
  0.00000000E+00  0.00000000E+00  0.00000000E+00  0.00000000E+00  0.00000000E+00
  0.00000000E+00  0.00000000E+00  0.00000000E+00  0.00000000E+00  0.00000000E+00
  0.00000000E+00  0.00000000E+00  0.00000000E+00  0.00000000E+00  0.00000000E+00
  0.00000000E+00  0.00000000E+00  0.00000000E+00  0.00000000E+00  0.00000000E+00
  0.00000000E+00  0.00000000E+00  0.00000000E+00  0.00000000E+00  0.00000000E+00
  0.00000000E+00  0.00000000E+00  0.00000000E+00  0.00000000E+00  0.00000000E+00
  0.00000000E+00  0.00000000E+00  0.00000000E+00  0.00000000E+00  0.00000000E+00
  0.00000000E+00  0.00000000E+00  0.00000000E+00  0.00000000E+00  0.00000000E+00
  0.00000000E+00  0.00000000E+00  0.00000000E+00  0.00000000E+00  0.00000000E+00
  0.00000000E+00  0.00000000E+00  0.00000000E+00  0.00000000E+00  0.00000000E+00
  0.00000000E+00  0.00000000E+00  0.00000000E+00  0.00000000E+00  0.00000000E+00
  0.00000000E+00  0.00000000E+00  0.00000000E+00  0.00000000E+00  0.00000000E+00
  0.00000000E+00  0.00000000E+00  0.00000000E+00  0.00000000E+00  0.00000000E+00
  0.00000000E+00  0.00000000E+00  0.00000000E+00  0.00000000E+00  0.00000000E+00
  0.00000000E+00  0.00000000E+00  0.00000000E+00  0.00000000E+00  0.00000000E+00
  0.00000000E+00  0.00000000E+00  0.00000000E+00  0.00000000E+00  0.00000000E+00
  0.00000000E+00  0.00000000E+00  0.00000000E+00  0.00000000E+00  0.00000000E+00
  0.00000000E+00  0.00000000E+00  0.00000000E+00  0.00000000E+00  0.00000000E+00
  0.00000000E+00  0.00000000E+00  0.00000000E+00  0.00000000E+00  0.00000000E+00
  0.00000000E+00  0.00000000E+00  0.00000000E+00  0.00000000E+00  0.00000000E+00
  0.00000000E+00  0.00000000E+00  0.00000000E+00  0.00000000E+00  0.00000000E+00
  0.00000000E+00  0.00000000E+00  0.00000000E+00  0.00000000E+00  0.00000000E+00
  0.00000000E+00  0.00000000E+00  0.00000000E+00  0.00000000E+00  0.00000000E+00
  0.00000000E+00  0.00000000E+00  0.00000000E+00  0.00000000E+00  0.00000000E+00
  0.00000000E+00  0.00000000E+00  0.00000000E+00  0.00000000E+00  0.00000000E+00
  0.00000000E+00  0.00000000E+00  0.00000000E+00  0.00000000E+00  0.00000000E+00
  0.00000000E+00  0.00000000E+00  0.00000000E+00  0.00000000E+00  0.00000000E+00
  0.00000000E+00  0.00000000E+00  0.00000000E+00  0.00000000E+00  0.00000000E+00
  0.00000000E+00  0.00000000E+00  0.00000000E+00  0.00000000E+00  0.00000000E+00
  0.00000000E+00  0.00000000E+00  0.00000000E+00  0.00000000E+00  0.00000000E+00
  0.00000000E+00  0.00000000E+00  0.00000000E+00  0.00000000E+00  0.00000000E+00
  0.00000000E+00  0.00000000E+00  0.00000000E+00  0.00000000E+00  0.00000000E+00
  0.00000000E+00  0.00000000E+00  0.00000000E+00  0.00000000E+00  0.00000000E+00
  0.00000000E+00  0.00000000E+00  0.00000000E+00  0.00000000E+00  0.00000000E+00
  0.00000000E+00  0.00000000E+00  0.00000000E+00  0.00000000E+00  0.00000000E+00
  0.00000000E+00  0.00000000E+00  0.00000000E+00  0.00000000E+00  0.00000000E+00
  0.00000000E+00  0.00000000E+00  0.00000000E+00  0.00000000E+00  0.00000000E+00
  0.00000000E+00  0.00000000E+00  0.00000000E+00  0.00000000E+00  0.00000000E+00
  0.00000000E+00  0.00000000E+00  0.00000000E+00  0.00000000E+00  0.00000000E+00
  0.00000000E+00  0.00000000E+00  0.00000000E+00  0.00000000E+00  0.00000000E+00
  0.00000000E+00  0.00000000E+00  0.00000000E+00  0.00000000E+00  0.00000000E+00
  0.00000000E+00  0.00000000E+00  0.00000000E+00  0.00000000E+00  0.00000000E+00
  0.00000000E+00  0.00000000E+00  0.00000000E+00  0.00000000E+00  0.00000000E+00
  0.00000000E+00  0.00000000E+00  0.00000000E+00  0.00000000E+00  0.00000000E+00
  0.00000000E+00  0.00000000E+00  0.00000000E+00  0.00000000E+00  0.00000000E+00
  0.00000000E+00  0.00000000E+00  0.00000000E+00  0.00000000E+00  0.00000000E+00
  0.00000000E+00  0.00000000E+00  0.00000000E+00  0.00000000E+00  0.00000000E+00
  0.00000000E+00  0.00000000E+00  0.00000000E+00  0.00000000E+00  0.00000000E+00
  0.00000000E+00  0.00000000E+00  0.00000000E+00  0.00000000E+00  0.00000000E+00
  0.00000000E+00  0.00000000E+00  0.00000000E+00  0.00000000E+00  0.00000000E+00
  0.00000000E+00  0.00000000E+00  0.00000000E+00  0.00000000E+00  0.00000000E+00
  0.00000000E+00  0.00000000E+00  0.00000000E+00  0.00000000E+00  0.00000000E+00
  0.00000000E+00  0.00000000E+00  0.00000000E+00  0.00000000E+00  0.00000000E+00
  0.00000000E+00  0.00000000E+00  0.00000000E+00  0.00000000E+00  0.00000000E+00
  0.00000000E+00  0.00000000E+00  0.00000000E+00  0.00000000E+00  0.00000000E+00
  0.00000000E+00  0.00000000E+00  0.00000000E+00  0.00000000E+00  0.00000000E+00
  0.00000000E+00  0.00000000E+00  0.00000000E+00  0.00000000E+00  0.00000000E+00
  0.00000000E+00  0.00000000E+00  0.00000000E+00  0.00000000E+00  0.00000000E+00
  0.00000000E+00  0.00000000E+00  0.00000000E+00  0.00000000E+00  0.00000000E+00
  0.00000000E+00  0.00000000E+00  0.00000000E+00  0.00000000E+00  0.00000000E+00
  0.00000000E+00  0.00000000E+00  0.00000000E+00  0.00000000E+00  0.00000000E+00
  0.00000000E+00  0.00000000E+00  0.00000000E+00  0.00000000E+00  0.00000000E+00
  0.00000000E+00  0.00000000E+00  0.00000000E+00  0.00000000E+00  0.00000000E+00
  0.00000000E+00  0.00000000E+00  0.00000000E+00  0.00000000E+00  0.00000000E+00
  0.00000000E+00  0.00000000E+00  0.00000000E+00  0.00000000E+00  0.00000000E+00
  0.00000000E+00  0.00000000E+00  0.00000000E+00  0.00000000E+00  0.00000000E+00
  0.00000000E+00  0.00000000E+00  0.00000000E+00  0.00000000E+00  0.00000000E+00
  0.00000000E+00  0.00000000E+00  0.00000000E+00  0.00000000E+00  0.00000000E+00
  0.00000000E+00  0.00000000E+00  0.00000000E+00  0.00000000E+00  0.00000000E+00
  0.00000000E+00  0.00000000E+00  0.00000000E+00  0.00000000E+00  0.00000000E+00
  0.00000000E+00  0.00000000E+00  0.00000000E+00  0.00000000E+00  0.00000000E+00
  0.00000000E+00  0.00000000E+00  0.00000000E+00  0.00000000E+00  0.00000000E+00
  0.00000000E+00  0.00000000E+00  0.00000000E+00  0.00000000E+00  0.00000000E+00
  0.00000000E+00  0.00000000E+00  0.00000000E+00  0.00000000E+00  0.00000000E+00
  0.00000000E+00  0.00000000E+00  0.00000000E+00  0.00000000E+00  0.00000000E+00
  0.00000000E+00  0.00000000E+00  0.00000000E+00  0.00000000E+00  0.00000000E+00
  0.00000000E+00  0.00000000E+00  0.00000000E+00  0.00000000E+00  0.00000000E+00
  0.00000000E+00  0.00000000E+00  0.00000000E+00  0.00000000E+00  0.00000000E+00
  0.00000000E+00  0.00000000E+00  0.00000000E+00  0.00000000E+00  0.00000000E+00
  0.00000000E+00  0.00000000E+00  0.00000000E+00  0.00000000E+00  0.00000000E+00
  0.00000000E+00  0.00000000E+00  0.00000000E+00  0.00000000E+00  0.00000000E+00
  0.00000000E+00  0.00000000E+00  0.00000000E+00  0.00000000E+00  0.00000000E+00
  0.00000000E+00  0.00000000E+00  0.00000000E+00  0.00000000E+00  0.00000000E+00
  0.00000000E+00  0.00000000E+00  0.00000000E+00  0.00000000E+00  0.00000000E+00
  0.00000000E+00  0.00000000E+00  0.00000000E+00  0.00000000E+00  0.00000000E+00
  0.00000000E+00  0.00000000E+00  0.00000000E+00  0.00000000E+00  0.00000000E+00
  0.00000000E+00  0.00000000E+00  0.00000000E+00  0.00000000E+00  0.00000000E+00
  0.00000000E+00  0.00000000E+00  0.00000000E+00  0.00000000E+00  0.00000000E+00
  0.00000000E+00  0.00000000E+00  0.00000000E+00  0.00000000E+00  0.00000000E+00
  0.00000000E+00  0.00000000E+00  0.00000000E+00  0.00000000E+00  0.00000000E+00
  0.00000000E+00  0.00000000E+00  0.00000000E+00  0.00000000E+00  0.00000000E+00
  0.00000000E+00  0.00000000E+00  0.00000000E+00  0.00000000E+00  0.00000000E+00
  0.00000000E+00  0.00000000E+00  0.00000000E+00  0.00000000E+00  0.00000000E+00
  0.00000000E+00  0.00000000E+00  0.00000000E+00  0.00000000E+00  0.00000000E+00
  0.00000000E+00  0.00000000E+00  0.00000000E+00  0.00000000E+00  0.00000000E+00
  0.00000000E+00  0.00000000E+00  0.00000000E+00  0.00000000E+00  0.00000000E+00
  0.00000000E+00  0.00000000E+00  0.00000000E+00  0.00000000E+00  0.00000000E+00
  0.00000000E+00  0.00000000E+00  0.00000000E+00  0.00000000E+00  0.00000000E+00
  0.00000000E+00  0.00000000E+00  0.00000000E+00  0.00000000E+00  0.00000000E+00
  0.00000000E+00  0.00000000E+00  0.00000000E+00  0.00000000E+00  0.00000000E+00
  0.00000000E+00  0.00000000E+00  0.00000000E+00  0.00000000E+00  0.00000000E+00
  0.00000000E+00  0.00000000E+00  0.00000000E+00  0.00000000E+00  0.00000000E+00
  0.00000000E+00  0.00000000E+00  0.00000000E+00  0.00000000E+00  0.00000000E+00
  0.00000000E+00  0.00000000E+00  0.00000000E+00  0.00000000E+00  0.00000000E+00
  0.00000000E+00  0.00000000E+00  0.00000000E+00  0.00000000E+00  0.00000000E+00
  0.00000000E+00  0.00000000E+00  0.00000000E+00  0.00000000E+00  0.00000000E+00
  0.00000000E+00  0.00000000E+00  0.00000000E+00  0.00000000E+00  0.00000000E+00
  0.00000000E+00  0.00000000E+00  0.00000000E+00  0.00000000E+00  0.00000000E+00
  0.00000000E+00  0.00000000E+00  0.00000000E+00  0.00000000E+00  0.00000000E+00
  0.00000000E+00  0.00000000E+00  0.00000000E+00  0.00000000E+00  0.00000000E+00
  0.00000000E+00  0.00000000E+00  0.00000000E+00  0.00000000E+00  0.00000000E+00
  0.00000000E+00  0.00000000E+00  0.00000000E+00  0.00000000E+00  0.00000000E+00
  0.00000000E+00  0.00000000E+00  0.00000000E+00  0.00000000E+00  0.00000000E+00
  0.00000000E+00  0.00000000E+00  0.00000000E+00  0.00000000E+00  0.00000000E+00
  0.00000000E+00  0.00000000E+00  0.00000000E+00  0.00000000E+00  0.00000000E+00
  0.00000000E+00  0.00000000E+00  0.00000000E+00  0.00000000E+00  0.00000000E+00
  0.00000000E+00  0.00000000E+00  0.00000000E+00  0.00000000E+00  0.00000000E+00
  0.00000000E+00  0.00000000E+00  0.00000000E+00  0.00000000E+00  0.00000000E+00
  0.00000000E+00  0.00000000E+00  0.00000000E+00  0.00000000E+00  0.00000000E+00
  0.00000000E+00  0.00000000E+00  0.00000000E+00  0.00000000E+00  0.00000000E+00
  0.00000000E+00  0.00000000E+00  0.00000000E+00  0.00000000E+00  0.00000000E+00
  0.00000000E+00  0.00000000E+00  0.00000000E+00  0.00000000E+00  0.00000000E+00
  0.00000000E+00  0.00000000E+00  0.00000000E+00  0.00000000E+00  0.00000000E+00
  0.00000000E+00  0.00000000E+00  0.00000000E+00  0.00000000E+00  0.00000000E+00
  0.00000000E+00  0.00000000E+00  0.00000000E+00  0.00000000E+00  0.00000000E+00
  0.00000000E+00  0.00000000E+00  0.00000000E+00  0.00000000E+00  0.00000000E+00
  0.00000000E+00  0.00000000E+00  0.00000000E+00  0.00000000E+00  0.00000000E+00
  0.00000000E+00  0.00000000E+00  0.00000000E+00  0.00000000E+00  0.00000000E+00
  0.00000000E+00  0.00000000E+00  0.00000000E+00  0.00000000E+00  0.00000000E+00
  0.00000000E+00  0.00000000E+00  0.00000000E+00  0.00000000E+00  0.00000000E+00
  0.00000000E+00  0.00000000E+00  0.00000000E+00  0.00000000E+00  0.00000000E+00
  0.00000000E+00  0.00000000E+00  0.00000000E+00  0.00000000E+00  0.00000000E+00
  0.00000000E+00  0.00000000E+00  0.00000000E+00  0.00000000E+00  0.00000000E+00
  0.00000000E+00  0.00000000E+00  0.00000000E+00  0.00000000E+00  0.00000000E+00
  0.00000000E+00  0.00000000E+00  0.00000000E+00  0.00000000E+00  0.00000000E+00
  0.00000000E+00  0.00000000E+00  0.00000000E+00  0.00000000E+00  0.00000000E+00
  0.00000000E+00  0.00000000E+00  0.00000000E+00  0.00000000E+00  0.00000000E+00
  0.00000000E+00  0.00000000E+00  0.00000000E+00  0.00000000E+00  0.00000000E+00
  0.00000000E+00  0.00000000E+00  0.00000000E+00  0.00000000E+00  0.00000000E+00
  0.00000000E+00  0.00000000E+00  0.00000000E+00  0.00000000E+00  0.00000000E+00
  0.00000000E+00  0.00000000E+00  0.00000000E+00  0.00000000E+00  0.00000000E+00
  0.00000000E+00  0.00000000E+00  0.00000000E+00  0.00000000E+00  0.00000000E+00
  0.00000000E+00  0.00000000E+00  0.00000000E+00  0.00000000E+00  0.00000000E+00
  0.00000000E+00  0.00000000E+00  0.00000000E+00  0.00000000E+00  0.00000000E+00
  0.00000000E+00  0.00000000E+00  0.00000000E+00  0.00000000E+00  0.00000000E+00
  0.00000000E+00  0.00000000E+00  0.00000000E+00  0.00000000E+00  0.00000000E+00
  0.00000000E+00  0.00000000E+00  0.00000000E+00  0.00000000E+00  0.00000000E+00
  0.00000000E+00  0.00000000E+00  0.00000000E+00  0.00000000E+00  0.00000000E+00
  0.00000000E+00  0.00000000E+00  0.00000000E+00  0.00000000E+00  0.00000000E+00
  0.00000000E+00  0.00000000E+00  0.00000000E+00  0.00000000E+00  0.00000000E+00
  0.00000000E+00  0.00000000E+00  0.00000000E+00  0.00000000E+00  0.00000000E+00
  0.00000000E+00  0.00000000E+00  0.00000000E+00  0.00000000E+00  0.00000000E+00
  0.00000000E+00  0.00000000E+00  0.00000000E+00  0.00000000E+00  0.00000000E+00
  0.00000000E+00  0.00000000E+00  0.00000000E+00  0.00000000E+00  0.00000000E+00
  0.00000000E+00  0.00000000E+00  0.00000000E+00  0.00000000E+00  0.00000000E+00
  0.00000000E+00  0.00000000E+00  0.00000000E+00  0.00000000E+00  0.00000000E+00
  0.00000000E+00  0.00000000E+00  0.00000000E+00  0.00000000E+00  0.00000000E+00
  0.00000000E+00  0.00000000E+00  0.00000000E+00  0.00000000E+00  0.00000000E+00
  0.00000000E+00  0.00000000E+00  0.00000000E+00  0.00000000E+00  0.00000000E+00
  0.00000000E+00  0.00000000E+00  0.00000000E+00  0.00000000E+00  0.00000000E+00
  0.00000000E+00  0.00000000E+00  0.00000000E+00  0.00000000E+00  0.00000000E+00
  0.00000000E+00  0.00000000E+00  0.00000000E+00  0.00000000E+00  0.00000000E+00
Gaussian Version                           C   N=           2
ES64L-GDVRevJ.28        
