External Calculation                                                    
SP        RHF                                                         STO-3G              
Number of atoms                            I                8
Info1-9                                    I   N=           9
          22          17           0           0           0         110
           1           1           2
Full Title                                 C   N=           2
External Calculation    
Route                                      C   N=           2
#P hf/sto-3g scf=xqc    
Charge                                     I                0
Multiplicity                               I                1
Number of electrons                        I               18
Number of alpha electrons                  I                9
Number of beta electrons                   I                9
Number of basis functions                  I               16
Number of independent functions            I               16
Number of point charges in /Mol/           I                0
Number of translation vectors              I                0
Atomic numbers                             I   N=           8
           6           1           1           1           6           1
           1           1
Nuclear charges                            R   N=           8
  6.00000000E+00  1.00000000E+00  1.00000000E+00  1.00000000E+00  6.00000000E+00
  1.00000000E+00  1.00000000E+00  1.00000000E+00
Current cartesian coordinates              R   N=          24
  0.00000000E+00 -1.45498407E+00 -1.47911420E-31 -1.90636673E+00 -2.13087541E+00
 -1.97215226E-31  9.53183366E-01 -2.12898568E+00  1.65096202E+00  9.53183366E-01
 -2.12898568E+00 -1.65096202E+00  0.00000000E+00  1.45519404E+00  1.47911420E-31
 -9.53183366E-01  2.12919565E+00 -1.65096202E+00 -9.53183366E-01  2.12919565E+00
  1.65096202E+00  1.90636673E+00  2.12919565E+00  1.97215226E-31
Number of symbols in /Mol/                 I                0
Int Atom Types                             I   N=           8
           0           0           0           0           0           0
           0           0
Force Field                                I                0
Atom Types                                 C   N=           8
                                                            
                                    
MM charges                                 R   N=           8
  0.00000000E+00  0.00000000E+00  0.00000000E+00  0.00000000E+00  0.00000000E+00
  0.00000000E+00  0.00000000E+00  0.00000000E+00
Integer atomic weights                     I   N=           8
          12           1           1           1          12           1
           1           1
Real atomic weights                        R   N=           8
  1.20000000E+01  1.00782504E+00  1.00782504E+00  1.00782504E+00  1.20000000E+01
  1.00782504E+00  1.00782504E+00  1.00782504E+00
Atom fragment info                         I   N=           8
           0           0           0           0           0           0
           0           0
Atom residue num                           I   N=           8
           0           0           0           0           0           0
           0           0
Nuclear spins                              I   N=           8
           0           1           1           1           0           1
           1           1
Nuclear ZEff                               R   N=           8
 -3.60000000E+00 -1.00000000E+00 -1.00000000E+00 -1.00000000E+00 -3.60000000E+00
 -1.00000000E+00 -1.00000000E+00 -1.00000000E+00
Nuclear ZNuc                               R   N=           8
  6.00000000E+00  1.00000000E+00  1.00000000E+00  1.00000000E+00  6.00000000E+00
  1.00000000E+00  1.00000000E+00  1.00000000E+00
Nuclear QMom                               R   N=           8
  0.00000000E+00  0.00000000E+00  0.00000000E+00  0.00000000E+00  0.00000000E+00
  0.00000000E+00  0.00000000E+00  0.00000000E+00
Nuclear GFac                               R   N=           8
  0.00000000E+00  2.79284600E+00  2.79284600E+00  2.79284600E+00  0.00000000E+00
  2.79284600E+00  2.79284600E+00  2.79284600E+00
MicOpt                                     I   N=           8
          -1          -1          -1          -1          -1          -1
          -1          -1
Number of residues                         I                0
Number of secondary structures             I                0
SymInf integers                            I   N=          26
           2           2           1           1           1           1
           1          -1           0           0           0           0
           0           0           0           0           0           0
           0           0           0           0           0           0
           0           0
RotTr to input orientation                 R   N=          12
 -1.58656421E-20 -1.00000000E+00 -2.13045727E-17 -1.83697019E-16  2.13045727E-17
 -1.00000000E+00  1.00000000E+00 -1.58656421E-20 -1.83697019E-16  0.00000000E+00
  0.00000000E+00  1.04984785E-04
Number of contracted shells                I               10
Number of primitive shells                 I               30
Pure/Cartesian d shells                    I                0
Pure/Cartesian f shells                    I                0
Highest angular momentum                   I                1
Largest degree of contraction              I                3
Shell types                                I   N=          10
           0          -1           0           0           0           0
          -1           0           0           0
Number of primitives per shell             I   N=          10
           3           3           3           3           3           3
           3           3           3           3
Shell to atom map                          I   N=          10
           1           1           2           3           4           5
           5           6           7           8
Primitive exponents                        R   N=          30
  7.16168373E+01  1.30450963E+01  3.53051216E+00  2.94124936E+00  6.83483096E-01
  2.22289916E-01  3.42525091E+00  6.23913730E-01  1.68855404E-01  3.42525091E+00
  6.23913730E-01  1.68855404E-01  3.42525091E+00  6.23913730E-01  1.68855404E-01
  7.16168373E+01  1.30450963E+01  3.53051216E+00  2.94124936E+00  6.83483096E-01
  2.22289916E-01  3.42525091E+00  6.23913730E-01  1.68855404E-01  3.42525091E+00
  6.23913730E-01  1.68855404E-01  3.42525091E+00  6.23913730E-01  1.68855404E-01
Contraction coefficients                   R   N=          30
  1.54328967E-01  5.35328142E-01  4.44634542E-01 -9.99672292E-02  3.99512826E-01
  7.00115469E-01  1.54328967E-01  5.35328142E-01  4.44634542E-01  1.54328967E-01
  5.35328142E-01  4.44634542E-01  1.54328967E-01  5.35328142E-01  4.44634542E-01
  1.54328967E-01  5.35328142E-01  4.44634542E-01 -9.99672292E-02  3.99512826E-01
  7.00115469E-01  1.54328967E-01  5.35328142E-01  4.44634542E-01  1.54328967E-01
  5.35328142E-01  4.44634542E-01  1.54328967E-01  5.35328142E-01  4.44634542E-01
P(S=P) Contraction coefficients            R   N=          30
  0.00000000E+00  0.00000000E+00  0.00000000E+00  1.55916275E-01  6.07683719E-01
  3.91957393E-01  0.00000000E+00  0.00000000E+00  0.00000000E+00  0.00000000E+00
  0.00000000E+00  0.00000000E+00  0.00000000E+00  0.00000000E+00  0.00000000E+00
  0.00000000E+00  0.00000000E+00  0.00000000E+00  1.55916275E-01  6.07683719E-01
  3.91957393E-01  0.00000000E+00  0.00000000E+00  0.00000000E+00  0.00000000E+00
  0.00000000E+00  0.00000000E+00  0.00000000E+00  0.00000000E+00  0.00000000E+00
Coordinates of each shell                  R   N=          30
  0.00000000E+00 -1.45498407E+00 -7.17362534E-32  0.00000000E+00 -1.45498407E+00
 -7.17362534E-32 -1.90636673E+00 -2.13087541E+00 -1.05071742E-31  9.53183366E-01
 -2.12898568E+00  1.65096202E+00  9.53183366E-01 -2.12898568E+00 -1.65096202E+00
  0.00000000E+00  1.45519404E+00  7.17466057E-32  0.00000000E+00  1.45519404E+00
  7.17466057E-32 -9.53183366E-01  2.12919565E+00 -1.65096202E+00 -9.53183366E-01
  2.12919565E+00  1.65096202E+00  1.90636673E+00  2.12919565E+00  1.04988924E-31
Num ILSW                                   I              100
ILSW                                       I   N=         100
           0           0           0           0           2           0
           0           0           0           0           0          -1
           5           0           0           0           0           0
           0           0           0           0           0           0
           1           0           0           0           0           0
           0           0      100000           0          -1           0
           0           0           0           0           0           0
           0           0           0           1           0           0
           0 -2000000000           1           0           0           0
           0           0           4          52           0           0
           0           0           0           0           0           0
           0           0           0           8           0           1
           0           0           0           0           0           0
           0           0           0           0           0           0
           0           0           0           0           0           0
           0           0           0           0           0           0
           0           0           0           0
Num RLSW                                   I               52
RLSW                                       R   N=          52
  1.00000000E+00  1.00000000E+00  1.00000000E+00  1.00000000E+00  1.00000000E+00
  0.00000000E+00  0.00000000E+00  1.00000000E+00  0.00000000E+00  0.00000000E+00
  0.00000000E+00  0.00000000E+00  1.00000000E+00  0.00000000E+00  0.00000000E+00
  0.00000000E+00  0.00000000E+00  1.00000000E+00  0.00000000E+00  0.00000000E+00
  0.00000000E+00  0.00000000E+00  1.00000000E+00  0.00000000E+00  0.00000000E+00
  0.00000000E+00  0.00000000E+00  1.00000000E+00  0.00000000E+00  0.00000000E+00
  0.00000000E+00  0.00000000E+00  1.00000000E+00  0.00000000E+00  0.00000000E+00
  0.00000000E+00  0.00000000E+00  0.00000000E+00  1.00000000E+00  1.00000000E+00
  0.00000000E+00  1.00000000E+00  0.00000000E+00  0.00000000E+00  0.00000000E+00
  0.00000000E+00  0.00000000E+00  0.00000000E+00  0.00000000E+00  0.00000000E+00
  0.00000000E+00  0.00000000E+00
MxBond                                     I                4
NBond                                      I   N=           8
           4           1           1           1           4           1
           1           1
IBond                                      I   N=          32
           2           3           4           5           1           0
           0           0           1           0           0           0
           1           0           0           0           1           6
           7           8           5           0           0           0
           5           0           0           0           5           0
           0           0
RBond                                      R   N=          32
  1.00000000E+00  1.00000000E+00  1.00000000E+00  1.00000000E+00  1.00000000E+00
  0.00000000E+00  0.00000000E+00  0.00000000E+00  1.00000000E+00  0.00000000E+00
  0.00000000E+00  0.00000000E+00  1.00000000E+00  0.00000000E+00  0.00000000E+00
  0.00000000E+00  1.00000000E+00  1.00000000E+00  1.00000000E+00  1.00000000E+00
  1.00000000E+00  0.00000000E+00  0.00000000E+00  0.00000000E+00  1.00000000E+00
  0.00000000E+00  0.00000000E+00  0.00000000E+00  1.00000000E+00  0.00000000E+00
  0.00000000E+00  0.00000000E+00
Virial Ratio                               R      2.007089825455119E+00
SCF Energy                                 R     -7.830436284104093E+01
Total Energy                               R     -7.830436284104093E+01
RMS Density                                R      6.119102737542504E-09
Job Status                                 I                1
Nuclear derivative order                   I                0
External E-field                           R   N=          35
  0.00000000E+00  0.00000000E+00  0.00000000E+00  0.00000000E+00  0.00000000E+00
  0.00000000E+00  0.00000000E+00  0.00000000E+00  0.00000000E+00  0.00000000E+00
  0.00000000E+00  0.00000000E+00  0.00000000E+00  0.00000000E+00  0.00000000E+00
  0.00000000E+00  0.00000000E+00  0.00000000E+00  0.00000000E+00  0.00000000E+00
  0.00000000E+00  0.00000000E+00  0.00000000E+00  0.00000000E+00  0.00000000E+00
  0.00000000E+00  0.00000000E+00  0.00000000E+00  0.00000000E+00  0.00000000E+00
  0.00000000E+00  0.00000000E+00  0.00000000E+00  0.00000000E+00  0.00000000E+00
IOpCl                                      I                0
IROHF                                      I                0
Alpha Orbital Energies                     R   N=          16
 -1.10335384E+01 -1.10332272E+01 -9.87489372E-01 -8.16725982E-01 -5.81024121E-01
 -5.80945239E-01 -4.67861799E-01 -4.67810588E-01 -4.66410997E-01  6.78369139E-01
  6.78598567E-01  6.78637014E-01  7.44790902E-01  8.04341586E-01  8.04477079E-01
  8.05251558E-01
Alpha MO coefficients                      R   N=         256
 -6.83459500E-01 -3.05463273E-02 -2.87649357E-06 -2.84051684E-03  0.00000000E+00
  5.01364305E-03  5.01603958E-03  5.01603958E-03  7.18146997E-01  3.16923585E-02
 -1.51948340E-07 -2.68136905E-03  0.00000000E+00 -5.26471136E-03 -5.26471136E-03
 -5.26478518E-03  7.18843746E-01  2.39024893E-02  2.95841998E-06 -3.18531305E-03
  0.00000000E+00 -5.15964485E-03 -5.16254245E-03 -5.16254245E-03  6.84191058E-01
  2.23670465E-02  2.98116329E-07  3.31963432E-03  0.00000000E+00 -4.90837536E-03
 -4.90837536E-03 -4.90841619E-03 -1.65358394E-01  4.50348990E-01  7.86676754E-05
  5.81467913E-02  0.00000000E+00  1.12344693E-01  1.12444442E-01  1.12444442E-01
 -1.65407812E-01  4.50482541E-01  1.63529034E-05 -5.81395856E-02  0.00000000E+00
  1.12465860E-01  1.12465860E-01  1.12478751E-01 -1.46794359E-01  4.37907972E-01
  1.00108424E-04 -1.45416916E-01  0.00000000E+00  1.69450930E-01  1.69526539E-01
  1.69526539E-01  1.46748645E-01 -4.37748338E-01  9.79193719E-06 -1.45381953E-01
  0.00000000E+00 -1.69455932E-01 -1.69455932E-01 -1.69449716E-01  0.00000000E+00
  0.00000000E+00  0.00000000E+00  0.00000000E+00  3.99934707E-01  0.00000000E+00
  2.69518925E-01 -2.69518925E-01  0.00000000E+00  0.00000000E+00  0.00000000E+00
  0.00000000E+00  4.00006253E-01 -2.69555630E-01  2.69555630E-01  0.00000000E+00
  3.09709786E-05 -1.41112048E-04  3.99709747E-01  2.03250425E-04  0.00000000E+00
 -3.11041337E-01  1.55436813E-01  1.55436813E-01  1.07719816E-05 -4.59278368E-05
  4.00270662E-01 -7.71923275E-05  0.00000000E+00 -1.55791866E-01 -1.55791866E-01
  3.11480887E-01  0.00000000E+00  0.00000000E+00  0.00000000E+00  0.00000000E+00
  4.07924557E-01  0.00000000E+00  3.35663309E-01 -3.35663309E-01  0.00000000E+00
  0.00000000E+00  0.00000000E+00  0.00000000E+00 -4.07879656E-01  3.35616081E-01
 -3.35616081E-01  0.00000000E+00 -6.74726744E-04  2.91559753E-03  4.07937073E-01
  1.85620801E-02  0.00000000E+00 -3.92423805E-01  1.88987362E-01  1.88987362E-01
 -6.65442487E-04  2.90783244E-03 -4.07379833E-01 -1.84178878E-02  0.00000000E+00
  1.88746162E-01  1.88746162E-01 -3.91909409E-01  2.02471735E-02 -8.86318433E-02
  1.40784325E-02 -5.46014113E-01  0.00000000E+00  1.28611378E-01  1.48382202E-01
  1.48382202E-01  2.02000981E-02 -8.84654426E-02 -1.37046169E-02  5.46054135E-01
  0.00000000E+00  1.48323098E-01  1.48323098E-01  1.28728901E-01  3.53166794E-02
 -1.96868955E-01  6.52876898E-01 -4.57451634E-01  0.00000000E+00  5.96006920E-01
 -3.80195209E-01 -3.80195209E-01 -3.48961401E-02  1.94248802E-01  6.50494048E-01
 -4.58929291E-01  0.00000000E+00  3.80729352E-01  3.80729352E-01 -5.92864348E-01
 -6.73569307E-02  3.75231344E-01  3.37767039E-01  8.83809936E-01  0.00000000E+00
  4.44869617E-01 -6.06980319E-02 -6.06980319E-02  6.71247147E-02 -3.73658397E-01
  3.38009361E-01  8.84264222E-01  0.00000000E+00  5.99477001E-02  5.99477001E-02
 -4.45722921E-01  0.00000000E+00  0.00000000E+00  0.00000000E+00  0.00000000E+00
  7.34118356E-01  0.00000000E+00 -6.34072804E-01  6.34072804E-01  0.00000000E+00
  0.00000000E+00  0.00000000E+00  0.00000000E+00  7.34299948E-01  6.34210364E-01
 -6.34210364E-01  0.00000000E+00 -1.51024303E-01  9.92693625E-01  3.47237343E-04
 -4.29423733E-01  0.00000000E+00 -5.29195028E-01 -5.29694300E-01 -5.29694300E-01
 -1.51038649E-01  9.92767466E-01  1.23098743E-03  4.26586848E-01  0.00000000E+00
 -5.28177630E-01 -5.28177630E-01 -5.29814355E-01 -2.04456698E-02  1.32054079E-01
 -8.55714815E-01 -9.58086848E-03  0.00000000E+00 -7.56249933E-01  2.89700566E-01
  2.89700566E-01  2.06535664E-02 -1.33570245E-01  8.57993414E-01 -9.83257904E-03
  0.00000000E+00  4.09457051E-01  4.09457051E-01 -6.39759552E-01  0.00000000E+00
  0.00000000E+00  0.00000000E+00  0.00000000E+00  8.62169286E-01  0.00000000E+00
 -6.08618423E-01  6.08618423E-01  0.00000000E+00  0.00000000E+00  0.00000000E+00
  0.00000000E+00 -8.62002681E-01 -6.08484868E-01  6.08484868E-01  0.00000000E+00
  1.87589993E-01 -1.21305667E+00 -9.49391845E-02  8.08723447E-02  0.00000000E+00
  4.62338391E-01  5.78617946E-01  5.78617946E-01 -1.87728016E-01  1.21405195E+00
  9.33318157E-02  8.10611132E-02  0.00000000E+00 -5.02367941E-01 -5.02367941E-01
 -6.16346154E-01
Orthonormal basis                          R   N=         256
  8.22066373E-02  3.03007939E-01  7.51515844E-05  6.76051019E-02  0.00000000E+00
  1.78672494E-01  1.78812718E-01  1.78812718E-01  8.22248997E-02  3.03053552E-01
  3.44580487E-05 -6.75921893E-02  0.00000000E+00  1.78812972E-01  1.78812972E-01
  1.78840061E-01  1.02047259E-01  2.59859837E-01  4.70572409E-05 -1.96428914E-01
  0.00000000E+00  2.09270900E-01  2.09241886E-01  2.09241886E-01 -1.02035776E-01
 -2.59811743E-01  4.50853149E-05 -1.96287318E-01  0.00000000E+00 -2.09179709E-01
 -2.09179709E-01 -2.09140970E-01 -3.06902030E-05 -9.01450149E-05  4.33453936E-01
  2.10209002E-04  0.00000000E+00 -2.76990583E-01  1.38382111E-01  1.38382111E-01
 -1.97443014E-05 -4.27410251E-05  4.33646051E-01 -1.17394456E-04  0.00000000E+00
 -1.38617643E-01 -1.38617643E-01  2.77061250E-01 -4.59712522E-02 -5.64100329E-02
 -3.22138030E-04 -5.66589161E-01  0.00000000E+00  1.10730241E-01  1.10006792E-01
  1.10006792E-01 -4.58267222E-02 -5.62353021E-02  7.60083657E-04  5.66694607E-01
  0.00000000E+00  1.10009504E-01  1.10009504E-01  1.10840672E-01 -6.10379637E-05
 -9.55818848E-05  4.52179771E-01 -7.81893986E-04  0.00000000E+00 -3.50575055E-01
  1.75502519E-01  1.75502519E-01 -1.53039939E-04 -1.51912116E-04 -4.51925907E-01
  8.44177766E-04  0.00000000E+00  1.75383524E-01  1.75383524E-01 -3.50389234E-01
  6.88711828E-01  2.79845210E-02 -1.02164071E-04  1.09736779E-01  0.00000000E+00
 -8.92131934E-02 -8.91785176E-02 -8.91785176E-02 -6.88503518E-01 -2.79793016E-02
  3.23964760E-05  1.09910038E-01  0.00000000E+00  8.91546314E-02  8.91546314E-02
  8.92075593E-02  6.98614115E-01 -1.80374298E-02  5.64399748E-05 -1.03749855E-01
  0.00000000E+00 -8.38457946E-02 -8.38028879E-02 -8.38028879E-02  6.98842715E-01
 -1.80323718E-02 -3.29947779E-06  1.03747187E-01  0.00000000E+00 -8.38527856E-02
 -8.38527856E-02 -8.38587426E-02 -6.84129374E-02  1.76602299E-01 -6.84699259E-04
  9.79126676E-01  0.00000000E+00  2.43840487E-01  2.44594581E-01  2.44594581E-01
  6.83430434E-02 -1.76352827E-01 -1.04045696E-04  9.79091045E-01  0.00000000E+00
 -2.44487594E-01 -2.44487594E-01 -2.44261669E-01  1.66596494E-04 -4.89633136E-04
  7.16926325E-01  8.48102247E-04  0.00000000E+00  7.47926548E-01 -3.73448194E-01
 -3.73448194E-01 -1.51953565E-05  2.53866143E-05  7.12600828E-01  2.55919317E-04
  0.00000000E+00  3.71884382E-01  3.71884382E-01 -7.44045144E-01 -1.79798388E-04
  5.88283970E-04 -8.37640243E-01 -6.58706387E-04  0.00000000E+00 -7.20015197E-01
  3.59502390E-01  3.59502390E-01  2.14448101E-05 -4.82051288E-05  8.41744716E-01
 -7.02705003E-05  0.00000000E+00  3.61950299E-01  3.61950299E-01 -7.23775230E-01
 -2.14420561E-01  1.05016347E+00  6.99220293E-04 -3.85681543E-01  0.00000000E+00
 -5.11147503E-01 -5.12051078E-01 -5.12051078E-01 -2.14118670E-01  1.04883687E+00
 -2.64066140E-05  3.85443039E-01  0.00000000E+00 -5.11229373E-01 -5.11229373E-01
 -5.11197672E-01  2.55007912E-01 -1.32673422E+00 -7.14758933E-04 -1.00074327E-01
  0.00000000E+00  4.75795149E-01  4.76812645E-01  4.76812645E-01 -2.55249425E-01
  1.32809181E+00  1.96427248E-05 -9.98078699E-02  0.00000000E+00 -4.77114656E-01
 -4.77114656E-01 -4.77137654E-01  0.00000000E+00  0.00000000E+00  0.00000000E+00
  0.00000000E+00  4.33515203E-01  0.00000000E+00  2.39905740E-01 -2.39905740E-01
  0.00000000E+00  0.00000000E+00  0.00000000E+00  0.00000000E+00  4.33515203E-01
 -2.39905740E-01  2.39905740E-01  0.00000000E+00  0.00000000E+00  0.00000000E+00
  0.00000000E+00  0.00000000E+00  4.52054804E-01  0.00000000E+00  3.03633170E-01
 -3.03633170E-01  0.00000000E+00  0.00000000E+00  0.00000000E+00  0.00000000E+00
 -4.52054804E-01  3.03633170E-01 -3.03633170E-01  0.00000000E+00  0.00000000E+00
  0.00000000E+00  0.00000000E+00  0.00000000E+00 -7.14915408E-01  0.00000000E+00
  6.45934310E-01 -6.45934310E-01  0.00000000E+00  0.00000000E+00  0.00000000E+00
  0.00000000E+00 -7.14915408E-01 -6.45934310E-01  6.45934310E-01  0.00000000E+00
  0.00000000E+00  0.00000000E+00  0.00000000E+00  0.00000000E+00 -8.39775467E-01
  0.00000000E+00  6.25136795E-01 -6.25136795E-01  0.00000000E+00  0.00000000E+00
  0.00000000E+00  0.00000000E+00  8.39775467E-01  6.25136795E-01 -6.25136795E-01
  0.00000000E+00
Total SCF Density                          R   N=         136
  2.06631121E+00 -2.04977179E-01  8.07892273E-01 -2.85857922E-06 -7.07923925E-05
  6.52757510E-01  6.30396801E-04  2.19321608E-02 -8.72109501E-05  6.46042694E-01
  0.00000000E+00  0.00000000E+00  1.00600622E-36  1.60903078E-32  6.52700428E-01
 -9.54560332E-02  2.24044867E-01 -5.65148108E-01 -1.91354807E-01  0.00000000E+00
  6.17341498E-01 -9.54737478E-02  2.23954667E-01  2.82678673E-01 -1.91181464E-01
  4.89430558E-01 -1.24032046E-01  6.17278448E-01 -9.54737478E-02  2.23954667E-01
  2.82678673E-01 -1.91181464E-01 -4.89430558E-01 -1.24032046E-01 -1.23962783E-01
  6.17278448E-01  1.44424325E-02 -3.52080735E-02  3.77392618E-05 -9.24376575E-02
  0.00000000E+00  1.84202036E-02  1.84438767E-02  1.84438767E-02  2.06631182E+00
 -3.52145067E-02  3.71935066E-02 -1.72017571E-04  2.76092411E-01  1.36124058E-32
 -7.20570636E-02 -7.21929916E-02 -7.21929916E-02 -2.04956295E-01  8.07794820E-01
  1.19274905E-05 -3.58178879E-05 -1.27723778E-02  3.95753495E-06  1.17782276E-37
  6.72114938E-02 -3.36057379E-02 -3.36057379E-02 -5.21629232E-06  2.49825704E-05
  6.52725497E-01  9.24850043E-02 -2.76274478E-01  2.48564772E-04 -5.61475493E-01
 -2.76828776E-32  9.25660992E-02  9.26356161E-02  9.26356161E-02 -6.59227426E-04
 -2.18427233E-02 -2.73148301E-05  6.46097352E-01  0.00000000E+00  0.00000000E+00
 -1.97524943E-38 -3.15926191E-34 -1.28154888E-02  0.00000000E+00 -5.82019588E-02
  5.82019588E-02  0.00000000E+00  0.00000000E+00  1.00606973E-36  1.60913236E-32
  6.52741631E-01  1.84376188E-02 -7.21751588E-02  3.36101412E-02 -9.26055421E-02
  5.82027783E-02 -4.52306634E-02  1.14769663E-01 -4.52449785E-02 -9.54808004E-02
  2.24001702E-01 -2.82565651E-01  1.91246200E-01 -4.89429819E-01  6.17220089E-01
  1.84376188E-02 -7.21751588E-02  3.36101412E-02 -9.26055421E-02 -5.82027783E-02
 -4.52306634E-02 -4.52449785E-02  1.14769663E-01 -9.54808004E-02  2.24001702E-01
 -2.82565651E-01  1.91246200E-01  4.89429819E-01 -1.23973479E-01  6.17220089E-01
  1.84506299E-02 -7.22025528E-02 -6.71364877E-02 -9.25748377E-02  0.00000000E+00
  1.14778121E-01 -4.52578665E-02 -4.52578665E-02 -9.54921591E-02  2.24054866E-01
  5.65137300E-01  1.91160667E-01  0.00000000E+00 -1.23976054E-01 -1.23976054E-01
  6.17201889E-01
Mulliken Charges                           R   N=           8
 -1.85842745E-01  6.19020169E-02  6.19553184E-02  6.19553184E-02 -1.85944085E-01
  6.19873908E-02  6.19873908E-02  6.19993948E-02
ONIOM Charges                              I   N=          16
           0           0           0           0           0           0
           0           0           0           0           0           0
           0           0           0           0
ONIOM Multiplicities                       I   N=          16
           1           0           0           0           0           0
           0           0           0           0           0           0
           0           0           0           0
Atom Layers                                I   N=           8
           1           1           1           1           1           1
           1           1
Atom Modifiers                             I   N=           8
           0           0           0           0           0           0
           0           0
Int Atom Modified Types                    I   N=           8
           0           0           0           0           0           0
           0           0
Force Field                                I                0
Atom Modified Types                        C   N=           8
                                                            
                                    
Link Atoms                                 I   N=           8
           0           0           0           0           0           0
           0           0
Atom Modified MM Charges                   R   N=           8
  0.00000000E+00  0.00000000E+00  0.00000000E+00  0.00000000E+00  0.00000000E+00
  0.00000000E+00  0.00000000E+00  0.00000000E+00
Link Distances                             R   N=          32
  0.00000000E+00  0.00000000E+00  0.00000000E+00  0.00000000E+00  0.00000000E+00
  0.00000000E+00  0.00000000E+00  0.00000000E+00  0.00000000E+00  0.00000000E+00
  0.00000000E+00  0.00000000E+00  0.00000000E+00  0.00000000E+00  0.00000000E+00
  0.00000000E+00  0.00000000E+00  0.00000000E+00  0.00000000E+00  0.00000000E+00
  0.00000000E+00  0.00000000E+00  0.00000000E+00  0.00000000E+00  0.00000000E+00
  0.00000000E+00  0.00000000E+00  0.00000000E+00  0.00000000E+00  0.00000000E+00
  0.00000000E+00  0.00000000E+00
Cartesian Gradient                         R   N=          24
 -0.00000000E+00  0.00000000E+00  0.00000000E+00 -0.00000000E+00  0.00000000E+00
  0.00000000E+00 -0.00000000E+00  0.00000000E+00  0.00000000E+00 -0.00000000E+00
  0.00000000E+00  0.00000000E+00 -0.00000000E+00  0.00000000E+00  0.00000000E+00
 -0.00000000E+00  0.00000000E+00  0.00000000E+00 -0.00000000E+00  0.00000000E+00
  0.00000000E+00 -0.00000000E+00  0.00000000E+00  0.00000000E+00
Nonadiabatic coupling                      R   N=          24
  0.00000000E+00  0.00000000E+00  0.00000000E+00  0.00000000E+00  0.00000000E+00
  0.00000000E+00  0.00000000E+00  0.00000000E+00  0.00000000E+00  0.00000000E+00
  0.00000000E+00  0.00000000E+00  0.00000000E+00  0.00000000E+00  0.00000000E+00
  0.00000000E+00  0.00000000E+00  0.00000000E+00  0.00000000E+00  0.00000000E+00
  0.00000000E+00  0.00000000E+00  0.00000000E+00  0.00000000E+00
Dipole Moment                              R   N=           3
  5.79374898E-05  1.83910374E-05  4.44089210E-16
Quadrupole Moment                          R   N=           6
  1.41293410E-01 -2.82684743E-01  1.41391332E-01  6.35890866E-04  5.64652491E-16
 -1.78633150E-15
QEq coupling tensors                       R   N=          48
  6.82255072E-04 -1.60204902E-04 -1.18898820E-03 -1.58380253E-15  1.00613962E-15
  5.06733129E-04 -2.95426932E-01 -1.66782848E-01  1.16653208E-01 -7.63278329E-17
  1.73472348E-18  1.78773724E-01  6.02824493E-02  8.34134665E-02  1.17151013E-01
 -2.05895678E-01  1.44477639E-01 -1.77433463E-01  6.02824493E-02  8.34134665E-02
  1.17151013E-01  2.05895678E-01 -1.44477639E-01 -1.77433463E-01  5.36254076E-04
 -3.17837436E-05 -1.09769395E-03  5.55111512E-17  4.85722573E-16  5.61439873E-04
  6.02904744E-02  8.34206079E-02  1.17149373E-01 -2.05880664E-01  1.44484801E-01
 -1.77439847E-01  6.02904744E-02  8.34206079E-02  1.17149373E-01  2.05880664E-01
 -1.44484801E-01 -1.77439847E-01 -2.96308842E-01 -1.66828893E-01  1.17151338E-01
 -8.32667268E-17  6.93889390E-18  1.79157503E-01
ClPar MaxAn                                I              200
ClPar NIntPar                              I                4
ClPar NRealPar                             I               16
ClPar NBits                                I               30
ClPar LenBitVec                            I                1
ClPar Read BitMap                          I   N=         200
           0           0           0           0           0           0
           0           0           0           0           0           0
           0           0           0           0           0           0
           0           0           0           0           0           0
           0           0           0           0           0           0
           0           0           0           0           0           0
           0           0           0           0           0           0
           0           0           0           0           0           0
           0           0           0           0           0           0
           0           0           0           0           0           0
           0           0           0           0           0           0
           0           0           0           0           0           0
           0           0           0           0           0           0
           0           0           0           0           0           0
           0           0           0           0           0           0
           0           0           0           0           0           0
           0           0           0           0           0           0
           0           0           0           0           0           0
           0           0           0           0           0           0
           0           0           0           0           0           0
           0           0           0           0           0           0
           0           0           0           0           0           0
           0           0           0           0           0           0
           0           0           0           0           0           0
           0           0           0           0           0           0
           0           0           0           0           0           0
           0           0           0           0           0           0
           0           0           0           0           0           0
           0           0           0           0           0           0
           0           0           0           0           0           0
           0           0           0           0           0           0
           0           0           0           0           0           0
           0           0           0           0           0           0
           0           0
ClPar Default BitMap                       I   N=         200
        2016        2016        2016        2016        2016        2016
        2016        2016        2016        2016        2016        2016
        2016        2016        2016        2016        2016        2016
        2016        2016        2016        2016        2016        2016
        2016        2016        2016        2016        2016        2016
        2016        2016        2016        2016        2016        2016
        2016        2016        2016        2016        2016        2016
        2016        2016        2016        2016        2016        2016
        2016        2016        2016        2016        2016        2016
        2016        2016        2016        2016        2016        2016
        2016        2016        2016        2016        2016        2016
        2016        2016        2016        2016        2016        2016
        2016        2016        2016        2016        2016        2016
        2016        2016        2016        2016        2016        2016
        2016        2016         480         480         480         480
         480         480         480         480         480         480
         480         480         480         480         480         480
         480         480         480         480         480         480
         480         480         480         480         480         480
         480         480         480         480         480         480
         480         480         480         480         480         480
         480         480         480         480         480         480
         480         480         480         480         480         480
         480         480         480         480         480         480
         480         480         480         480         480         480
         480         480         480         480         480         480
         480         480         480         480         480         480
         480         480         480         480         480         480
         480         480         480         480         480         480
         480         480         480         480         480         480
         480         480         480         480         480         480
         480         480         480         480         480         480
         480         480         480         480         480         480
         480         480
ClPar Int Params                           I   N=         800
           0           0           0           0           0           0
           0           0           0           0           0           0
           0           0           0           0           0           0
           0           0           0           0           0           0
           0           0           0           0           0           0
           0           0           0           0           0           0
           0           0           0           0           0           0
           0           0           0           0           0           0
           0           0           0           0           0           0
           0           0           0           0           0           0
           0           0           0           0           0           0
           0           0           0           0           0           0
           0           0           0           0           0           0
           0           0           0           0           0           0
           0           0           0           0           0           0
           0           0           0           0           0           0
           0           0           0           0           0           0
           0           0           0           0           0           0
           0           0           0           0           0           0
           0           0           0           0           0           0
           0           0           0           0           0           0
           0           0           0           0           0           0
           0           0           0           0           0           0
           0           0           0           0           0           0
           0           0           0           0           0           0
           0           0           0           0           0           0
           0           0           0           0           0           0
           0           0           0           0           0           0
           0           0           0           0           0           0
           0           0           0           0           0           0
           0           0           0           0           0           0
           0           0           0           0           0           0
           0           0           0           0           0           0
           0           0           0           0           0           0
           0           0           0           0           0           0
           0           0           0           0           0           0
           0           0           0           0           0           0
           0           0           0           0           0           0
           0           0           0           0           0           0
           0           0           0           0           0           0
           0           0           0           0           0           0
           0           0           0           0           0           0
           0           0           0           0           0           0
           0           0           0           0           0           0
           0           0           0           0           0           0
           0           0           0           0           0           0
           0           0           0           0           0           0
           0           0           0           0           0           0
           0           0           0           0           0           0
           0           0           0           0           0           0
           0           0           0           0           0           0
           0           0           0           0           0           0
           0           0           0           0           0           0
           0           0           0           0           0           0
           0           0           0           0           0           0
           0           0           0           0           0           0
           0           0           0           0           0           0
           0           0           0           0           0           0
           0           0           0           0           0           0
           0           0           0           0           0           0
           0           0           0           0           0           0
           0           0           0           0           0           0
           0           0           0           0           0           0
           0           0           0           0           0           0
           0           0           0           0           0           0
           0           0           0           0           0           0
           0           0           0           0           0           0
           0           0           0           0           0           0
           0           0           0           0           0           0
           0           0           0           0           0           0
           0           0           0           0           0           0
           0           0           0           0           0           0
           0           0           0           0           0           0
           0           0           0           0           0           0
           0           0           0           0           0           0
           0           0           0           0           0           0
           0           0           0           0           0           0
           0           0           0           0           0           0
           0           0           0           0           0           0
           0           0           0           0           0           0
           0           0           0           0           0           0
           0           0           0           0           0           0
           0           0           0           0           0           0
           0           0           0           0           0           0
           0           0           0           0           0           0
           0           0           0           0           0           0
           0           0           0           0           0           0
           0           0           0           0           0           0
           0           0           0           0           0           0
           0           0           0           0           0           0
           0           0           0           0           0           0
           0           0           0           0           0           0
           0           0           0           0           0           0
           0           0           0           0           0           0
           0           0           0           0           0           0
           0           0           0           0           0           0
           0           0           0           0           0           0
           0           0           0           0           0           0
           0           0           0           0           0           0
           0           0           0           0           0           0
           0           0           0           0           0           0
           0           0           0           0           0           0
           0           0           0           0           0           0
           0           0           0           0           0           0
           0           0           0           0           0           0
           0           0           0           0           0           0
           0           0           0           0           0           0
           0           0           0           0           0           0
           0           0           0           0           0           0
           0           0           0           0           0           0
           0           0           0           0           0           0
           0           0           0           0           0           0
           0           0           0           0           0           0
           0           0           0           0           0           0
           0           0           0           0           0           0
           0           0           0           0           0           0
           0           0           0           0           0           0
           0           0           0           0           0           0
           0           0           0           0           0           0
           0           0           0           0           0           0
           0           0           0           0           0           0
           0           0           0           0           0           0
           0           0           0           0           0           0
           0           0           0           0           0           0
           0           0           0           0           0           0
           0           0           0           0           0           0
           0           0           0           0           0           0
           0           0           0           0           0           0
           0           0           0           0           0           0
           0           0           0           0           0           0
           0           0           0           0           0           0
           0           0           0           0           0           0
           0           0           0           0           0           0
           0           0
ClPar Real Params                          R   N=        3200
  0.00000000E+00  0.00000000E+00  0.00000000E+00  0.00000000E+00  0.00000000E+00
  0.00000000E+00  0.00000000E+00  0.00000000E+00  0.00000000E+00  0.00000000E+00
  0.00000000E+00  0.00000000E+00  0.00000000E+00  0.00000000E+00  0.00000000E+00
  0.00000000E+00  0.00000000E+00  0.00000000E+00  0.00000000E+00  0.00000000E+00
  0.00000000E+00  0.00000000E+00  0.00000000E+00  0.00000000E+00  0.00000000E+00
  0.00000000E+00  0.00000000E+00  0.00000000E+00  0.00000000E+00  0.00000000E+00
  0.00000000E+00  0.00000000E+00  0.00000000E+00  0.00000000E+00  0.00000000E+00
  0.00000000E+00  0.00000000E+00  0.00000000E+00  0.00000000E+00  0.00000000E+00
  0.00000000E+00  0.00000000E+00  0.00000000E+00  0.00000000E+00  0.00000000E+00
  0.00000000E+00  0.00000000E+00  0.00000000E+00  0.00000000E+00  0.00000000E+00
  0.00000000E+00  0.00000000E+00  0.00000000E+00  0.00000000E+00  0.00000000E+00
  0.00000000E+00  0.00000000E+00  0.00000000E+00  0.00000000E+00  0.00000000E+00
  0.00000000E+00  0.00000000E+00  0.00000000E+00  0.00000000E+00  0.00000000E+00
  0.00000000E+00  0.00000000E+00  0.00000000E+00  0.00000000E+00  0.00000000E+00
  0.00000000E+00  0.00000000E+00  0.00000000E+00  0.00000000E+00  0.00000000E+00
  0.00000000E+00  0.00000000E+00  0.00000000E+00  0.00000000E+00  0.00000000E+00
  0.00000000E+00  0.00000000E+00  0.00000000E+00  0.00000000E+00  0.00000000E+00
  0.00000000E+00  0.00000000E+00  0.00000000E+00  0.00000000E+00  0.00000000E+00
  0.00000000E+00  0.00000000E+00  0.00000000E+00  0.00000000E+00  0.00000000E+00
  0.00000000E+00  0.00000000E+00  0.00000000E+00  0.00000000E+00  0.00000000E+00
  0.00000000E+00  0.00000000E+00  0.00000000E+00  0.00000000E+00  0.00000000E+00
  0.00000000E+00  0.00000000E+00  0.00000000E+00  0.00000000E+00  0.00000000E+00
  0.00000000E+00  0.00000000E+00  0.00000000E+00  0.00000000E+00  0.00000000E+00
  0.00000000E+00  0.00000000E+00  0.00000000E+00  0.00000000E+00  0.00000000E+00
  0.00000000E+00  0.00000000E+00  0.00000000E+00  0.00000000E+00  0.00000000E+00
  0.00000000E+00  0.00000000E+00  0.00000000E+00  0.00000000E+00  0.00000000E+00
  0.00000000E+00  0.00000000E+00  0.00000000E+00  0.00000000E+00  0.00000000E+00
  0.00000000E+00  0.00000000E+00  0.00000000E+00  0.00000000E+00  0.00000000E+00
  0.00000000E+00  0.00000000E+00  0.00000000E+00  0.00000000E+00  0.00000000E+00
  0.00000000E+00  0.00000000E+00  0.00000000E+00  0.00000000E+00  0.00000000E+00
  0.00000000E+00  0.00000000E+00  0.00000000E+00  0.00000000E+00  0.00000000E+00
  0.00000000E+00  0.00000000E+00  0.00000000E+00  0.00000000E+00  0.00000000E+00
  0.00000000E+00  0.00000000E+00  0.00000000E+00  0.00000000E+00  0.00000000E+00
  0.00000000E+00  0.00000000E+00  0.00000000E+00  0.00000000E+00  0.00000000E+00
  0.00000000E+00  0.00000000E+00  0.00000000E+00  0.00000000E+00  0.00000000E+00
  0.00000000E+00  0.00000000E+00  0.00000000E+00  0.00000000E+00  0.00000000E+00
  0.00000000E+00  0.00000000E+00  0.00000000E+00  0.00000000E+00  0.00000000E+00
  0.00000000E+00  0.00000000E+00  0.00000000E+00  0.00000000E+00  0.00000000E+00
  0.00000000E+00  0.00000000E+00  0.00000000E+00  0.00000000E+00  0.00000000E+00
  0.00000000E+00  0.00000000E+00  0.00000000E+00  0.00000000E+00  0.00000000E+00
  2.26000000E-01  4.43000000E-01  1.01000000E-01  1.47000000E-01  1.92000000E-01
  2.40000000E-01  2.75000000E-01  3.03000000E-01  3.25000000E-01  4.13000000E-01
  9.60000000E-02  1.35000000E-01  1.73000000E-01  2.11000000E-01  2.48000000E-01
  2.86000000E-01  3.23000000E-01  3.60000000E-01  8.20000000E-02  1.04000000E-01
  1.17000000E-01  1.23000000E-01  1.29000000E-01  1.34000000E-01  1.40000000E-01
  1.44000000E-01  1.48000000E-01  1.52000000E-01  1.55000000E-01  1.76000000E-01
  1.98000000E-01  2.19000000E-01  2.39000000E-01  2.60000000E-01  2.80000000E-01
  3.00000000E-01  7.90000000E-02  9.90000000E-02  1.19000000E-01  1.26000000E-01
  1.33000000E-01  1.40000000E-01  1.47000000E-01  1.53000000E-01  1.58000000E-01
  1.63000000E-01  1.57000000E-01  1.70000000E-01  1.87000000E-01  2.03000000E-01
  2.19000000E-01  2.34000000E-01  2.50000000E-01  2.65000000E-01  7.40000000E-02
  9.20000000E-02  1.05000000E-01  1.06000000E-01  1.07000000E-01  1.08000000E-01
  1.09000000E-01  1.10000000E-01  1.11000000E-01  1.12000000E-01  1.13000000E-01
  1.14000000E-01  1.15000000E-01  1.16000000E-01  1.17000000E-01  1.17000000E-01
  1.26000000E-01  1.36000000E-01  1.46000000E-01  1.55000000E-01  1.65000000E-01
  1.73000000E-01  1.82000000E-01  1.90000000E-01  1.62000000E-01  1.78000000E-01
  1.10000000E-01  1.35000000E-01  1.59000000E-01  1.83000000E-01  2.07000000E-01
  2.31000000E-01  6.90000000E-02  9.40000000E-02  1.02000000E-01  1.03000000E-01
  1.05000000E-01  1.07000000E-01  1.09000000E-01  1.11000000E-01  1.13000000E-01
  1.15000000E-01  1.17000000E-01  1.19000000E-01  1.20000000E-01  1.22000000E-01
  1.24000000E-01  1.26000000E-01  1.28000000E-01  1.28000000E-01  1.28000000E-01
  1.28000000E-01  1.28000000E-01  1.28000000E-01  1.28000000E-01  1.28000000E-01
  1.28000000E-01  1.28000000E-01  1.28000000E-01  1.28000000E-01  1.28000000E-01
  1.28000000E-01  1.28000000E-01  1.28000000E-01  1.28000000E-01  1.28000000E-01
  1.28000000E-01  1.28000000E-01  1.28000000E-01  1.28000000E-01  1.28000000E-01
  1.28000000E-01  1.28000000E-01  1.28000000E-01  1.28000000E-01  1.28000000E-01
  1.28000000E-01  1.28000000E-01  1.28000000E-01  1.28000000E-01  1.28000000E-01
  1.28000000E-01  1.28000000E-01  1.28000000E-01  1.28000000E-01  1.28000000E-01
  1.28000000E-01  1.28000000E-01  1.28000000E-01  1.28000000E-01  1.28000000E-01
  1.28000000E-01  1.28000000E-01  1.28000000E-01  1.28000000E-01  1.28000000E-01
  1.28000000E-01  1.28000000E-01  1.28000000E-01  1.28000000E-01  1.28000000E-01
  1.28000000E-01  1.28000000E-01  1.28000000E-01  1.28000000E-01  1.28000000E-01
  1.28000000E-01  1.28000000E-01  1.28000000E-01  1.28000000E-01  1.28000000E-01
  1.28000000E-01  1.28000000E-01  1.28000000E-01  1.28000000E-01  1.28000000E-01
  1.28000000E-01  1.28000000E-01  1.28000000E-01  1.28000000E-01  1.28000000E-01
  1.28000000E-01  1.28000000E-01  1.28000000E-01  1.28000000E-01  1.28000000E-01
  1.28000000E-01  1.28000000E-01  1.28000000E-01  1.28000000E-01  1.28000000E-01
  1.28000000E-01  1.28000000E-01  1.28000000E-01  1.28000000E-01  1.28000000E-01
  1.28000000E-01  1.28000000E-01  1.28000000E-01  1.28000000E-01  1.28000000E-01
  1.28000000E-01  1.28000000E-01  1.28000000E-01  1.28000000E-01  1.28000000E-01
  5.47000000E-01  5.92000000E-01  5.99000000E-01  6.68000000E-01  6.98000000E-01
  7.18000000E-01  7.26000000E-01  7.36000000E-01  7.43000000E-01  7.45000000E-01
  6.07000000E-01  6.66000000E-01  6.93000000E-01  7.09000000E-01  7.20000000E-01
  7.29000000E-01  7.35000000E-01  7.40000000E-01  6.08000000E-01  7.34000000E-01
  7.46000000E-01  7.55000000E-01  7.61000000E-01  7.65000000E-01  7.67000000E-01
  7.60000000E-01  7.49000000E-01  7.33000000E-01  7.08000000E-01  6.48000000E-01
  6.88000000E-01  7.09000000E-01  7.22000000E-01  7.31000000E-01  7.38000000E-01
  7.44000000E-01  6.09000000E-01  7.30000000E-01  7.41000000E-01  7.52000000E-01
  7.58000000E-01  7.63000000E-01  7.66000000E-01  7.58000000E-01  7.48000000E-01
  7.33000000E-01  7.01000000E-01  6.45000000E-01  6.86000000E-01  7.08000000E-01
  7.22000000E-01  7.31000000E-01  7.38000000E-01  7.44000000E-01  6.08000000E-01
  7.28000000E-01  7.32000000E-01  7.32000000E-01  7.32000000E-01  7.32000000E-01
  7.32000000E-01  7.32000000E-01  7.32000000E-01  7.32000000E-01  7.32000000E-01
  7.31000000E-01  7.31000000E-01  7.31000000E-01  7.31000000E-01  7.46000000E-01
  7.37000000E-01  7.46000000E-01  7.51000000E-01  7.55000000E-01  7.58000000E-01
  7.47000000E-01  7.32000000E-01  7.11000000E-01  7.41000000E-01  7.07000000E-01
  7.47000000E-01  7.43000000E-01  7.42000000E-01  7.42000000E-01  7.43000000E-01
  7.44000000E-01  6.05000000E-01  7.24000000E-01  7.26000000E-01  7.26000000E-01
  7.27000000E-01  7.27000000E-01  7.27000000E-01  7.28000000E-01  7.28000000E-01
  7.28000000E-01  7.28000000E-01  7.28000000E-01  7.29000000E-01  7.29000000E-01
  7.29000000E-01  7.29000000E-01  7.29000000E-01  7.29000000E-01  7.29000000E-01
  7.29000000E-01  7.29000000E-01  7.29000000E-01  7.29000000E-01  7.29000000E-01
  7.29000000E-01  7.29000000E-01  7.29000000E-01  7.29000000E-01  7.29000000E-01
  7.29000000E-01  7.29000000E-01  7.29000000E-01  7.29000000E-01  7.29000000E-01
  7.29000000E-01  7.29000000E-01  7.29000000E-01  7.29000000E-01  7.29000000E-01
  7.29000000E-01  7.29000000E-01  7.29000000E-01  7.29000000E-01  7.29000000E-01
  7.29000000E-01  7.29000000E-01  7.29000000E-01  7.29000000E-01  7.29000000E-01
  7.29000000E-01  7.29000000E-01  7.29000000E-01  7.29000000E-01  7.29000000E-01
  7.29000000E-01  7.29000000E-01  7.29000000E-01  7.29000000E-01  7.29000000E-01
  7.29000000E-01  7.29000000E-01  7.29000000E-01  7.29000000E-01  7.29000000E-01
  7.29000000E-01  7.29000000E-01  7.29000000E-01  7.29000000E-01  7.29000000E-01
  7.29000000E-01  7.29000000E-01  7.29000000E-01  7.29000000E-01  7.29000000E-01
  7.29000000E-01  7.29000000E-01  7.29000000E-01  7.29000000E-01  7.29000000E-01
  7.29000000E-01  7.29000000E-01  7.29000000E-01  7.29000000E-01  7.29000000E-01
  7.29000000E-01  7.29000000E-01  7.29000000E-01  7.29000000E-01  7.29000000E-01
  7.29000000E-01  7.29000000E-01  7.29000000E-01  7.29000000E-01  7.29000000E-01
  7.29000000E-01  7.29000000E-01  7.29000000E-01  7.29000000E-01  7.29000000E-01
  7.29000000E-01  7.29000000E-01  7.29000000E-01  7.29000000E-01  7.29000000E-01
  7.29000000E-01  7.29000000E-01  7.29000000E-01  7.29000000E-01  7.29000000E-01
  7.29000000E-01  7.29000000E-01  7.29000000E-01  7.29000000E-01  7.29000000E-01
  1.00000000E+00  1.70400000E+00  3.23000000E-01  3.89000000E-01  4.67000000E-01
  5.67000000E-01  6.36000000E-01  6.64000000E-01  6.96000000E-01  8.79000000E-01
  3.07000000E-01  3.48000000E-01  4.00000000E-01  4.54000000E-01  5.09000000E-01
  5.65000000E-01  6.21000000E-01  6.77000000E-01  2.56000000E-01  3.50000000E-01
  3.64000000E-01  3.62000000E-01  3.62000000E-01  3.62000000E-01  3.62000000E-01
  3.65000000E-01  3.69000000E-01  3.75000000E-01  3.86000000E-01  4.46000000E-01
  4.55000000E-01  4.74000000E-01  4.96000000E-01  5.20000000E-01  5.45000000E-01
  5.70000000E-01  2.45000000E-01  3.22000000E-01  3.55000000E-01  3.59000000E-01
  3.64000000E-01  3.70000000E-01  3.76000000E-01  3.85000000E-01  3.95000000E-01
  4.08000000E-01  3.76000000E-01  4.23000000E-01  4.22000000E-01  4.32000000E-01
  4.45000000E-01  4.59000000E-01  4.75000000E-01  4.91000000E-01  2.28000000E-01
  2.92000000E-01  2.89000000E-01  2.92000000E-01  2.95000000E-01  2.98000000E-01
  3.00000000E-01  3.03000000E-01  3.06000000E-01  3.09000000E-01  3.12000000E-01
  3.15000000E-01  3.18000000E-01  3.21000000E-01  3.24000000E-01  3.61000000E-01
  3.69000000E-01  3.70000000E-01  3.72000000E-01  3.75000000E-01  3.78000000E-01
  3.85000000E-01  3.94000000E-01  4.07000000E-01  5.26000000E-01  6.21000000E-01
  3.36000000E-01  3.54000000E-01  3.71000000E-01  3.86000000E-01  4.02000000E-01
  4.17000000E-01  2.09000000E-01  2.94000000E-01  2.65000000E-01  2.72000000E-01
  2.78000000E-01  2.84000000E-01  2.91000000E-01  2.97000000E-01  3.03000000E-01
  3.10000000E-01  3.16000000E-01  3.22000000E-01  3.29000000E-01  3.35000000E-01
  3.41000000E-01  3.48000000E-01  3.54000000E-01  3.54000000E-01  3.54000000E-01
  3.54000000E-01  3.54000000E-01  3.54000000E-01  3.54000000E-01  3.54000000E-01
  3.54000000E-01  3.54000000E-01  3.54000000E-01  3.54000000E-01  3.54000000E-01
  3.54000000E-01  3.54000000E-01  3.54000000E-01  3.54000000E-01  3.54000000E-01
  3.54000000E-01  3.54000000E-01  3.54000000E-01  3.54000000E-01  3.54000000E-01
  3.54000000E-01  3.54000000E-01  3.54000000E-01  3.54000000E-01  3.54000000E-01
  3.54000000E-01  3.54000000E-01  3.54000000E-01  3.54000000E-01  3.54000000E-01
  3.54000000E-01  3.54000000E-01  3.54000000E-01  3.54000000E-01  3.54000000E-01
  3.54000000E-01  3.54000000E-01  3.54000000E-01  3.54000000E-01  3.54000000E-01
  3.54000000E-01  3.54000000E-01  3.54000000E-01  3.54000000E-01  3.54000000E-01
  3.54000000E-01  3.54000000E-01  3.54000000E-01  3.54000000E-01  3.54000000E-01
  3.54000000E-01  3.54000000E-01  3.54000000E-01  3.54000000E-01  3.54000000E-01
  3.54000000E-01  3.54000000E-01  3.54000000E-01  3.54000000E-01  3.54000000E-01
  3.54000000E-01  3.54000000E-01  3.54000000E-01  3.54000000E-01  3.54000000E-01
  3.54000000E-01  3.54000000E-01  3.54000000E-01  3.54000000E-01  3.54000000E-01
  3.54000000E-01  3.54000000E-01  3.54000000E-01  3.54000000E-01  3.54000000E-01
  3.54000000E-01  3.54000000E-01  3.54000000E-01  3.54000000E-01  3.54000000E-01
  3.54000000E-01  3.54000000E-01  3.54000000E-01  3.54000000E-01  3.54000000E-01
  3.54000000E-01  3.54000000E-01  3.54000000E-01  3.54000000E-01  3.54000000E-01
  3.54000000E-01  3.54000000E-01  3.54000000E-01  3.54000000E-01  3.54000000E-01
  2.74000000E-01  2.96000000E-01  5.80000000E-02  4.40000000E-02  3.90000000E-02
  3.90000000E-02  3.60000000E-02  3.20000000E-02  2.90000000E-02  3.30000000E-02
  5.50000000E-02  3.90000000E-02  3.30000000E-02  3.00000000E-02  2.80000000E-02
  2.60000000E-02  2.50000000E-02  2.50000000E-02  4.50000000E-02  4.40000000E-02
  3.30000000E-02  2.50000000E-02  2.10000000E-02  1.80000000E-02  1.50000000E-02
  1.80000000E-02  2.10000000E-02  2.50000000E-02  3.30000000E-02  5.00000000E-02
  3.80000000E-02  3.10000000E-02  2.70000000E-02  2.40000000E-02  2.20000000E-02
  2.10000000E-02  4.30000000E-02  4.00000000E-02  3.20000000E-02  2.50000000E-02
  2.10000000E-02  1.80000000E-02  1.60000000E-02  1.90000000E-02  2.20000000E-02
  2.80000000E-02  3.10000000E-02  4.70000000E-02  3.40000000E-02  2.80000000E-02
  2.40000000E-02  2.10000000E-02  1.90000000E-02  1.80000000E-02  3.90000000E-02
  3.60000000E-02  2.50000000E-02  2.50000000E-02  2.50000000E-02  2.60000000E-02
  2.60000000E-02  2.60000000E-02  2.70000000E-02  2.70000000E-02  2.70000000E-02
  2.70000000E-02  2.80000000E-02  2.80000000E-02  2.80000000E-02  3.30000000E-02
  3.30000000E-02  2.60000000E-02  2.10000000E-02  1.80000000E-02  1.60000000E-02
  1.80000000E-02  2.20000000E-02  2.60000000E-02  4.90000000E-02  8.20000000E-02
  3.00000000E-02  2.40000000E-02  2.10000000E-02  1.80000000E-02  1.60000000E-02
  1.50000000E-02  3.50000000E-02  3.60000000E-02  2.20000000E-02  2.30000000E-02
  2.40000000E-02  2.40000000E-02  2.50000000E-02  2.50000000E-02  2.60000000E-02
  2.70000000E-02  2.70000000E-02  2.80000000E-02  2.80000000E-02  2.90000000E-02
  3.00000000E-02  3.00000000E-02  3.10000000E-02  3.10000000E-02  3.10000000E-02
  3.10000000E-02  3.10000000E-02  3.10000000E-02  3.10000000E-02  3.10000000E-02
  3.10000000E-02  3.10000000E-02  3.10000000E-02  3.10000000E-02  3.10000000E-02
  3.10000000E-02  3.10000000E-02  3.10000000E-02  3.10000000E-02  3.10000000E-02
  3.10000000E-02  3.10000000E-02  3.10000000E-02  3.10000000E-02  3.10000000E-02
  3.10000000E-02  3.10000000E-02  3.10000000E-02  3.10000000E-02  3.10000000E-02
  3.10000000E-02  3.10000000E-02  3.10000000E-02  3.10000000E-02  3.10000000E-02
  3.10000000E-02  3.10000000E-02  3.10000000E-02  3.10000000E-02  3.10000000E-02
  3.10000000E-02  3.10000000E-02  3.10000000E-02  3.10000000E-02  3.10000000E-02
  3.10000000E-02  3.10000000E-02  3.10000000E-02  3.10000000E-02  3.10000000E-02
  3.10000000E-02  3.10000000E-02  3.10000000E-02  3.10000000E-02  3.10000000E-02
  3.10000000E-02  3.10000000E-02  3.10000000E-02  3.10000000E-02  3.10000000E-02
  3.10000000E-02  3.10000000E-02  3.10000000E-02  3.10000000E-02  3.10000000E-02
  3.10000000E-02  3.10000000E-02  3.10000000E-02  3.10000000E-02  3.10000000E-02
  3.10000000E-02  3.10000000E-02  3.10000000E-02  3.10000000E-02  3.10000000E-02
  3.10000000E-02  3.10000000E-02  3.10000000E-02  3.10000000E-02  3.10000000E-02
  3.10000000E-02  3.10000000E-02  3.10000000E-02  3.10000000E-02  3.10000000E-02
  3.10000000E-02  3.10000000E-02  3.10000000E-02  3.10000000E-02  3.10000000E-02
  3.10000000E-02  3.10000000E-02  3.10000000E-02  3.10000000E-02  3.10000000E-02
  3.10000000E-02  3.10000000E-02  3.10000000E-02  3.10000000E-02  3.10000000E-02
 -5.92770000E-01 -9.17860000E-01 -2.48668000E+00 -8.36430000E-01 -3.18470000E-01
 -4.55790000E-01 -5.70730000E-01 -6.77940000E-01 -7.69860000E-01 -8.51140000E-01
 -1.51908000E+00 -3.18830000E-01 -2.17900000E-01 -3.01260000E-01 -3.72750000E-01
 -4.15890000E-01 -4.45930000E-01 -5.91320000E-01 -9.56370000E-01 -2.88450000E-01
 -4.87320000E-01 -6.34280000E-01 -7.17490000E-01 -7.91980000E-01 -8.68490000E-01
 -9.17520000E-01 -9.54890000E-01 -9.88460000E-01 -1.50055000E+00 -2.92560000E-01
 -2.14960000E-01 -2.91180000E-01 -3.42080000E-01 -3.84480000E-01 -4.34940000E-01
 -5.24310000E-01 -8.10070000E-01 -2.58460000E-01 -4.35550000E-01 -5.32740000E-01
 -6.08450000E-01 -6.10260000E-01 -7.58920000E-01 -8.90130000E-01 -8.45780000E-01
 -8.69340000E-01 -1.38234000E+00 -2.64850000E-01 -1.97280000E-01 -2.65040000E-01
 -2.94470000E-01 -3.16570000E-01 -3.63590000E-01 -4.57840000E-01 -8.61830000E-01
 -1.33004000E+00 -6.82880000E-01 -6.25540000E-01 -6.35430000E-01 -8.79690000E-01
 -9.02690000E-01 -9.59650000E-01 -1.01869000E+00 -6.81170000E-01 -7.96500000E-01
 -9.04950000E-01 -8.34790000E-01 -9.01560000E-01 -9.74130000E-01 -1.03326000E+00
 -7.15490000E-01 -7.83960000E-01 -8.28380000E-01 -5.61040000E-01 -1.03841000E+00
 -8.62500000E-01 -9.59300000E-01 -1.01755000E+00 -7.64900000E-01 -1.29467000E+00
 -1.92740000E-01 -2.56010000E-01 -3.19820000E-01 -1.94660000E-01 -2.60090000E-01
 -4.27990000E-01  0.00000000E+00  0.00000000E+00  0.00000000E+00  0.00000000E+00
  0.00000000E+00  0.00000000E+00  0.00000000E+00  0.00000000E+00  0.00000000E+00
  0.00000000E+00  0.00000000E+00  0.00000000E+00  0.00000000E+00  0.00000000E+00
  0.00000000E+00  0.00000000E+00  0.00000000E+00  0.00000000E+00  0.00000000E+00
  0.00000000E+00  0.00000000E+00  0.00000000E+00  0.00000000E+00  0.00000000E+00
  0.00000000E+00  0.00000000E+00  0.00000000E+00  0.00000000E+00  0.00000000E+00
  0.00000000E+00  0.00000000E+00  0.00000000E+00  0.00000000E+00  0.00000000E+00
  0.00000000E+00  0.00000000E+00  0.00000000E+00  0.00000000E+00  0.00000000E+00
  0.00000000E+00  0.00000000E+00  0.00000000E+00  0.00000000E+00  0.00000000E+00
  0.00000000E+00  0.00000000E+00  0.00000000E+00  0.00000000E+00  0.00000000E+00
  0.00000000E+00  0.00000000E+00  0.00000000E+00  0.00000000E+00  0.00000000E+00
  0.00000000E+00  0.00000000E+00  0.00000000E+00  0.00000000E+00  0.00000000E+00
  0.00000000E+00  0.00000000E+00  0.00000000E+00  0.00000000E+00  0.00000000E+00
  0.00000000E+00  0.00000000E+00  0.00000000E+00  0.00000000E+00  0.00000000E+00
  0.00000000E+00  0.00000000E+00  0.00000000E+00  0.00000000E+00  0.00000000E+00
  0.00000000E+00  0.00000000E+00  0.00000000E+00  0.00000000E+00  0.00000000E+00
  0.00000000E+00  0.00000000E+00  0.00000000E+00  0.00000000E+00  0.00000000E+00
  0.00000000E+00  0.00000000E+00  0.00000000E+00  0.00000000E+00  0.00000000E+00
  0.00000000E+00  0.00000000E+00  0.00000000E+00  0.00000000E+00  0.00000000E+00
  0.00000000E+00  0.00000000E+00  0.00000000E+00  0.00000000E+00  0.00000000E+00
  0.00000000E+00  0.00000000E+00  0.00000000E+00  0.00000000E+00  0.00000000E+00
  0.00000000E+00  0.00000000E+00  0.00000000E+00  0.00000000E+00  0.00000000E+00
  0.00000000E+00  0.00000000E+00  0.00000000E+00  0.00000000E+00  0.00000000E+00
  1.90440000E+00  1.36430000E+00  4.84000000E-01  7.31600000E+00  9.24030000E+00
  8.78200000E+00  5.61290000E+00  4.83340000E+00  3.24870000E+00  2.71090000E+00
  2.01130000E+00  1.50282000E+01  1.46788000E+01  2.13546000E+01  2.38290000E+01
  1.98022000E+01  1.50468000E+01  1.09745000E+01  1.27219000E+01  1.51949000E+01
  1.57342000E+01  2.79222000E+01  1.61366000E+01  2.21252000E+01  2.45676000E+01
  1.96016000E+01  1.79818000E+01  1.72396000E+01  5.01500000E+00  1.92898000E+01
  2.34477000E+01  2.23993000E+01  2.96586000E+01  2.60081000E+01  2.15580000E+01
  1.69594000E+01  1.56479000E+01  1.86897000E+01  1.93530000E+01  3.43444000E+01
  1.98480000E+01  2.72140000E+01  3.02182000E+01  2.41099000E+01  2.21176000E+01
  2.12047000E+01  7.56690000E+00  2.37264000E+01  2.93879000E+01  3.01278000E+01
  4.19382000E+01  3.85203000E+01  3.39511000E+01  2.75774000E+01  1.56460000E+01
  1.04460000E+01  2.01830000E+01  4.99540000E+01  4.76430000E+01  1.18690000E+01
  1.08670000E+01  9.96100000E+00  9.18700000E+00  3.67980000E+01  1.34070000E+01
  9.38200000E+00  9.81700000E+00  8.90800000E+00  8.40700000E+00  8.05800000E+00
  1.29600000E+01  2.67920000E+01  2.49300000E+01  3.45630000E+01  1.11860000E+01
  1.09440000E+01  1.01270000E+01  9.40400000E+00  1.36660000E+01  7.81000000E+00
  6.93600000E+01  5.86630000E+01  4.79690000E+01  4.52740000E+01  3.92290000E+01
  3.30660000E+01  0.00000000E+00  0.00000000E+00  0.00000000E+00  0.00000000E+00
  0.00000000E+00  0.00000000E+00  0.00000000E+00  0.00000000E+00  0.00000000E+00
  0.00000000E+00  0.00000000E+00  0.00000000E+00  0.00000000E+00  0.00000000E+00
  0.00000000E+00  0.00000000E+00  0.00000000E+00  0.00000000E+00  0.00000000E+00
  0.00000000E+00  0.00000000E+00  0.00000000E+00  0.00000000E+00  0.00000000E+00
  0.00000000E+00  0.00000000E+00  0.00000000E+00  0.00000000E+00  0.00000000E+00
  0.00000000E+00  0.00000000E+00  0.00000000E+00  0.00000000E+00  0.00000000E+00
  0.00000000E+00  0.00000000E+00  0.00000000E+00  0.00000000E+00  0.00000000E+00
  0.00000000E+00  0.00000000E+00  0.00000000E+00  0.00000000E+00  0.00000000E+00
  0.00000000E+00  0.00000000E+00  0.00000000E+00  0.00000000E+00  0.00000000E+00
  0.00000000E+00  0.00000000E+00  0.00000000E+00  0.00000000E+00  0.00000000E+00
  0.00000000E+00  0.00000000E+00  0.00000000E+00  0.00000000E+00  0.00000000E+00
  0.00000000E+00  0.00000000E+00  0.00000000E+00  0.00000000E+00  0.00000000E+00
  0.00000000E+00  0.00000000E+00  0.00000000E+00  0.00000000E+00  0.00000000E+00
  0.00000000E+00  0.00000000E+00  0.00000000E+00  0.00000000E+00  0.00000000E+00
  0.00000000E+00  0.00000000E+00  0.00000000E+00  0.00000000E+00  0.00000000E+00
  0.00000000E+00  0.00000000E+00  0.00000000E+00  0.00000000E+00  0.00000000E+00
  0.00000000E+00  0.00000000E+00  0.00000000E+00  0.00000000E+00  0.00000000E+00
  0.00000000E+00  0.00000000E+00  0.00000000E+00  0.00000000E+00  0.00000000E+00
  0.00000000E+00  0.00000000E+00  0.00000000E+00  0.00000000E+00  0.00000000E+00
  0.00000000E+00  0.00000000E+00  0.00000000E+00  0.00000000E+00  0.00000000E+00
  0.00000000E+00  0.00000000E+00  0.00000000E+00  0.00000000E+00  0.00000000E+00
  0.00000000E+00  0.00000000E+00  0.00000000E+00  0.00000000E+00  0.00000000E+00
  0.00000000E+00  0.00000000E+00  0.00000000E+00  0.00000000E+00  0.00000000E+00
  0.00000000E+00  0.00000000E+00  0.00000000E+00  0.00000000E+00  0.00000000E+00
  0.00000000E+00  0.00000000E+00  0.00000000E+00  0.00000000E+00  0.00000000E+00
  0.00000000E+00  0.00000000E+00  0.00000000E+00  0.00000000E+00  0.00000000E+00
  0.00000000E+00  0.00000000E+00  0.00000000E+00  0.00000000E+00  0.00000000E+00
  0.00000000E+00  0.00000000E+00  0.00000000E+00  0.00000000E+00  0.00000000E+00
  0.00000000E+00  0.00000000E+00  0.00000000E+00  0.00000000E+00  0.00000000E+00
  0.00000000E+00  0.00000000E+00  0.00000000E+00  0.00000000E+00  0.00000000E+00
  0.00000000E+00  0.00000000E+00  0.00000000E+00  0.00000000E+00  0.00000000E+00
  0.00000000E+00  0.00000000E+00  0.00000000E+00  0.00000000E+00  0.00000000E+00
  0.00000000E+00  0.00000000E+00  0.00000000E+00  0.00000000E+00  0.00000000E+00
  0.00000000E+00  0.00000000E+00  0.00000000E+00  0.00000000E+00  0.00000000E+00
  0.00000000E+00  0.00000000E+00  0.00000000E+00  0.00000000E+00  0.00000000E+00
  0.00000000E+00  0.00000000E+00  0.00000000E+00  0.00000000E+00  0.00000000E+00
  0.00000000E+00  0.00000000E+00  0.00000000E+00  0.00000000E+00  0.00000000E+00
  0.00000000E+00  0.00000000E+00  0.00000000E+00  0.00000000E+00  0.00000000E+00
  0.00000000E+00  0.00000000E+00  0.00000000E+00  0.00000000E+00  0.00000000E+00
  0.00000000E+00  0.00000000E+00  0.00000000E+00  0.00000000E+00  0.00000000E+00
  0.00000000E+00  0.00000000E+00  0.00000000E+00  0.00000000E+00  0.00000000E+00
  0.00000000E+00  0.00000000E+00  0.00000000E+00  0.00000000E+00  0.00000000E+00
  0.00000000E+00  0.00000000E+00  0.00000000E+00  0.00000000E+00  0.00000000E+00
  0.00000000E+00  0.00000000E+00  0.00000000E+00  0.00000000E+00  0.00000000E+00
  0.00000000E+00  0.00000000E+00  0.00000000E+00  0.00000000E+00  0.00000000E+00
  0.00000000E+00  0.00000000E+00  0.00000000E+00  0.00000000E+00  0.00000000E+00
  0.00000000E+00  0.00000000E+00  0.00000000E+00  0.00000000E+00  0.00000000E+00
  0.00000000E+00  0.00000000E+00  0.00000000E+00  0.00000000E+00  0.00000000E+00
  0.00000000E+00  0.00000000E+00  0.00000000E+00  0.00000000E+00  0.00000000E+00
  0.00000000E+00  0.00000000E+00  0.00000000E+00  0.00000000E+00  0.00000000E+00
  0.00000000E+00  0.00000000E+00  0.00000000E+00  0.00000000E+00  0.00000000E+00
  0.00000000E+00  0.00000000E+00  0.00000000E+00  0.00000000E+00  0.00000000E+00
  0.00000000E+00  0.00000000E+00  0.00000000E+00  0.00000000E+00  0.00000000E+00
  0.00000000E+00  0.00000000E+00  0.00000000E+00  0.00000000E+00  0.00000000E+00
  0.00000000E+00  0.00000000E+00  0.00000000E+00  0.00000000E+00  0.00000000E+00
  0.00000000E+00  0.00000000E+00  0.00000000E+00  0.00000000E+00  0.00000000E+00
  0.00000000E+00  0.00000000E+00  0.00000000E+00  0.00000000E+00  0.00000000E+00
  0.00000000E+00  0.00000000E+00  0.00000000E+00  0.00000000E+00  0.00000000E+00
  0.00000000E+00  0.00000000E+00  0.00000000E+00  0.00000000E+00  0.00000000E+00
  0.00000000E+00  0.00000000E+00  0.00000000E+00  0.00000000E+00  0.00000000E+00
  0.00000000E+00  0.00000000E+00  0.00000000E+00  0.00000000E+00  0.00000000E+00
  0.00000000E+00  0.00000000E+00  0.00000000E+00  0.00000000E+00  0.00000000E+00
  0.00000000E+00  0.00000000E+00  0.00000000E+00  0.00000000E+00  0.00000000E+00
  0.00000000E+00  0.00000000E+00  0.00000000E+00  0.00000000E+00  0.00000000E+00
  0.00000000E+00  0.00000000E+00  0.00000000E+00  0.00000000E+00  0.00000000E+00
  0.00000000E+00  0.00000000E+00  0.00000000E+00  0.00000000E+00  0.00000000E+00
  0.00000000E+00  0.00000000E+00  0.00000000E+00  0.00000000E+00  0.00000000E+00
  0.00000000E+00  0.00000000E+00  0.00000000E+00  0.00000000E+00  0.00000000E+00
  0.00000000E+00  0.00000000E+00  0.00000000E+00  0.00000000E+00  0.00000000E+00
  0.00000000E+00  0.00000000E+00  0.00000000E+00  0.00000000E+00  0.00000000E+00
  0.00000000E+00  0.00000000E+00  0.00000000E+00  0.00000000E+00  0.00000000E+00
  0.00000000E+00  0.00000000E+00  0.00000000E+00  0.00000000E+00  0.00000000E+00
  0.00000000E+00  0.00000000E+00  0.00000000E+00  0.00000000E+00  0.00000000E+00
  0.00000000E+00  0.00000000E+00  0.00000000E+00  0.00000000E+00  0.00000000E+00
  0.00000000E+00  0.00000000E+00  0.00000000E+00  0.00000000E+00  0.00000000E+00
  0.00000000E+00  0.00000000E+00  0.00000000E+00  0.00000000E+00  0.00000000E+00
  0.00000000E+00  0.00000000E+00  0.00000000E+00  0.00000000E+00  0.00000000E+00
  0.00000000E+00  0.00000000E+00  0.00000000E+00  0.00000000E+00  0.00000000E+00
  0.00000000E+00  0.00000000E+00  0.00000000E+00  0.00000000E+00  0.00000000E+00
  0.00000000E+00  0.00000000E+00  0.00000000E+00  0.00000000E+00  0.00000000E+00
  0.00000000E+00  0.00000000E+00  0.00000000E+00  0.00000000E+00  0.00000000E+00
  0.00000000E+00  0.00000000E+00  0.00000000E+00  0.00000000E+00  0.00000000E+00
  0.00000000E+00  0.00000000E+00  0.00000000E+00  0.00000000E+00  0.00000000E+00
  0.00000000E+00  0.00000000E+00  0.00000000E+00  0.00000000E+00  0.00000000E+00
  0.00000000E+00  0.00000000E+00  0.00000000E+00  0.00000000E+00  0.00000000E+00
  0.00000000E+00  0.00000000E+00  0.00000000E+00  0.00000000E+00  0.00000000E+00
  0.00000000E+00  0.00000000E+00  0.00000000E+00  0.00000000E+00  0.00000000E+00
  0.00000000E+00  0.00000000E+00  0.00000000E+00  0.00000000E+00  0.00000000E+00
  0.00000000E+00  0.00000000E+00  0.00000000E+00  0.00000000E+00  0.00000000E+00
  0.00000000E+00  0.00000000E+00  0.00000000E+00  0.00000000E+00  0.00000000E+00
  0.00000000E+00  0.00000000E+00  0.00000000E+00  0.00000000E+00  0.00000000E+00
  0.00000000E+00  0.00000000E+00  0.00000000E+00  0.00000000E+00  0.00000000E+00
  0.00000000E+00  0.00000000E+00  0.00000000E+00  0.00000000E+00  0.00000000E+00
  0.00000000E+00  0.00000000E+00  0.00000000E+00  0.00000000E+00  0.00000000E+00
  0.00000000E+00  0.00000000E+00  0.00000000E+00  0.00000000E+00  0.00000000E+00
  0.00000000E+00  0.00000000E+00  0.00000000E+00  0.00000000E+00  0.00000000E+00
  0.00000000E+00  0.00000000E+00  0.00000000E+00  0.00000000E+00  0.00000000E+00
  0.00000000E+00  0.00000000E+00  0.00000000E+00  0.00000000E+00  0.00000000E+00
  0.00000000E+00  0.00000000E+00  0.00000000E+00  0.00000000E+00  0.00000000E+00
  0.00000000E+00  0.00000000E+00  0.00000000E+00  0.00000000E+00  0.00000000E+00
  0.00000000E+00  0.00000000E+00  0.00000000E+00  0.00000000E+00  0.00000000E+00
  0.00000000E+00  0.00000000E+00  0.00000000E+00  0.00000000E+00  0.00000000E+00
  0.00000000E+00  0.00000000E+00  0.00000000E+00  0.00000000E+00  0.00000000E+00
  0.00000000E+00  0.00000000E+00  0.00000000E+00  0.00000000E+00  0.00000000E+00
  0.00000000E+00  0.00000000E+00  0.00000000E+00  0.00000000E+00  0.00000000E+00
  0.00000000E+00  0.00000000E+00  0.00000000E+00  0.00000000E+00  0.00000000E+00
  0.00000000E+00  0.00000000E+00  0.00000000E+00  0.00000000E+00  0.00000000E+00
  0.00000000E+00  0.00000000E+00  0.00000000E+00  0.00000000E+00  0.00000000E+00
  0.00000000E+00  0.00000000E+00  0.00000000E+00  0.00000000E+00  0.00000000E+00
  0.00000000E+00  0.00000000E+00  0.00000000E+00  0.00000000E+00  0.00000000E+00
  0.00000000E+00  0.00000000E+00  0.00000000E+00  0.00000000E+00  0.00000000E+00
  0.00000000E+00  0.00000000E+00  0.00000000E+00  0.00000000E+00  0.00000000E+00
  0.00000000E+00  0.00000000E+00  0.00000000E+00  0.00000000E+00  0.00000000E+00
  0.00000000E+00  0.00000000E+00  0.00000000E+00  0.00000000E+00  0.00000000E+00
  0.00000000E+00  0.00000000E+00  0.00000000E+00  0.00000000E+00  0.00000000E+00
  0.00000000E+00  0.00000000E+00  0.00000000E+00  0.00000000E+00  0.00000000E+00
  0.00000000E+00  0.00000000E+00  0.00000000E+00  0.00000000E+00  0.00000000E+00
  0.00000000E+00  0.00000000E+00  0.00000000E+00  0.00000000E+00  0.00000000E+00
  0.00000000E+00  0.00000000E+00  0.00000000E+00  0.00000000E+00  0.00000000E+00
  0.00000000E+00  0.00000000E+00  0.00000000E+00  0.00000000E+00  0.00000000E+00
  0.00000000E+00  0.00000000E+00  0.00000000E+00  0.00000000E+00  0.00000000E+00
  0.00000000E+00  0.00000000E+00  0.00000000E+00  0.00000000E+00  0.00000000E+00
  0.00000000E+00  0.00000000E+00  0.00000000E+00  0.00000000E+00  0.00000000E+00
  0.00000000E+00  0.00000000E+00  0.00000000E+00  0.00000000E+00  0.00000000E+00
  0.00000000E+00  0.00000000E+00  0.00000000E+00  0.00000000E+00  0.00000000E+00
  0.00000000E+00  0.00000000E+00  0.00000000E+00  0.00000000E+00  0.00000000E+00
  0.00000000E+00  0.00000000E+00  0.00000000E+00  0.00000000E+00  0.00000000E+00
  0.00000000E+00  0.00000000E+00  0.00000000E+00  0.00000000E+00  0.00000000E+00
  0.00000000E+00  0.00000000E+00  0.00000000E+00  0.00000000E+00  0.00000000E+00
  0.00000000E+00  0.00000000E+00  0.00000000E+00  0.00000000E+00  0.00000000E+00
  0.00000000E+00  0.00000000E+00  0.00000000E+00  0.00000000E+00  0.00000000E+00
  0.00000000E+00  0.00000000E+00  0.00000000E+00  0.00000000E+00  0.00000000E+00
  0.00000000E+00  0.00000000E+00  0.00000000E+00  0.00000000E+00  0.00000000E+00
  0.00000000E+00  0.00000000E+00  0.00000000E+00  0.00000000E+00  0.00000000E+00
  0.00000000E+00  0.00000000E+00  0.00000000E+00  0.00000000E+00  0.00000000E+00
  0.00000000E+00  0.00000000E+00  0.00000000E+00  0.00000000E+00  0.00000000E+00
  0.00000000E+00  0.00000000E+00  0.00000000E+00  0.00000000E+00  0.00000000E+00
  0.00000000E+00  0.00000000E+00  0.00000000E+00  0.00000000E+00  0.00000000E+00
  0.00000000E+00  0.00000000E+00  0.00000000E+00  0.00000000E+00  0.00000000E+00
  0.00000000E+00  0.00000000E+00  0.00000000E+00  0.00000000E+00  0.00000000E+00
  0.00000000E+00  0.00000000E+00  0.00000000E+00  0.00000000E+00  0.00000000E+00
  0.00000000E+00  0.00000000E+00  0.00000000E+00  0.00000000E+00  0.00000000E+00
  0.00000000E+00  0.00000000E+00  0.00000000E+00  0.00000000E+00  0.00000000E+00
  0.00000000E+00  0.00000000E+00  0.00000000E+00  0.00000000E+00  0.00000000E+00
  0.00000000E+00  0.00000000E+00  0.00000000E+00  0.00000000E+00  0.00000000E+00
  0.00000000E+00  0.00000000E+00  0.00000000E+00  0.00000000E+00  0.00000000E+00
  0.00000000E+00  0.00000000E+00  0.00000000E+00  0.00000000E+00  0.00000000E+00
  0.00000000E+00  0.00000000E+00  0.00000000E+00  0.00000000E+00  0.00000000E+00
  0.00000000E+00  0.00000000E+00  0.00000000E+00  0.00000000E+00  0.00000000E+00
  0.00000000E+00  0.00000000E+00  0.00000000E+00  0.00000000E+00  0.00000000E+00
  0.00000000E+00  0.00000000E+00  0.00000000E+00  0.00000000E+00  0.00000000E+00
  0.00000000E+00  0.00000000E+00  0.00000000E+00  0.00000000E+00  0.00000000E+00
  0.00000000E+00  0.00000000E+00  0.00000000E+00  0.00000000E+00  0.00000000E+00
  0.00000000E+00  0.00000000E+00  0.00000000E+00  0.00000000E+00  0.00000000E+00
  0.00000000E+00  0.00000000E+00  0.00000000E+00  0.00000000E+00  0.00000000E+00
  0.00000000E+00  0.00000000E+00  0.00000000E+00  0.00000000E+00  0.00000000E+00
  0.00000000E+00  0.00000000E+00  0.00000000E+00  0.00000000E+00  0.00000000E+00
  0.00000000E+00  0.00000000E+00  0.00000000E+00  0.00000000E+00  0.00000000E+00
  0.00000000E+00  0.00000000E+00  0.00000000E+00  0.00000000E+00  0.00000000E+00
  0.00000000E+00  0.00000000E+00  0.00000000E+00  0.00000000E+00  0.00000000E+00
  0.00000000E+00  0.00000000E+00  0.00000000E+00  0.00000000E+00  0.00000000E+00
  0.00000000E+00  0.00000000E+00  0.00000000E+00  0.00000000E+00  0.00000000E+00
  0.00000000E+00  0.00000000E+00  0.00000000E+00  0.00000000E+00  0.00000000E+00
  0.00000000E+00  0.00000000E+00  0.00000000E+00  0.00000000E+00  0.00000000E+00
  0.00000000E+00  0.00000000E+00  0.00000000E+00  0.00000000E+00  0.00000000E+00
  0.00000000E+00  0.00000000E+00  0.00000000E+00  0.00000000E+00  0.00000000E+00
  0.00000000E+00  0.00000000E+00  0.00000000E+00  0.00000000E+00  0.00000000E+00
  0.00000000E+00  0.00000000E+00  0.00000000E+00  0.00000000E+00  0.00000000E+00
  0.00000000E+00  0.00000000E+00  0.00000000E+00  0.00000000E+00  0.00000000E+00
  0.00000000E+00  0.00000000E+00  0.00000000E+00  0.00000000E+00  0.00000000E+00
  0.00000000E+00  0.00000000E+00  0.00000000E+00  0.00000000E+00  0.00000000E+00
  0.00000000E+00  0.00000000E+00  0.00000000E+00  0.00000000E+00  0.00000000E+00
  0.00000000E+00  0.00000000E+00  0.00000000E+00  0.00000000E+00  0.00000000E+00
  0.00000000E+00  0.00000000E+00  0.00000000E+00  0.00000000E+00  0.00000000E+00
  0.00000000E+00  0.00000000E+00  0.00000000E+00  0.00000000E+00  0.00000000E+00
  0.00000000E+00  0.00000000E+00  0.00000000E+00  0.00000000E+00  0.00000000E+00
  0.00000000E+00  0.00000000E+00  0.00000000E+00  0.00000000E+00  0.00000000E+00
  0.00000000E+00  0.00000000E+00  0.00000000E+00  0.00000000E+00  0.00000000E+00
  0.00000000E+00  0.00000000E+00  0.00000000E+00  0.00000000E+00  0.00000000E+00
  0.00000000E+00  0.00000000E+00  0.00000000E+00  0.00000000E+00  0.00000000E+00
  0.00000000E+00  0.00000000E+00  0.00000000E+00  0.00000000E+00  0.00000000E+00
  0.00000000E+00  0.00000000E+00  0.00000000E+00  0.00000000E+00  0.00000000E+00
  0.00000000E+00  0.00000000E+00  0.00000000E+00  0.00000000E+00  0.00000000E+00
  0.00000000E+00  0.00000000E+00  0.00000000E+00  0.00000000E+00  0.00000000E+00
  0.00000000E+00  0.00000000E+00  0.00000000E+00  0.00000000E+00  0.00000000E+00
  0.00000000E+00  0.00000000E+00  0.00000000E+00  0.00000000E+00  0.00000000E+00
  0.00000000E+00  0.00000000E+00  0.00000000E+00  0.00000000E+00  0.00000000E+00
  0.00000000E+00  0.00000000E+00  0.00000000E+00  0.00000000E+00  0.00000000E+00
  0.00000000E+00  0.00000000E+00  0.00000000E+00  0.00000000E+00  0.00000000E+00
  0.00000000E+00  0.00000000E+00  0.00000000E+00  0.00000000E+00  0.00000000E+00
  0.00000000E+00  0.00000000E+00  0.00000000E+00  0.00000000E+00  0.00000000E+00
  0.00000000E+00  0.00000000E+00  0.00000000E+00  0.00000000E+00  0.00000000E+00
  0.00000000E+00  0.00000000E+00  0.00000000E+00  0.00000000E+00  0.00000000E+00
  0.00000000E+00  0.00000000E+00  0.00000000E+00  0.00000000E+00  0.00000000E+00
  0.00000000E+00  0.00000000E+00  0.00000000E+00  0.00000000E+00  0.00000000E+00
  0.00000000E+00  0.00000000E+00  0.00000000E+00  0.00000000E+00  0.00000000E+00
  0.00000000E+00  0.00000000E+00  0.00000000E+00  0.00000000E+00  0.00000000E+00
  0.00000000E+00  0.00000000E+00  0.00000000E+00  0.00000000E+00  0.00000000E+00
  0.00000000E+00  0.00000000E+00  0.00000000E+00  0.00000000E+00  0.00000000E+00
  0.00000000E+00  0.00000000E+00  0.00000000E+00  0.00000000E+00  0.00000000E+00
  0.00000000E+00  0.00000000E+00  0.00000000E+00  0.00000000E+00  0.00000000E+00
  0.00000000E+00  0.00000000E+00  0.00000000E+00  0.00000000E+00  0.00000000E+00
  0.00000000E+00  0.00000000E+00  0.00000000E+00  0.00000000E+00  0.00000000E+00
  0.00000000E+00  0.00000000E+00  0.00000000E+00  0.00000000E+00  0.00000000E+00
  0.00000000E+00  0.00000000E+00  0.00000000E+00  0.00000000E+00  0.00000000E+00
  0.00000000E+00  0.00000000E+00  0.00000000E+00  0.00000000E+00  0.00000000E+00
  0.00000000E+00  0.00000000E+00  0.00000000E+00  0.00000000E+00  0.00000000E+00
  0.00000000E+00  0.00000000E+00  0.00000000E+00  0.00000000E+00  0.00000000E+00
  0.00000000E+00  0.00000000E+00  0.00000000E+00  0.00000000E+00  0.00000000E+00
  0.00000000E+00  0.00000000E+00  0.00000000E+00  0.00000000E+00  0.00000000E+00
  0.00000000E+00  0.00000000E+00  0.00000000E+00  0.00000000E+00  0.00000000E+00
  0.00000000E+00  0.00000000E+00  0.00000000E+00  0.00000000E+00  0.00000000E+00
  0.00000000E+00  0.00000000E+00  0.00000000E+00  0.00000000E+00  0.00000000E+00
  0.00000000E+00  0.00000000E+00  0.00000000E+00  0.00000000E+00  0.00000000E+00
  0.00000000E+00  0.00000000E+00  0.00000000E+00  0.00000000E+00  0.00000000E+00
  0.00000000E+00  0.00000000E+00  0.00000000E+00  0.00000000E+00  0.00000000E+00
  0.00000000E+00  0.00000000E+00  0.00000000E+00  0.00000000E+00  0.00000000E+00
  0.00000000E+00  0.00000000E+00  0.00000000E+00  0.00000000E+00  0.00000000E+00
  0.00000000E+00  0.00000000E+00  0.00000000E+00  0.00000000E+00  0.00000000E+00
  0.00000000E+00  0.00000000E+00  0.00000000E+00  0.00000000E+00  0.00000000E+00
  0.00000000E+00  0.00000000E+00  0.00000000E+00  0.00000000E+00  0.00000000E+00
  0.00000000E+00  0.00000000E+00  0.00000000E+00  0.00000000E+00  0.00000000E+00
  0.00000000E+00  0.00000000E+00  0.00000000E+00  0.00000000E+00  0.00000000E+00
  0.00000000E+00  0.00000000E+00  0.00000000E+00  0.00000000E+00  0.00000000E+00
  0.00000000E+00  0.00000000E+00  0.00000000E+00  0.00000000E+00  0.00000000E+00
  0.00000000E+00  0.00000000E+00  0.00000000E+00  0.00000000E+00  0.00000000E+00
  0.00000000E+00  0.00000000E+00  0.00000000E+00  0.00000000E+00  0.00000000E+00
  0.00000000E+00  0.00000000E+00  0.00000000E+00  0.00000000E+00  0.00000000E+00
  0.00000000E+00  0.00000000E+00  0.00000000E+00  0.00000000E+00  0.00000000E+00
  0.00000000E+00  0.00000000E+00  0.00000000E+00  0.00000000E+00  0.00000000E+00
  0.00000000E+00  0.00000000E+00  0.00000000E+00  0.00000000E+00  0.00000000E+00
  0.00000000E+00  0.00000000E+00  0.00000000E+00  0.00000000E+00  0.00000000E+00
  0.00000000E+00  0.00000000E+00  0.00000000E+00  0.00000000E+00  0.00000000E+00
  0.00000000E+00  0.00000000E+00  0.00000000E+00  0.00000000E+00  0.00000000E+00
  0.00000000E+00  0.00000000E+00  0.00000000E+00  0.00000000E+00  0.00000000E+00
  0.00000000E+00  0.00000000E+00  0.00000000E+00  0.00000000E+00  0.00000000E+00
  0.00000000E+00  0.00000000E+00  0.00000000E+00  0.00000000E+00  0.00000000E+00
  0.00000000E+00  0.00000000E+00  0.00000000E+00  0.00000000E+00  0.00000000E+00
  0.00000000E+00  0.00000000E+00  0.00000000E+00  0.00000000E+00  0.00000000E+00
  0.00000000E+00  0.00000000E+00  0.00000000E+00  0.00000000E+00  0.00000000E+00
  0.00000000E+00  0.00000000E+00  0.00000000E+00  0.00000000E+00  0.00000000E+00
  0.00000000E+00  0.00000000E+00  0.00000000E+00  0.00000000E+00  0.00000000E+00
  0.00000000E+00  0.00000000E+00  0.00000000E+00  0.00000000E+00  0.00000000E+00
  0.00000000E+00  0.00000000E+00  0.00000000E+00  0.00000000E+00  0.00000000E+00
  0.00000000E+00  0.00000000E+00  0.00000000E+00  0.00000000E+00  0.00000000E+00
  0.00000000E+00  0.00000000E+00  0.00000000E+00  0.00000000E+00  0.00000000E+00
  0.00000000E+00  0.00000000E+00  0.00000000E+00  0.00000000E+00  0.00000000E+00
  0.00000000E+00  0.00000000E+00  0.00000000E+00  0.00000000E+00  0.00000000E+00
  0.00000000E+00  0.00000000E+00  0.00000000E+00  0.00000000E+00  0.00000000E+00
  0.00000000E+00  0.00000000E+00  0.00000000E+00  0.00000000E+00  0.00000000E+00
  0.00000000E+00  0.00000000E+00  0.00000000E+00  0.00000000E+00  0.00000000E+00
  0.00000000E+00  0.00000000E+00  0.00000000E+00  0.00000000E+00  0.00000000E+00
  0.00000000E+00  0.00000000E+00  0.00000000E+00  0.00000000E+00  0.00000000E+00
  0.00000000E+00  0.00000000E+00  0.00000000E+00  0.00000000E+00  0.00000000E+00
  0.00000000E+00  0.00000000E+00  0.00000000E+00  0.00000000E+00  0.00000000E+00
  0.00000000E+00  0.00000000E+00  0.00000000E+00  0.00000000E+00  0.00000000E+00
  0.00000000E+00  0.00000000E+00  0.00000000E+00  0.00000000E+00  0.00000000E+00
  0.00000000E+00  0.00000000E+00  0.00000000E+00  0.00000000E+00  0.00000000E+00
  0.00000000E+00  0.00000000E+00  0.00000000E+00  0.00000000E+00  0.00000000E+00
  0.00000000E+00  0.00000000E+00  0.00000000E+00  0.00000000E+00  0.00000000E+00
  0.00000000E+00  0.00000000E+00  0.00000000E+00  0.00000000E+00  0.00000000E+00
  0.00000000E+00  0.00000000E+00  0.00000000E+00  0.00000000E+00  0.00000000E+00
  0.00000000E+00  0.00000000E+00  0.00000000E+00  0.00000000E+00  0.00000000E+00
  0.00000000E+00  0.00000000E+00  0.00000000E+00  0.00000000E+00  0.00000000E+00
  0.00000000E+00  0.00000000E+00  0.00000000E+00  0.00000000E+00  0.00000000E+00
  0.00000000E+00  0.00000000E+00  0.00000000E+00  0.00000000E+00  0.00000000E+00
  0.00000000E+00  0.00000000E+00  0.00000000E+00  0.00000000E+00  0.00000000E+00
  0.00000000E+00  0.00000000E+00  0.00000000E+00  0.00000000E+00  0.00000000E+00
  0.00000000E+00  0.00000000E+00  0.00000000E+00  0.00000000E+00  0.00000000E+00
  0.00000000E+00  0.00000000E+00  0.00000000E+00  0.00000000E+00  0.00000000E+00
  0.00000000E+00  0.00000000E+00  0.00000000E+00  0.00000000E+00  0.00000000E+00
  0.00000000E+00  0.00000000E+00  0.00000000E+00  0.00000000E+00  0.00000000E+00
  0.00000000E+00  0.00000000E+00  0.00000000E+00  0.00000000E+00  0.00000000E+00
  0.00000000E+00  0.00000000E+00  0.00000000E+00  0.00000000E+00  0.00000000E+00
  0.00000000E+00  0.00000000E+00  0.00000000E+00  0.00000000E+00  0.00000000E+00
  0.00000000E+00  0.00000000E+00  0.00000000E+00  0.00000000E+00  0.00000000E+00
  0.00000000E+00  0.00000000E+00  0.00000000E+00  0.00000000E+00  0.00000000E+00
  0.00000000E+00  0.00000000E+00  0.00000000E+00  0.00000000E+00  0.00000000E+00
  0.00000000E+00  0.00000000E+00  0.00000000E+00  0.00000000E+00  0.00000000E+00
  0.00000000E+00  0.00000000E+00  0.00000000E+00  0.00000000E+00  0.00000000E+00
  0.00000000E+00  0.00000000E+00  0.00000000E+00  0.00000000E+00  0.00000000E+00
  0.00000000E+00  0.00000000E+00  0.00000000E+00  0.00000000E+00  0.00000000E+00
  0.00000000E+00  0.00000000E+00  0.00000000E+00  0.00000000E+00  0.00000000E+00
  0.00000000E+00  0.00000000E+00  0.00000000E+00  0.00000000E+00  0.00000000E+00
  0.00000000E+00  0.00000000E+00  0.00000000E+00  0.00000000E+00  0.00000000E+00
  0.00000000E+00  0.00000000E+00  0.00000000E+00  0.00000000E+00  0.00000000E+00
  0.00000000E+00  0.00000000E+00  0.00000000E+00  0.00000000E+00  0.00000000E+00
  0.00000000E+00  0.00000000E+00  0.00000000E+00  0.00000000E+00  0.00000000E+00
  0.00000000E+00  0.00000000E+00  0.00000000E+00  0.00000000E+00  0.00000000E+00
  0.00000000E+00  0.00000000E+00  0.00000000E+00  0.00000000E+00  0.00000000E+00
  0.00000000E+00  0.00000000E+00  0.00000000E+00  0.00000000E+00  0.00000000E+00
  0.00000000E+00  0.00000000E+00  0.00000000E+00  0.00000000E+00  0.00000000E+00
  0.00000000E+00  0.00000000E+00  0.00000000E+00  0.00000000E+00  0.00000000E+00
  0.00000000E+00  0.00000000E+00  0.00000000E+00  0.00000000E+00  0.00000000E+00
  0.00000000E+00  0.00000000E+00  0.00000000E+00  0.00000000E+00  0.00000000E+00
  0.00000000E+00  0.00000000E+00  0.00000000E+00  0.00000000E+00  0.00000000E+00
  0.00000000E+00  0.00000000E+00  0.00000000E+00  0.00000000E+00  0.00000000E+00
  0.00000000E+00  0.00000000E+00  0.00000000E+00  0.00000000E+00  0.00000000E+00
  0.00000000E+00  0.00000000E+00  0.00000000E+00  0.00000000E+00  0.00000000E+00
  0.00000000E+00  0.00000000E+00  0.00000000E+00  0.00000000E+00  0.00000000E+00
  0.00000000E+00  0.00000000E+00  0.00000000E+00  0.00000000E+00  0.00000000E+00
  0.00000000E+00  0.00000000E+00  0.00000000E+00  0.00000000E+00  0.00000000E+00
  0.00000000E+00  0.00000000E+00  0.00000000E+00  0.00000000E+00  0.00000000E+00
  0.00000000E+00  0.00000000E+00  0.00000000E+00  0.00000000E+00  0.00000000E+00
  0.00000000E+00  0.00000000E+00  0.00000000E+00  0.00000000E+00  0.00000000E+00
  0.00000000E+00  0.00000000E+00  0.00000000E+00  0.00000000E+00  0.00000000E+00
  0.00000000E+00  0.00000000E+00  0.00000000E+00  0.00000000E+00  0.00000000E+00
  0.00000000E+00  0.00000000E+00  0.00000000E+00  0.00000000E+00  0.00000000E+00
  0.00000000E+00  0.00000000E+00  0.00000000E+00  0.00000000E+00  0.00000000E+00
  0.00000000E+00  0.00000000E+00  0.00000000E+00  0.00000000E+00  0.00000000E+00
  0.00000000E+00  0.00000000E+00  0.00000000E+00  0.00000000E+00  0.00000000E+00
  0.00000000E+00  0.00000000E+00  0.00000000E+00  0.00000000E+00  0.00000000E+00
  0.00000000E+00  0.00000000E+00  0.00000000E+00  0.00000000E+00  0.00000000E+00
  0.00000000E+00  0.00000000E+00  0.00000000E+00  0.00000000E+00  0.00000000E+00
  0.00000000E+00  0.00000000E+00  0.00000000E+00  0.00000000E+00  0.00000000E+00
  0.00000000E+00  0.00000000E+00  0.00000000E+00  0.00000000E+00  0.00000000E+00
  0.00000000E+00  0.00000000E+00  0.00000000E+00  0.00000000E+00  0.00000000E+00
  0.00000000E+00  0.00000000E+00  0.00000000E+00  0.00000000E+00  0.00000000E+00
  0.00000000E+00  0.00000000E+00  0.00000000E+00  0.00000000E+00  0.00000000E+00
  0.00000000E+00  0.00000000E+00  0.00000000E+00  0.00000000E+00  0.00000000E+00
  0.00000000E+00  0.00000000E+00  0.00000000E+00  0.00000000E+00  0.00000000E+00
  0.00000000E+00  0.00000000E+00  0.00000000E+00  0.00000000E+00  0.00000000E+00
  0.00000000E+00  0.00000000E+00  0.00000000E+00  0.00000000E+00  0.00000000E+00
  0.00000000E+00  0.00000000E+00  0.00000000E+00  0.00000000E+00  0.00000000E+00
  0.00000000E+00  0.00000000E+00  0.00000000E+00  0.00000000E+00  0.00000000E+00
  0.00000000E+00  0.00000000E+00  0.00000000E+00  0.00000000E+00  0.00000000E+00
  0.00000000E+00  0.00000000E+00  0.00000000E+00  0.00000000E+00  0.00000000E+00
  0.00000000E+00  0.00000000E+00  0.00000000E+00  0.00000000E+00  0.00000000E+00
  0.00000000E+00  0.00000000E+00  0.00000000E+00  0.00000000E+00  0.00000000E+00
  0.00000000E+00  0.00000000E+00  0.00000000E+00  0.00000000E+00  0.00000000E+00
  0.00000000E+00  0.00000000E+00  0.00000000E+00  0.00000000E+00  0.00000000E+00
  0.00000000E+00  0.00000000E+00  0.00000000E+00  0.00000000E+00  0.00000000E+00
  0.00000000E+00  0.00000000E+00  0.00000000E+00  0.00000000E+00  0.00000000E+00
  0.00000000E+00  0.00000000E+00  0.00000000E+00  0.00000000E+00  0.00000000E+00
  0.00000000E+00  0.00000000E+00  0.00000000E+00  0.00000000E+00  0.00000000E+00
  0.00000000E+00  0.00000000E+00  0.00000000E+00  0.00000000E+00  0.00000000E+00
  0.00000000E+00  0.00000000E+00  0.00000000E+00  0.00000000E+00  0.00000000E+00
  0.00000000E+00  0.00000000E+00  0.00000000E+00  0.00000000E+00  0.00000000E+00
  0.00000000E+00  0.00000000E+00  0.00000000E+00  0.00000000E+00  0.00000000E+00
  0.00000000E+00  0.00000000E+00  0.00000000E+00  0.00000000E+00  0.00000000E+00
  0.00000000E+00  0.00000000E+00  0.00000000E+00  0.00000000E+00  0.00000000E+00
  0.00000000E+00  0.00000000E+00  0.00000000E+00  0.00000000E+00  0.00000000E+00
  0.00000000E+00  0.00000000E+00  0.00000000E+00  0.00000000E+00  0.00000000E+00
  0.00000000E+00  0.00000000E+00  0.00000000E+00  0.00000000E+00  0.00000000E+00
  0.00000000E+00  0.00000000E+00  0.00000000E+00  0.00000000E+00  0.00000000E+00
  0.00000000E+00  0.00000000E+00  0.00000000E+00  0.00000000E+00  0.00000000E+00
  0.00000000E+00  0.00000000E+00  0.00000000E+00  0.00000000E+00  0.00000000E+00
  0.00000000E+00  0.00000000E+00  0.00000000E+00  0.00000000E+00  0.00000000E+00
  0.00000000E+00  0.00000000E+00  0.00000000E+00  0.00000000E+00  0.00000000E+00
  0.00000000E+00  0.00000000E+00  0.00000000E+00  0.00000000E+00  0.00000000E+00
  0.00000000E+00  0.00000000E+00  0.00000000E+00  0.00000000E+00  0.00000000E+00
  0.00000000E+00  0.00000000E+00  0.00000000E+00  0.00000000E+00  0.00000000E+00
  0.00000000E+00  0.00000000E+00  0.00000000E+00  0.00000000E+00  0.00000000E+00
  0.00000000E+00  0.00000000E+00  0.00000000E+00  0.00000000E+00  0.00000000E+00
  0.00000000E+00  0.00000000E+00  0.00000000E+00  0.00000000E+00  0.00000000E+00
  0.00000000E+00  0.00000000E+00  0.00000000E+00  0.00000000E+00  0.00000000E+00
  0.00000000E+00  0.00000000E+00  0.00000000E+00  0.00000000E+00  0.00000000E+00
  0.00000000E+00  0.00000000E+00  0.00000000E+00  0.00000000E+00  0.00000000E+00
  0.00000000E+00  0.00000000E+00  0.00000000E+00  0.00000000E+00  0.00000000E+00
  0.00000000E+00  0.00000000E+00  0.00000000E+00  0.00000000E+00  0.00000000E+00
  0.00000000E+00  0.00000000E+00  0.00000000E+00  0.00000000E+00  0.00000000E+00
  0.00000000E+00  0.00000000E+00  0.00000000E+00  0.00000000E+00  0.00000000E+00
  0.00000000E+00  0.00000000E+00  0.00000000E+00  0.00000000E+00  0.00000000E+00
  0.00000000E+00  0.00000000E+00  0.00000000E+00  0.00000000E+00  0.00000000E+00
  0.00000000E+00  0.00000000E+00  0.00000000E+00  0.00000000E+00  0.00000000E+00
  0.00000000E+00  0.00000000E+00  0.00000000E+00  0.00000000E+00  0.00000000E+00
  0.00000000E+00  0.00000000E+00  0.00000000E+00  0.00000000E+00  0.00000000E+00
  0.00000000E+00  0.00000000E+00  0.00000000E+00  0.00000000E+00  0.00000000E+00
  0.00000000E+00  0.00000000E+00  0.00000000E+00  0.00000000E+00  0.00000000E+00
  0.00000000E+00  0.00000000E+00  0.00000000E+00  0.00000000E+00  0.00000000E+00
  0.00000000E+00  0.00000000E+00  0.00000000E+00  0.00000000E+00  0.00000000E+00
  0.00000000E+00  0.00000000E+00  0.00000000E+00  0.00000000E+00  0.00000000E+00
  0.00000000E+00  0.00000000E+00  0.00000000E+00  0.00000000E+00  0.00000000E+00
  0.00000000E+00  0.00000000E+00  0.00000000E+00  0.00000000E+00  0.00000000E+00
  0.00000000E+00  0.00000000E+00  0.00000000E+00  0.00000000E+00  0.00000000E+00
  0.00000000E+00  0.00000000E+00  0.00000000E+00  0.00000000E+00  0.00000000E+00
  0.00000000E+00  0.00000000E+00  0.00000000E+00  0.00000000E+00  0.00000000E+00
  0.00000000E+00  0.00000000E+00  0.00000000E+00  0.00000000E+00  0.00000000E+00
  0.00000000E+00  0.00000000E+00  0.00000000E+00  0.00000000E+00  0.00000000E+00
  0.00000000E+00  0.00000000E+00  0.00000000E+00  0.00000000E+00  0.00000000E+00
  0.00000000E+00  0.00000000E+00  0.00000000E+00  0.00000000E+00  0.00000000E+00
  0.00000000E+00  0.00000000E+00  0.00000000E+00  0.00000000E+00  0.00000000E+00
Gaussian Version                           C   N=           2
ES64L-G16RevC.01        
