 Entering Gaussian System, Link 0=g16
 Input=GauExternal.gjf
 Output=GauExternal.log
 Initial command:
 /gaussian/g16.c01/intel64-sandybridge/g16/l1.exe "/home/barone/lcrisci_vb/ACTUAL_PROJECTS/MRCC_new_Interface_project/TestingOldVersion/Symmetry/Benzene_D6h/Iterations/Iteration_1/task_atom_7_ixyz_2_down/Gau-4158003.inp" -scrdir="/home/barone/lcrisci_vb/ACTUAL_PROJECTS/MRCC_new_Interface_project/TestingOldVersion/Symmetry/Benzene_D6h/Iterations/Iteration_1/task_atom_7_ixyz_2_down/"
 Entering Link 1 = /gaussian/g16.c01/intel64-sandybridge/g16/l1.exe PID=   4158004.
  
 Copyright (c) 1988-2019, Gaussian, Inc.  All Rights Reserved.
  
 This is part of the Gaussian(R) 16 program.  It is based on
 the Gaussian(R) 09 system (copyright 2009, Gaussian, Inc.),
 the Gaussian(R) 03 system (copyright 2003, Gaussian, Inc.),
 the Gaussian(R) 98 system (copyright 1998, Gaussian, Inc.),
 the Gaussian(R) 94 system (copyright 1995, Gaussian, Inc.),
 the Gaussian 92(TM) system (copyright 1992, Gaussian, Inc.),
 the Gaussian 90(TM) system (copyright 1990, Gaussian, Inc.),
 the Gaussian 88(TM) system (copyright 1988, Gaussian, Inc.),
 the Gaussian 86(TM) system (copyright 1986, Carnegie Mellon
 University), and the Gaussian 82(TM) system (copyright 1983,
 Carnegie Mellon University). Gaussian is a federally registered
 trademark of Gaussian, Inc.
  
 This software contains proprietary and confidential information,
 including trade secrets, belonging to Gaussian, Inc.
  
 This software is provided under written license and may be
 used, copied, transmitted, or stored only in accord with that
 written license.
  
 The following legend is applicable only to US Government
 contracts under FAR:
  
                    RESTRICTED RIGHTS LEGEND
  
 Use, reproduction and disclosure by the US Government is
 subject to restrictions as set forth in subparagraphs (a)
 and (c) of the Commercial Computer Software - Restricted
 Rights clause in FAR 52.227-19.
  
 Gaussian, Inc.
 340 Quinnipiac St., Bldg. 40, Wallingford CT 06492
  
  
 ---------------------------------------------------------------
 Warning -- This program may not be used in any manner that
 competes with the business of Gaussian, Inc. or will provide
 assistance to any competitor of Gaussian, Inc.  The licensee
 of this program is prohibited from giving any competitor of
 Gaussian, Inc. access to this program.  By using this program,
 the user acknowledges that Gaussian, Inc. is engaged in the
 business of creating and licensing software in the field of
 computational chemistry and represents and warrants to the
 licensee that it is not a competitor of Gaussian, Inc. and that
 it will not use this program in any manner prohibited above.
 ---------------------------------------------------------------
  

 Cite this work as:
 Gaussian 16, Revision C.01,
 M. J. Frisch, G. W. Trucks, H. B. Schlegel, G. E. Scuseria, 
 M. A. Robb, J. R. Cheeseman, G. Scalmani, V. Barone, 
 G. A. Petersson, H. Nakatsuji, X. Li, M. Caricato, A. V. Marenich, 
 J. Bloino, B. G. Janesko, R. Gomperts, B. Mennucci, H. P. Hratchian, 
 J. V. Ortiz, A. F. Izmaylov, J. L. Sonnenberg, D. Williams-Young, 
 F. Ding, F. Lipparini, F. Egidi, J. Goings, B. Peng, A. Petrone, 
 T. Henderson, D. Ranasinghe, V. G. Zakrzewski, J. Gao, N. Rega, 
 G. Zheng, W. Liang, M. Hada, M. Ehara, K. Toyota, R. Fukuda, 
 J. Hasegawa, M. Ishida, T. Nakajima, Y. Honda, O. Kitao, H. Nakai, 
 T. Vreven, K. Throssell, J. A. Montgomery, Jr., J. E. Peralta, 
 F. Ogliaro, M. J. Bearpark, J. J. Heyd, E. N. Brothers, K. N. Kudin, 
 V. N. Staroverov, T. A. Keith, R. Kobayashi, J. Normand, 
 K. Raghavachari, A. P. Rendell, J. C. Burant, S. S. Iyengar, 
 J. Tomasi, M. Cossi, J. M. Millam, M. Klene, C. Adamo, R. Cammi, 
 J. W. Ochterski, R. L. Martin, K. Morokuma, O. Farkas, 
 J. B. Foresman, and D. J. Fox, Gaussian, Inc., Wallingford CT, 2019.
 
 ******************************************
 Gaussian 16:  ES64L-G16RevC.01  3-Jul-2019
                19-Nov-2025 
 ******************************************
 %nproc=7
 Will use up to    7 processors via shared memory.
 %mem=55GB
 %chk=GauExternal.chk
 --------------------
 #P hf/sto-3g scf=xqc
 --------------------
 1/38=1,172=1/1;
 2/12=2,17=6,18=5,40=1/2;
 3/6=3,11=9,25=1,30=1/1,2,3;
 4//1;
 5/5=2,8=3,13=1,38=5/2,8;
 6/7=2,8=2,9=2,10=2,28=1/1;
 99/5=1,9=1/99;
 Leave Link    1 at Wed Nov 19 18:21:35 2025, MaxMem=  7381975040 cpu:               0.0 elap:               0.1
 (Enter /gaussian/g16.c01/intel64-sandybridge/g16/l101.exe)
 --------------------
 External Calculation
 --------------------
 Symbolic Z-matrix:
 Charge =  0 Multiplicity = 1
 C                     0.        1.39499   0. 
 C                     1.2081    0.6975    0. 
 C                     1.2081   -0.6975    0. 
 C                     0.       -1.39499   0. 
 C                    -1.2081   -0.6975    0. 
 C                    -1.2081    0.6975    0. 
 H                     0.        2.4936    0. 
 H                     2.16039   1.2473    0. 
 H                     2.16039  -1.2473    0. 
 H                     0.       -2.4946    0. 
 H                    -2.16039  -1.2473    0. 
 H                    -2.16039   1.2473    0. 
 
 ITRead=  0  0  0  0  0  0  0  0  0  0  0  0
 MicOpt= -1 -1 -1 -1 -1 -1 -1 -1 -1 -1 -1 -1
 NAtoms=     12 NQM=       12 NQMF=       0 NMMI=      0 NMMIF=      0
                NMic=       0 NMicF=      0.
                    Isotopes and Nuclear Properties:
 (Nuclear quadrupole moments (NQMom) in fm**2, nuclear magnetic moments (NMagM)
  in nuclear magnetons)

  Atom         1           2           3           4           5           6           7           8           9          10
 IAtWgt=          12          12          12          12          12          12           1           1           1           1
 AtmWgt=  12.0000000  12.0000000  12.0000000  12.0000000  12.0000000  12.0000000   1.0078250   1.0078250   1.0078250   1.0078250
 NucSpn=           0           0           0           0           0           0           1           1           1           1
 AtZEff=  -0.0000000  -0.0000000  -0.0000000  -0.0000000  -0.0000000  -0.0000000  -0.0000000  -0.0000000  -0.0000000  -0.0000000
 NQMom=    0.0000000   0.0000000   0.0000000   0.0000000   0.0000000   0.0000000   0.0000000   0.0000000   0.0000000   0.0000000
 NMagM=    0.0000000   0.0000000   0.0000000   0.0000000   0.0000000   0.0000000   2.7928460   2.7928460   2.7928460   2.7928460
 AtZNuc=   6.0000000   6.0000000   6.0000000   6.0000000   6.0000000   6.0000000   1.0000000   1.0000000   1.0000000   1.0000000

  Atom        11          12
 IAtWgt=           1           1
 AtmWgt=   1.0078250   1.0078250
 NucSpn=           1           1
 AtZEff=  -0.0000000  -0.0000000
 NQMom=    0.0000000   0.0000000
 NMagM=    2.7928460   2.7928460
 AtZNuc=   1.0000000   1.0000000
 Leave Link  101 at Wed Nov 19 18:21:35 2025, MaxMem=  7381975040 cpu:               0.1 elap:               0.2
 (Enter /gaussian/g16.c01/intel64-sandybridge/g16/l202.exe)
                          Input orientation:                          
 ---------------------------------------------------------------------
 Center     Atomic      Atomic             Coordinates (Angstroms)
 Number     Number       Type             X           Y           Z
 ---------------------------------------------------------------------
      1          6           0        0.000000    1.394991    0.000000
      2          6           0        1.208097    0.697495    0.000000
      3          6           0        1.208097   -0.697495    0.000000
      4          6           0        0.000000   -1.394991    0.000000
      5          6           0       -1.208097   -0.697495    0.000000
      6          6           0       -1.208097    0.697495    0.000000
      7          1           0        0.000000    2.493601    0.000000
      8          1           0        2.160388    1.247300    0.000000
      9          1           0        2.160388   -1.247300    0.000000
     10          1           0        0.000000   -2.494601    0.000000
     11          1           0       -2.160388   -1.247300    0.000000
     12          1           0       -2.160388    1.247300    0.000000
 ---------------------------------------------------------------------
                    Distance matrix (angstroms):
                    1          2          3          4          5
     1  C    0.000000
     2  C    1.394991   0.000000
     3  C    2.416195   1.394991   0.000000
     4  C    2.789981   2.416195   1.394991   0.000000
     5  C    2.416195   2.789981   2.416195   1.394991   0.000000
     6  C    1.394991   2.416195   2.789981   2.416195   1.394991
     7  H    1.098610   2.164600   3.412125   3.888592   3.412125
     8  H    2.165430   1.099610   2.165430   3.413060   3.889592
     9  H    3.413060   2.165430   1.099610   2.165430   3.413060
    10  H    3.889592   3.413060   2.165430   1.099610   2.165430
    11  H    3.413060   3.889592   3.413060   2.165430   1.099610
    12  H    2.165430   3.413060   3.889592   3.413060   2.165430
                    6          7          8          9         10
     6  C    0.000000
     7  H    2.164600   0.000000
     8  H    3.413060   2.494101   0.000000
     9  H    3.889592   4.319910   2.494601   0.000000
    10  H    3.413060   4.988202   4.320776   2.494601   0.000000
    11  H    2.165430   4.319910   4.989202   4.320776   2.494601
    12  H    1.099610   2.494101   4.320776   4.989202   4.320776
                   11         12
    11  H    0.000000
    12  H    2.494601   0.000000
 Stoichiometry    C6H6
 Framework group  C2V[C2(HCCH),SGV(C4H4)]
 Deg. of freedom    11
 Full point group                 C2V     NOp   4
 Largest Abelian subgroup         C2V     NOp   4
 Largest concise Abelian subgroup C2      NOp   2
                         Standard orientation:                         
 ---------------------------------------------------------------------
 Center     Atomic      Atomic             Coordinates (Angstroms)
 Number     Number       Type             X           Y           Z
 ---------------------------------------------------------------------
      1          6           0        0.000000    0.000000    1.395014
      2          6           0        0.000000    1.208097    0.697519
      3          6           0        0.000000    1.208097   -0.697472
      4          6           0        0.000000   -0.000000   -1.394967
      5          6           0       -0.000000   -1.208097   -0.697472
      6          6           0       -0.000000   -1.208097    0.697519
      7          1           0        0.000000    0.000000    2.493625
      8          1           0        0.000000    2.160388    1.247324
      9          1           0        0.000000    2.160388   -1.247277
     10          1           0        0.000000   -0.000000   -2.494577
     11          1           0       -0.000000   -2.160388   -1.247277
     12          1           0       -0.000000   -2.160388    1.247324
 ---------------------------------------------------------------------
 Rotational constants (GHZ):           5.6869702           5.6866485           2.8434047
 Leave Link  202 at Wed Nov 19 18:21:35 2025, MaxMem=  7381975040 cpu:               0.0 elap:               0.0
 (Enter /gaussian/g16.c01/intel64-sandybridge/g16/l301.exe)
 Standard basis: STO-3G (5D, 7F)
 Ernie: Thresh=  0.10000D-02 Tol=  0.10000D-05 Strict=F.
 There are    18 symmetry adapted cartesian basis functions of A1  symmetry.
 There are     2 symmetry adapted cartesian basis functions of A2  symmetry.
 There are     4 symmetry adapted cartesian basis functions of B1  symmetry.
 There are    12 symmetry adapted cartesian basis functions of B2  symmetry.
 There are    18 symmetry adapted basis functions of A1  symmetry.
 There are     2 symmetry adapted basis functions of A2  symmetry.
 There are     4 symmetry adapted basis functions of B1  symmetry.
 There are    12 symmetry adapted basis functions of B2  symmetry.
    36 basis functions,   108 primitive gaussians,    36 cartesian basis functions
    21 alpha electrons       21 beta electrons
       nuclear repulsion energy       203.0399252801 Hartrees.
 IExCor=    0 DFT=F Ex=HF Corr=None ExCW=0 ScaHFX=  1.000000
 ScaDFX=  1.000000  1.000000  1.000000  1.000000 ScalE2=  1.000000  1.000000
 IRadAn=      5 IRanWt=     -1 IRanGd=            0 ICorTp=0 IEmpDi=  4
 NAtoms=   12 NActive=   12 NUniq=    8 SFac= 2.25D+00 NAtFMM=   60 NAOKFM=F Big=F
 Integral buffers will be    131072 words long.
 Raffenetti 1 integral format.
 Two-electron integral symmetry is turned on.
 Leave Link  301 at Wed Nov 19 18:21:35 2025, MaxMem=  7381975040 cpu:               0.1 elap:               0.1
 (Enter /gaussian/g16.c01/intel64-sandybridge/g16/l302.exe)
 NPDir=0 NMtPBC=     1 NCelOv=     1 NCel=       1 NClECP=     1 NCelD=      1
         NCelK=      1 NCelE2=     1 NClLst=     1 CellRange=     0.0.
 One-electron integrals computed using PRISM.
 One-electron integral symmetry used in STVInt
 NBasis=    36 RedAO= T EigKep=  1.72D-01  NBF=    18     2     4    12
 NBsUse=    36 1.00D-06 EigRej= -1.00D+00 NBFU=    18     2     4    12
 Leave Link  302 at Wed Nov 19 18:21:35 2025, MaxMem=  7381975040 cpu:               0.3 elap:               0.2
 (Enter /gaussian/g16.c01/intel64-sandybridge/g16/l303.exe)
 DipDrv:  MaxL=1.
 Leave Link  303 at Wed Nov 19 18:21:36 2025, MaxMem=  7381975040 cpu:               0.1 elap:               0.1
 (Enter /gaussian/g16.c01/intel64-sandybridge/g16/l401.exe)
 ExpMin= 1.69D-01 ExpMax= 7.16D+01 ExpMxC= 7.16D+01 IAcc=3 IRadAn=         5 AccDes= 0.00D+00
 Harris functional with IExCor=  205 and IRadAn=       5 diagonalized for initial guess.
 HarFok:  IExCor=  205 AccDes= 0.00D+00 IRadAn=         5 IDoV= 1 UseB2=F ITyADJ=14
 ICtDFT=  3500011 ScaDFX=  1.000000  1.000000  1.000000  1.000000
 FoFCou: FMM=F IPFlag=           0 FMFlag=      100000 FMFlg1=           0
         NFxFlg=           0 DoJE=T BraDBF=F KetDBF=T FulRan=T
         wScrn=  0.000000 ICntrl=       500 IOpCl=  0 I1Cent=   200000004 NGrid=           0
         NMat0=    1 NMatS0=      1 NMatT0=    0 NMatD0=    1 NMtDS0=    0 NMtDT0=    0
 Petite list used in FoFCou.
 Harris En= -228.205301483865    
 JPrj=0 DoOrth=F DoCkMO=F.
 Initial guess orbital symmetries:
       Occupied  (A1) (A1) (B2) (A1) (B2) (A1) (A1) (A1) (B2) (A1)
                 (B2) (A1) (B2) (A1) (A1) (B2) (B1) (A1) (B2) (B1)
                 (A2)
       Virtual   (B1) (A2) (B1) (A1) (B2) (A1) (B2) (A1) (A1) (B2)
                 (A1) (B2) (A1) (B2) (A1)
 The electronic state of the initial guess is 1-A1.
 Leave Link  401 at Wed Nov 19 18:21:36 2025, MaxMem=  7381975040 cpu:               0.5 elap:               0.2
 (Enter /gaussian/g16.c01/intel64-sandybridge/g16/l502.exe)
 Keep R1 ints in memory in symmetry-blocked form, NReq=1047653.
 FoFCou: FMM=F IPFlag=           0 FMFlag=           0 FMFlg1=           0
         NFxFlg=           0 DoJE=F BraDBF=F KetDBF=F FulRan=T
         wScrn=  0.000000 ICntrl=       600 IOpCl=  0 I1Cent=           0 NGrid=           0
         NMat0=    1 NMatS0=    666 NMatT0=    0 NMatD0=    1 NMtDS0=    0 NMtDT0=    0
 Petite list used in FoFCou.
 Closed shell SCF:
 Using DIIS extrapolation, IDIIS=  1040.
 NGot=  7381975040 LenX=  7381900767 LenY=  7381899030
 Requested convergence on RMS density matrix=1.00D-08 within  32 cycles.
 Requested convergence on MAX density matrix=1.00D-06.
 Requested convergence on             energy=1.00D-06.
 No special actions if energy rises.

 Cycle   1  Pass 1  IDiag  1:
 E= -227.806637183227    
 DIIS: error= 5.15D-02 at cycle   1 NSaved=   1.
 NSaved= 1 IEnMin= 1 EnMin= -227.806637183227     IErMin= 1 ErrMin= 5.15D-02
 ErrMax= 5.15D-02  0.00D+00 EMaxC= 1.00D-01 BMatC= 9.81D-02 BMatP= 9.81D-02
 IDIUse=3 WtCom= 4.85D-01 WtEn= 5.15D-01
 Coeff-Com:  0.100D+01
 Coeff-En:   0.100D+01
 Coeff:      0.100D+01
 Gap=     0.550 Goal=   None    Shift=    0.000
 GapD=    0.550 DampG=2.000 DampE=0.500 DampFc=1.0000 IDamp=-1.
 RMSDP=1.02D-02 MaxDP=8.65D-02              OVMax= 0.00D+00

 Cycle   2  Pass 1  IDiag  1:
 E= -227.888790602723     Delta-E=       -0.082153419496 Rises=F Damp=F
 DIIS: error= 4.89D-03 at cycle   2 NSaved=   2.
 NSaved= 2 IEnMin= 2 EnMin= -227.888790602723     IErMin= 2 ErrMin= 4.89D-03
 ErrMax= 4.89D-03  0.00D+00 EMaxC= 1.00D-01 BMatC= 6.86D-04 BMatP= 9.81D-02
 IDIUse=3 WtCom= 9.51D-01 WtEn= 4.89D-02
 Coeff-Com: -0.202D-01 0.102D+01
 Coeff-En:   0.000D+00 0.100D+01
 Coeff:     -0.193D-01 0.102D+01
 Gap=     0.549 Goal=   None    Shift=    0.000
 RMSDP=9.29D-04 MaxDP=4.21D-03 DE=-8.22D-02 OVMax= 0.00D+00

 Cycle   3  Pass 1  IDiag  1:
 E= -227.889432902315     Delta-E=       -0.000642299593 Rises=F Damp=F
 DIIS: error= 6.65D-04 at cycle   3 NSaved=   3.
 NSaved= 3 IEnMin= 3 EnMin= -227.889432902315     IErMin= 3 ErrMin= 6.65D-04
 ErrMax= 6.65D-04  0.00D+00 EMaxC= 1.00D-01 BMatC= 1.02D-05 BMatP= 6.86D-04
 IDIUse=3 WtCom= 9.93D-01 WtEn= 6.65D-03
 Coeff-Com: -0.418D-02-0.305D-01 0.103D+01
 Coeff-En:   0.000D+00 0.000D+00 0.100D+01
 Coeff:     -0.415D-02-0.303D-01 0.103D+01
 Gap=     0.549 Goal=   None    Shift=    0.000
 RMSDP=1.40D-04 MaxDP=6.72D-04 DE=-6.42D-04 OVMax= 0.00D+00

 Cycle   4  Pass 1  IDiag  1:
 E= -227.889449318648     Delta-E=       -0.000016416332 Rises=F Damp=F
 DIIS: error= 1.00D-04 at cycle   4 NSaved=   4.
 NSaved= 4 IEnMin= 4 EnMin= -227.889449318648     IErMin= 4 ErrMin= 1.00D-04
 ErrMax= 1.00D-04  0.00D+00 EMaxC= 1.00D-01 BMatC= 2.89D-07 BMatP= 1.02D-05
 IDIUse=3 WtCom= 9.99D-01 WtEn= 1.00D-03
 Coeff-Com:  0.900D-03-0.609D-02-0.194D+00 0.120D+01
 Coeff-En:   0.000D+00 0.000D+00 0.000D+00 0.100D+01
 Coeff:      0.899D-03-0.608D-02-0.194D+00 0.120D+01
 Gap=     0.549 Goal=   None    Shift=    0.000
 RMSDP=3.11D-05 MaxDP=2.01D-04 DE=-1.64D-05 OVMax= 0.00D+00

 Cycle   5  Pass 1  IDiag  1:
 E= -227.889449834836     Delta-E=       -0.000000516188 Rises=F Damp=F
 DIIS: error= 6.10D-06 at cycle   5 NSaved=   5.
 NSaved= 5 IEnMin= 5 EnMin= -227.889449834836     IErMin= 5 ErrMin= 6.10D-06
 ErrMax= 6.10D-06  0.00D+00 EMaxC= 1.00D-01 BMatC= 1.09D-09 BMatP= 2.89D-07
 IDIUse=1 WtCom= 1.00D+00 WtEn= 0.00D+00
 Coeff-Com: -0.200D-03 0.138D-02 0.454D-01-0.297D+00 0.125D+01
 Coeff:     -0.200D-03 0.138D-02 0.454D-01-0.297D+00 0.125D+01
 Gap=     0.549 Goal=   None    Shift=    0.000
 RMSDP=1.95D-06 MaxDP=1.81D-05 DE=-5.16D-07 OVMax= 0.00D+00

 Cycle   6  Pass 1  IDiag  1:
 E= -227.889449836702     Delta-E=       -0.000000001865 Rises=F Damp=F
 DIIS: error= 5.82D-07 at cycle   6 NSaved=   6.
 NSaved= 6 IEnMin= 6 EnMin= -227.889449836702     IErMin= 6 ErrMin= 5.82D-07
 ErrMax= 5.82D-07  0.00D+00 EMaxC= 1.00D-01 BMatC= 1.27D-11 BMatP= 1.09D-09
 IDIUse=1 WtCom= 1.00D+00 WtEn= 0.00D+00
 Coeff-Com: -0.420D-04 0.287D-03 0.950D-02-0.618D-01 0.244D+00 0.808D+00
 Coeff:     -0.420D-04 0.287D-03 0.950D-02-0.618D-01 0.244D+00 0.808D+00
 Gap=     0.549 Goal=   None    Shift=    0.000
 RMSDP=1.52D-07 MaxDP=1.65D-06 DE=-1.87D-09 OVMax= 0.00D+00

 Cycle   7  Pass 1  IDiag  1:
 E= -227.889449836718     Delta-E=       -0.000000000016 Rises=F Damp=F
 DIIS: error= 2.22D-07 at cycle   7 NSaved=   7.
 NSaved= 7 IEnMin= 7 EnMin= -227.889449836718     IErMin= 7 ErrMin= 2.22D-07
 ErrMax= 2.22D-07  0.00D+00 EMaxC= 1.00D-01 BMatC= 7.73D-13 BMatP= 1.27D-11
 IDIUse=1 WtCom= 1.00D+00 WtEn= 0.00D+00
 Coeff-Com:  0.138D-04-0.961D-04-0.313D-02 0.206D-01-0.873D-01 0.517D-01
 Coeff-Com:  0.102D+01
 Coeff:      0.138D-04-0.961D-04-0.313D-02 0.206D-01-0.873D-01 0.517D-01
 Coeff:      0.102D+01
 Gap=     0.549 Goal=   None    Shift=    0.000
 RMSDP=4.39D-08 MaxDP=5.91D-07 DE=-1.63D-11 OVMax= 0.00D+00

 Cycle   8  Pass 1  IDiag  1:
 E= -227.889449836720     Delta-E=       -0.000000000002 Rises=F Damp=F
 DIIS: error= 6.30D-08 at cycle   8 NSaved=   8.
 NSaved= 8 IEnMin= 8 EnMin= -227.889449836720     IErMin= 8 ErrMin= 6.30D-08
 ErrMax= 6.30D-08  0.00D+00 EMaxC= 1.00D-01 BMatC= 4.77D-14 BMatP= 7.73D-13
 IDIUse=1 WtCom= 1.00D+00 WtEn= 0.00D+00
 Coeff-Com: -0.864D-06 0.617D-05 0.192D-03-0.127D-02 0.560D-02-0.326D-01
 Coeff-Com: -0.774D-01 0.111D+01
 Coeff:     -0.864D-06 0.617D-05 0.192D-03-0.127D-02 0.560D-02-0.326D-01
 Coeff:     -0.774D-01 0.111D+01
 Gap=     0.549 Goal=   None    Shift=    0.000
 RMSDP=1.46D-08 MaxDP=2.03D-07 DE=-2.33D-12 OVMax= 0.00D+00

 Cycle   9  Pass 1  IDiag  1:
 E= -227.889449836720     Delta-E=        0.000000000001 Rises=F Damp=F
 DIIS: error= 2.66D-08 at cycle   9 NSaved=   9.
 NSaved= 9 IEnMin= 8 EnMin= -227.889449836720     IErMin= 9 ErrMin= 2.66D-08
 ErrMax= 2.66D-08  0.00D+00 EMaxC= 1.00D-01 BMatC= 1.85D-14 BMatP= 4.77D-14
 IDIUse=1 WtCom= 1.00D+00 WtEn= 0.00D+00
 Coeff-Com: -0.380D-05 0.265D-04 0.865D-03-0.567D-02 0.240D-01-0.162D-01
 Coeff-Com: -0.251D+00-0.948D-01 0.134D+01
 Coeff:     -0.380D-05 0.265D-04 0.865D-03-0.567D-02 0.240D-01-0.162D-01
 Coeff:     -0.251D+00-0.948D-01 0.134D+01
 Gap=     0.549 Goal=   None    Shift=    0.000
 RMSDP=1.27D-08 MaxDP=1.45D-07 DE= 6.82D-13 OVMax= 0.00D+00

 Cycle  10  Pass 1  IDiag  1:
 E= -227.889449836720     Delta-E=       -0.000000000000 Rises=F Damp=F
 DIIS: error= 8.64D-09 at cycle  10 NSaved=  10.
 NSaved=10 IEnMin= 8 EnMin= -227.889449836720     IErMin=10 ErrMin= 8.64D-09
 ErrMax= 8.64D-09  0.00D+00 EMaxC= 1.00D-01 BMatC= 1.23D-15 BMatP= 1.85D-14
 IDIUse=1 WtCom= 1.00D+00 WtEn= 0.00D+00
 Coeff-Com:  0.350D-06-0.248D-05-0.777D-04 0.512D-03-0.215D-02 0.556D-02
 Coeff-Com:  0.286D-01-0.161D+00-0.209D+00 0.134D+01
 Coeff:      0.350D-06-0.248D-05-0.777D-04 0.512D-03-0.215D-02 0.556D-02
 Coeff:      0.286D-01-0.161D+00-0.209D+00 0.134D+01
 Gap=     0.549 Goal=   None    Shift=    0.000
 RMSDP=5.24D-09 MaxDP=6.12D-08 DE=-4.55D-13 OVMax= 0.00D+00

 SCF Done:  E(RHF) =  -227.889449837     A.U. after   10 cycles
            NFock= 10  Conv=0.52D-08     -V/T= 2.0088
 KE= 2.259074048927D+02 PE=-9.369098542126D+02 EE= 2.800730742031D+02
 Leave Link  502 at Wed Nov 19 18:21:36 2025, MaxMem=  7381975040 cpu:               0.6 elap:               0.4
 (Enter /gaussian/g16.c01/intel64-sandybridge/g16/l508.exe)
 QCSCF skips out because SCF is already converged.
 Leave Link  508 at Wed Nov 19 18:21:36 2025, MaxMem=  7381975040 cpu:               0.0 elap:               0.0
 (Enter /gaussian/g16.c01/intel64-sandybridge/g16/l601.exe)
 Copying SCF densities to generalized density rwf, IOpCl= 0 IROHF=0.

 **********************************************************************

            Population analysis using the SCF Density.

 **********************************************************************

 Orbital symmetries:
       Occupied  (B2) (A1) (A1) (B2) (A1) (A1) (A1) (A1) (B2) (A1)
                 (B2) (A1) (A1) (B2) (A1) (B2) (B1) (A1) (B2) (B1)
                 (A2)
       Virtual   (B1) (A2) (B1) (A1) (B2) (A1) (A1) (B2) (A1) (B2)
                 (A1) (B2) (A1) (B2) (A1)
 The electronic state is 1-A1.
 Alpha  occ. eigenvalues --  -11.02930 -11.02929 -11.02927 -11.02894 -11.02893
 Alpha  occ. eigenvalues --  -11.02879  -1.08914  -0.95266  -0.95262  -0.76324
 Alpha  occ. eigenvalues --   -0.76317  -0.65732  -0.58769  -0.55245  -0.53050
 Alpha  occ. eigenvalues --   -0.53041  -0.45574  -0.42998  -0.42993  -0.27939
 Alpha  occ. eigenvalues --   -0.27938
 Alpha virt. eigenvalues --    0.26928   0.26930   0.50429   0.56494   0.63657
 Alpha virt. eigenvalues --    0.63685   0.70696   0.72608   0.72629   0.87504
 Alpha virt. eigenvalues --    0.87524   0.89410   0.89419   1.08780   1.14449
          Condensed to atoms (all electrons):
               1          2          3          4          5          6
     1  C    4.774896   0.506770  -0.030218  -0.011304  -0.030218   0.506770
     2  C    0.506770   4.774851   0.506761  -0.030213  -0.011304  -0.030206
     3  C   -0.030218   0.506761   4.774903   0.506757  -0.030213  -0.011304
     4  C   -0.011304  -0.030213   0.506757   4.774884   0.506757  -0.030213
     5  C   -0.030218  -0.011304  -0.030213   0.506757   4.774903   0.506761
     6  C    0.506770  -0.030206  -0.011304  -0.030213   0.506761   4.774851
     7  H    0.391353  -0.025090   0.001338   0.000028   0.001338  -0.025090
     8  H   -0.025060   0.391147  -0.025063   0.001336   0.000028   0.001336
     9  H    0.001336  -0.025062   0.391145  -0.025062   0.001336   0.000028
    10  H    0.000028   0.001336  -0.025062   0.391145  -0.025062   0.001336
    11  H    0.001336   0.000028   0.001336  -0.025062   0.391145  -0.025062
    12  H   -0.025060   0.001336   0.000028   0.001336  -0.025063   0.391147
               7          8          9         10         11         12
     1  C    0.391353  -0.025060   0.001336   0.000028   0.001336  -0.025060
     2  C   -0.025090   0.391147  -0.025062   0.001336   0.000028   0.001336
     3  C    0.001338  -0.025063   0.391145  -0.025062   0.001336   0.000028
     4  C    0.000028   0.001336  -0.025062   0.391145  -0.025062   0.001336
     5  C    0.001338   0.000028   0.001336  -0.025062   0.391145  -0.025063
     6  C   -0.025090   0.001336   0.000028   0.001336  -0.025062   0.391147
     7  H    0.602696  -0.003528  -0.000030   0.000002  -0.000030  -0.003528
     8  H   -0.003528   0.602989  -0.003525  -0.000030   0.000002  -0.000030
     9  H   -0.000030  -0.003525   0.602990  -0.003525  -0.000030   0.000002
    10  H    0.000002  -0.000030  -0.003525   0.602985  -0.003525  -0.000030
    11  H   -0.000030   0.000002  -0.000030  -0.003525   0.602990  -0.003525
    12  H   -0.003528  -0.000030   0.000002  -0.000030  -0.003525   0.602989
 Mulliken charges:
               1
     1  C   -0.060629
     2  C   -0.060353
     3  C   -0.060409
     4  C   -0.060389
     5  C   -0.060409
     6  C   -0.060353
     7  H    0.060541
     8  H    0.060399
     9  H    0.060398
    10  H    0.060404
    11  H    0.060398
    12  H    0.060399
 Sum of Mulliken charges =   0.00000
 Mulliken charges with hydrogens summed into heavy atoms:
               1
     1  C   -0.000088
     2  C    0.000047
     3  C   -0.000011
     4  C    0.000015
     5  C   -0.000011
     6  C    0.000047
 Electronic spatial extent (au):  <R**2>=            455.9434
 Charge=              0.0000 electrons
 Dipole moment (field-independent basis, Debye):
    X=             -0.0000    Y=             -0.0000    Z=             -0.0003  Tot=              0.0003
 Quadrupole moment (field-independent basis, Debye-Ang):
   XX=            -35.1299   YY=            -31.1579   ZZ=            -31.1596
   XY=              0.0000   XZ=             -0.0000   YZ=              0.0000
 Traceless Quadrupole moment (field-independent basis, Debye-Ang):
   XX=             -2.6474   YY=              1.3246   ZZ=              1.3228
   XY=              0.0000   XZ=             -0.0000   YZ=              0.0000
 Octapole moment (field-independent basis, Debye-Ang**2):
  XXX=              0.0000  YYY=             -0.0000  ZZZ=             -0.0070  XYY=              0.0000
  XXY=             -0.0000  XXZ=              0.0004  XZZ=              0.0000  YZZ=              0.0000
  YYZ=              0.0012  XYZ=              0.0000
 Hexadecapole moment (field-independent basis, Debye-Ang**3):
 XXXX=            -28.5477 YYYY=           -260.5645 ZZZZ=           -260.5682 XXXY=             -0.0000
 XXXZ=              0.0000 YYYX=             -0.0000 YYYZ=              0.0000 ZZZX=              0.0000
 ZZZY=              0.0000 XXYY=            -53.9896 XXZZ=            -53.9848 YYZZ=            -86.8498
 XXYZ=             -0.0000 YYXZ=             -0.0000 ZZXY=             -0.0000
 N-N= 2.030399252801D+02 E-N=-9.369098542231D+02  KE= 2.259074048927D+02
 Symmetry A1   KE= 1.426606277759D+02
 Symmetry A2   KE= 2.645989280942D+00
 Symmetry B1   KE= 4.813714520454D+00
 Symmetry B2   KE= 7.578707331536D+01
 No NMR shielding tensors so no spin-rotation constants.
 Leave Link  601 at Wed Nov 19 18:21:37 2025, MaxMem=  7381975040 cpu:               0.3 elap:               0.1
 (Enter /gaussian/g16.c01/intel64-sandybridge/g16/l9999.exe)
 Unable to Open any file for archive entry.
 1\1\GINC-THIOTIMOLINE-LARGE01\SP\RHF\STO-3G\C6H6\LCRISCI_VB\19-Nov-202
 5\0\\#P hf/sto-3g scf=xqc\\External Calculation\\0,1\C,0,0.,1.39499067
 99,0.\C,0,1.2080973668,0.69749534,0.\C,0,1.2080973668,-0.69749534,0.\C
 ,0,0.,-1.3949906799,0.\C,0,-1.2080973668,-0.69749534,0.\C,0,-1.2080973
 668,0.69749534,0.\H,0,0.,2.4936009798,0.\H,0,2.1603878208,1.2473004899
 ,0.\H,0,2.1603878208,-1.2473004899,0.\H,0,0.,-2.4946009798,0.\H,0,-2.1
 603878208,-1.2473004899,0.\H,0,-2.1603878208,1.2473004899,0.\\Version=
 ES64L-G16RevC.01\State=1-A1\HF=-227.8894498\RMSD=5.244e-09\Dipole=0.,-
 0.0001034,0.\Quadrupole=0.9847883,0.9835055,-1.9682939,0.,0.,0.\PG=C02
 V [C2(H1C1C1H1),SGV(C4H4)]\\@
 The archive entry for this job was punched.


 ASKING FOR EFFICIENCY AND ADAPTABILITY IN THE SAME PROGRAM IS LIKE
 ASKING FOR A BEAUTIFUL AND MODEST WIFE ...
 WE'LL PROBABLY HAVE TO SETTLE FOR ONE OR THE OTHER.

             -- THE PSYCHOLOGY OF COMPUTER PROGRAMMING
                GERALD M. WEINBERG
 Job cpu time:       0 days  0 hours  0 minutes  2.4 seconds.
 Elapsed time:       0 days  0 hours  0 minutes  1.8 seconds.
 File lengths (MBytes):  RWF=      5 Int=      0 D2E=      0 Chk=      1 Scr=      1
 Normal termination of Gaussian 16 at Wed Nov 19 18:21:37 2025.
