External Calculation                                                    
SP        RHF                                                         STO-3G              
Number of atoms                            I               12
Info1-9                                    I   N=           9
          25          21           0           0           0         110
           1           1           2
Full Title                                 C   N=           2
External Calculation    
Route                                      C   N=           1
#P hf/sto-3g
Point Group                                C   N=           2
C02V                    
Point Group NOp                            I                4
Point Group Abelian NOp                    I                4
Point Group NClass                         I                4
Point Group NIrrep                         I                4
Point Group NGen                           I                2
Point Group NOp symm assign                I                2
Point Group Irrep Names                    H   N=           4
A1      A2      B1      B2      
Point Group Class Names                    H   N=           4
E       C2      Sgm     Sgm'    
Point Group Generators                     I   N=           2
           2           3
Point Group Class of Operators             I   N=           4
           1           2           3           4
Point Group Rotations                      R   N=          48
  1.00000000E+00  0.00000000E+00  0.00000000E+00  0.00000000E+00  1.00000000E+00
 -8.10828647E-33  0.00000000E+00 -8.10828647E-33  1.00000000E+00  0.00000000E+00
  0.00000000E+00  0.00000000E+00 -1.00000000E+00 -1.22464680E-16  0.00000000E+00
  1.22464680E-16 -1.00000000E+00 -2.40424157E-32  0.00000000E+00 -8.10828647E-33
  1.00000000E+00  0.00000000E+00  0.00000000E+00  0.00000000E+00 -1.00000000E+00
  0.00000000E+00  0.00000000E+00  0.00000000E+00  1.00000000E+00 -3.27601898E-32
  0.00000000E+00 -3.27601898E-32  1.00000000E+00  0.00000000E+00  0.00000000E+00
  0.00000000E+00  1.00000000E+00 -1.22464680E-16  0.00000000E+00 -1.22464680E-16
 -1.00000000E+00  1.56070854E-32  0.00000000E+00  1.65436168E-32  1.00000000E+00
  0.00000000E+00  0.00000000E+00  0.00000000E+00
Point Group Cell Trans                     I   N=          12
           0           0           0           0           0           0
           0           0           0           0           0           0
Point Group Char Table                     R   N=          16
  1.00000000E+00  1.00000000E+00  1.00000000E+00  1.00000000E+00  1.00000000E+00
  1.00000000E+00 -1.00000000E+00 -1.00000000E+00  1.00000000E+00 -1.00000000E+00
 -1.00000000E+00  1.00000000E+00  1.00000000E+00 -1.00000000E+00  1.00000000E+00
 -1.00000000E+00
Point Group Atom Permutations              I   N=          48
           1           2           3           4           5           6
           7           8           9          10          11          12
           1           6           5           4           3           2
           7          12          11          10           9           8
           1           2           3           4           5           6
           7           8           9          10          11          12
           1           6           5           4           3           2
           7          12          11          10           9           8
Charge                                     I                0
Multiplicity                               I                1
Number of electrons                        I               42
Number of alpha electrons                  I               21
Number of beta electrons                   I               21
Number of basis functions                  I               36
Number of independent functions            I               36
Number of point charges in /Mol/           I                0
Number of translation vectors              I                0
Atomic numbers                             I   N=          12
           6           6           6           6           6           6
           1           1           1           1           1           1
Nuclear charges                            R   N=          12
  6.00000000E+00  6.00000000E+00  6.00000000E+00  6.00000000E+00  6.00000000E+00
  6.00000000E+00  1.00000000E+00  1.00000000E+00  1.00000000E+00  1.00000000E+00
  1.00000000E+00  1.00000000E+00
Current cartesian coordinates              R   N=          36
  2.46519033E-32  4.13604500E-32 -2.63610534E+00  4.93038066E-32  2.28297316E+00
 -1.31803017E+00  4.93038066E-32  2.28297316E+00  1.31812016E+00  0.00000000E+00
 -4.21143858E-32  2.63619532E+00 -2.79583577E-16 -2.28297316E+00  1.31812016E+00
 -2.79583577E-16 -2.28297316E+00 -1.31803017E+00  0.00000000E+00  1.28425931E-32
 -4.71595737E+00  9.86076132E-32  4.08254130E+00 -2.35701133E+00  0.00000000E+00
  4.08254130E+00  2.35710131E+00 -4.93038066E-32 -8.01663908E-32  4.71415764E+00
 -4.99967114E-16 -4.08254130E+00  2.35710131E+00 -4.99967114E-16 -4.08254130E+00
 -2.35701133E+00
Number of symbols in /Mol/                 I                0
Int Atom Types                             I   N=          12
           0           0           0           0           0           0
           0           0           0           0           0           0
Force Field                                I                0
Atom Types                                 C   N=          12
                                                            
                                                            
                        
MM charges                                 R   N=          12
  0.00000000E+00  0.00000000E+00  0.00000000E+00  0.00000000E+00  0.00000000E+00
  0.00000000E+00  0.00000000E+00  0.00000000E+00  0.00000000E+00  0.00000000E+00
  0.00000000E+00  0.00000000E+00
Integer atomic weights                     I   N=          12
          12          12          12          12          12          12
           1           1           1           1           1           1
Real atomic weights                        R   N=          12
  1.20000000E+01  1.20000000E+01  1.20000000E+01  1.20000000E+01  1.20000000E+01
  1.20000000E+01  1.00782504E+00  1.00782504E+00  1.00782504E+00  1.00782504E+00
  1.00782504E+00  1.00782504E+00
Atom fragment info                         I   N=          12
           0           0           0           0           0           0
           0           0           0           0           0           0
Atom residue num                           I   N=          12
           0           0           0           0           0           0
           0           0           0           0           0           0
Nuclear spins                              I   N=          12
           0           0           0           0           0           0
           1           1           1           1           1           1
Nuclear ZEff                               R   N=          12
 -3.60000000E+00 -3.60000000E+00 -3.60000000E+00 -3.60000000E+00 -3.60000000E+00
 -3.60000000E+00 -1.00000000E+00 -1.00000000E+00 -1.00000000E+00 -1.00000000E+00
 -1.00000000E+00 -1.00000000E+00
Nuclear ZNuc                               R   N=          12
  6.00000000E+00  6.00000000E+00  6.00000000E+00  6.00000000E+00  6.00000000E+00
  6.00000000E+00  1.00000000E+00  1.00000000E+00  1.00000000E+00  1.00000000E+00
  1.00000000E+00  1.00000000E+00
Nuclear QMom                               R   N=          12
  0.00000000E+00  0.00000000E+00  0.00000000E+00  0.00000000E+00  0.00000000E+00
  0.00000000E+00  0.00000000E+00  0.00000000E+00  0.00000000E+00  0.00000000E+00
  0.00000000E+00  0.00000000E+00
Nuclear GFac                               R   N=          12
  0.00000000E+00  0.00000000E+00  0.00000000E+00  0.00000000E+00  0.00000000E+00
  0.00000000E+00  2.79284600E+00  2.79284600E+00  2.79284600E+00  2.79284600E+00
  2.79284600E+00  2.79284600E+00
MicOpt                                     I   N=          12
          -1          -1          -1          -1          -1          -1
          -1          -1          -1          -1          -1          -1
Number of residues                         I                0
Number of secondary structures             I                0
SymInf integers                            I   N=          26
           2           4           1           1           1          -1
          -1           1          -1           1           1           1
          -1           1           0           0           0           0
           0           0           0           0           0           0
           0           0
RotTr to input orientation                 R   N=          12
 -1.32418367E-16 -6.12323400E-17 -1.00000000E+00  1.00000000E+00 -1.83697020E-16
 -1.32418367E-16 -1.83697020E-16 -1.00000000E+00  6.12323400E-17  8.45884209E-17
  4.49934792E-05  1.03688980E-16
Number of contracted shells                I               18
Number of primitive shells                 I               54
Pure/Cartesian d shells                    I                0
Pure/Cartesian f shells                    I                0
Highest angular momentum                   I                1
Largest degree of contraction              I                3
Shell types                                I   N=          18
           0          -1           0          -1           0          -1
           0          -1           0          -1           0          -1
           0           0           0           0           0           0
Number of primitives per shell             I   N=          18
           3           3           3           3           3           3
           3           3           3           3           3           3
           3           3           3           3           3           3
Shell to atom map                          I   N=          18
           1           1           2           2           3           3
           4           4           5           5           6           6
           7           8           9          10          11          12
Primitive exponents                        R   N=          54
  7.16168373E+01  1.30450963E+01  3.53051216E+00  2.94124936E+00  6.83483096E-01
  2.22289916E-01  7.16168373E+01  1.30450963E+01  3.53051216E+00  2.94124936E+00
  6.83483096E-01  2.22289916E-01  7.16168373E+01  1.30450963E+01  3.53051216E+00
  2.94124936E+00  6.83483096E-01  2.22289916E-01  7.16168373E+01  1.30450963E+01
  3.53051216E+00  2.94124936E+00  6.83483096E-01  2.22289916E-01  7.16168373E+01
  1.30450963E+01  3.53051216E+00  2.94124936E+00  6.83483096E-01  2.22289916E-01
  7.16168373E+01  1.30450963E+01  3.53051216E+00  2.94124936E+00  6.83483096E-01
  2.22289916E-01  3.42525091E+00  6.23913730E-01  1.68855404E-01  3.42525091E+00
  6.23913730E-01  1.68855404E-01  3.42525091E+00  6.23913730E-01  1.68855404E-01
  3.42525091E+00  6.23913730E-01  1.68855404E-01  3.42525091E+00  6.23913730E-01
  1.68855404E-01  3.42525091E+00  6.23913730E-01  1.68855404E-01
Contraction coefficients                   R   N=          54
  1.54328967E-01  5.35328142E-01  4.44634542E-01 -9.99672292E-02  3.99512826E-01
  7.00115469E-01  1.54328967E-01  5.35328142E-01  4.44634542E-01 -9.99672292E-02
  3.99512826E-01  7.00115469E-01  1.54328967E-01  5.35328142E-01  4.44634542E-01
 -9.99672292E-02  3.99512826E-01  7.00115469E-01  1.54328967E-01  5.35328142E-01
  4.44634542E-01 -9.99672292E-02  3.99512826E-01  7.00115469E-01  1.54328967E-01
  5.35328142E-01  4.44634542E-01 -9.99672292E-02  3.99512826E-01  7.00115469E-01
  1.54328967E-01  5.35328142E-01  4.44634542E-01 -9.99672292E-02  3.99512826E-01
  7.00115469E-01  1.54328967E-01  5.35328142E-01  4.44634542E-01  1.54328967E-01
  5.35328142E-01  4.44634542E-01  1.54328967E-01  5.35328142E-01  4.44634542E-01
  1.54328967E-01  5.35328142E-01  4.44634542E-01  1.54328967E-01  5.35328142E-01
  4.44634542E-01  1.54328967E-01  5.35328142E-01  4.44634542E-01
P(S=P) Contraction coefficients            R   N=          54
  0.00000000E+00  0.00000000E+00  0.00000000E+00  1.55916275E-01  6.07683719E-01
  3.91957393E-01  0.00000000E+00  0.00000000E+00  0.00000000E+00  1.55916275E-01
  6.07683719E-01  3.91957393E-01  0.00000000E+00  0.00000000E+00  0.00000000E+00
  1.55916275E-01  6.07683719E-01  3.91957393E-01  0.00000000E+00  0.00000000E+00
  0.00000000E+00  1.55916275E-01  6.07683719E-01  3.91957393E-01  0.00000000E+00
  0.00000000E+00  0.00000000E+00  1.55916275E-01  6.07683719E-01  3.91957393E-01
  0.00000000E+00  0.00000000E+00  0.00000000E+00  1.55916275E-01  6.07683719E-01
  3.91957393E-01  0.00000000E+00  0.00000000E+00  0.00000000E+00  0.00000000E+00
  0.00000000E+00  0.00000000E+00  0.00000000E+00  0.00000000E+00  0.00000000E+00
  0.00000000E+00  0.00000000E+00  0.00000000E+00  0.00000000E+00  0.00000000E+00
  0.00000000E+00  0.00000000E+00  0.00000000E+00  0.00000000E+00
Coordinates of each shell                  R   N=          54
  0.00000000E+00  3.24925069E-32 -2.63610534E+00  0.00000000E+00  3.24925069E-32
 -2.63610534E+00  0.00000000E+00  2.28297316E+00 -1.31803017E+00  0.00000000E+00
  2.28297316E+00 -1.31803017E+00  0.00000000E+00  2.28297316E+00  1.31812016E+00
  0.00000000E+00  2.28297316E+00  1.31812016E+00  0.00000000E+00 -3.24936161E-32
  2.63619532E+00  0.00000000E+00 -3.24936161E-32  2.63619532E+00 -2.79583577E-16
 -2.28297316E+00  1.31812016E+00 -2.79583577E-16 -2.28297316E+00  1.31812016E+00
 -2.79583577E-16 -2.28297316E+00 -1.31803017E+00 -2.79583577E-16 -2.28297316E+00
 -1.31803017E+00  0.00000000E+00  5.81286626E-32 -4.71595737E+00  0.00000000E+00
  4.08254130E+00 -2.35701133E+00  0.00000000E+00  4.08254130E+00  2.35710131E+00
  0.00000000E+00 -5.81064791E-32  4.71415764E+00 -4.99967114E-16 -4.08254130E+00
  2.35710131E+00 -4.99967114E-16 -4.08254130E+00 -2.35701133E+00
Constraint Structure                       R   N=          36
 -5.77259185E-17 -5.68833116E-16 -2.63610534E+00 -2.79324669E-16  2.28297316E+00
 -1.31803017E+00 -1.17907016E-16  2.28297316E+00  1.31812016E+00  2.65109388E-16
  3.99672804E-16  2.63619532E+00  4.86708139E-16 -2.28297316E+00  1.31812016E+00
  3.25290486E-16 -2.28297316E+00 -1.31803017E+00 -1.85080125E-16 -9.50895736E-16
 -4.71595737E+00 -5.81239792E-16  4.08254130E+00 -2.35701133E+00 -2.92583644E-16
  4.08254130E+00  2.35710131E+00  3.92347883E-16  7.81388288E-16  4.71415764E+00
  7.88623262E-16 -4.08254130E+00  2.35710131E+00  4.99967114E-16 -4.08254130E+00
 -2.35701133E+00
Constraint Force Constants                 R   N=          36
  0.00000000E+00  0.00000000E+00  0.00000000E+00  0.00000000E+00  0.00000000E+00
  0.00000000E+00  0.00000000E+00  0.00000000E+00  0.00000000E+00  0.00000000E+00
  0.00000000E+00  0.00000000E+00  0.00000000E+00  0.00000000E+00  0.00000000E+00
  0.00000000E+00  0.00000000E+00  0.00000000E+00  0.00000000E+00  0.00000000E+00
  0.00000000E+00  0.00000000E+00  0.00000000E+00  0.00000000E+00  0.00000000E+00
  0.00000000E+00  0.00000000E+00  0.00000000E+00  0.00000000E+00  0.00000000E+00
  0.00000000E+00  0.00000000E+00  0.00000000E+00  0.00000000E+00  0.00000000E+00
  0.00000000E+00
Num ILSW                                   I              100
ILSW                                       I   N=         100
           0           0           0           0           2           0
           0           0           0           0           0          -1
           5           0           0           0           0          -1
           0           0           0           0           0           0
           1           0           0           0           0           0
           0           0      100000           0          -1           0
           0           0           0           0           0           0
           0           0           0           1           0           0
           0 -2000000000           1           0           0           0
           0           0        2004          68           0           0
           0           0           0           0           0           0
           0           0           0          12           0           1
           0           0           0           0           0           0
           0           0           0           0           0           0
           0           0           0           0           0           0
           0           0           0           0           0           0
           0           0           0           0
Num RLSW                                   I               68
RLSW                                       R   N=          68
  1.00000000E+00  1.00000000E+00  1.00000000E+00  1.00000000E+00  1.00000000E+00
  0.00000000E+00  0.00000000E+00  1.00000000E+00  0.00000000E+00  0.00000000E+00
  0.00000000E+00  0.00000000E+00  1.00000000E+00  0.00000000E+00  0.00000000E+00
  0.00000000E+00  0.00000000E+00  1.00000000E+00  0.00000000E+00  0.00000000E+00
  0.00000000E+00  0.00000000E+00  1.00000000E+00  0.00000000E+00  0.00000000E+00
  0.00000000E+00  0.00000000E+00  1.00000000E+00  0.00000000E+00  0.00000000E+00
  0.00000000E+00  0.00000000E+00  1.00000000E+00  0.00000000E+00  0.00000000E+00
  0.00000000E+00  0.00000000E+00  0.00000000E+00  1.00000000E+00  1.00000000E+00
  0.00000000E+00  1.00000000E+00  0.00000000E+00  0.00000000E+00  0.00000000E+00
  0.00000000E+00  0.00000000E+00  0.00000000E+00  0.00000000E+00  0.00000000E+00
  0.00000000E+00  0.00000000E+00  1.00000000E+00  1.00000000E+00  1.00000000E+00
  1.00000000E+00  1.00000000E+00  1.00000000E+00  0.00000000E+00  0.00000000E+00
  0.00000000E+00  0.00000000E+00  0.00000000E+00  0.00000000E+00  0.00000000E+00
  0.00000000E+00  2.00000000E-10  1.00000000E-02
MxBond                                     I                3
NBond                                      I   N=          12
           3           3           3           3           3           3
           1           1           1           1           1           1
IBond                                      I   N=          36
           2           6           7           1           3           8
           2           4           9           3           5          10
           4           6          11           1           5          12
           1           0           0           2           0           0
           3           0           0           4           0           0
           5           0           0           6           0           0
RBond                                      R   N=          36
  1.50000000E+00  1.50000000E+00  1.00000000E+00  1.50000000E+00  1.50000000E+00
  1.00000000E+00  1.50000000E+00  1.50000000E+00  1.00000000E+00  1.50000000E+00
  1.50000000E+00  1.00000000E+00  1.50000000E+00  1.50000000E+00  1.00000000E+00
  1.50000000E+00  1.50000000E+00  1.00000000E+00  1.00000000E+00  0.00000000E+00
  0.00000000E+00  1.00000000E+00  0.00000000E+00  0.00000000E+00  1.00000000E+00
  0.00000000E+00  0.00000000E+00  1.00000000E+00  0.00000000E+00  0.00000000E+00
  1.00000000E+00  0.00000000E+00  0.00000000E+00  1.00000000E+00  0.00000000E+00
  0.00000000E+00
Virial Ratio                               R      2.008779673086284E+00
SCF Energy                                 R     -2.278893933097088E+02
Total Energy                               R     -2.278893933097088E+02
RMS Density                                R      5.242994130591181E-09
Job Status                                 I                1
Nuclear derivative order                   I                0
External E-field                           R   N=         105
  0.00000000E+00  0.00000000E+00  0.00000000E+00  0.00000000E+00  0.00000000E+00
  0.00000000E+00  0.00000000E+00  0.00000000E+00  0.00000000E+00  0.00000000E+00
  0.00000000E+00  0.00000000E+00  0.00000000E+00  0.00000000E+00  0.00000000E+00
  0.00000000E+00  0.00000000E+00  0.00000000E+00  0.00000000E+00  0.00000000E+00
  0.00000000E+00  0.00000000E+00  0.00000000E+00  0.00000000E+00  0.00000000E+00
  0.00000000E+00  0.00000000E+00  0.00000000E+00  0.00000000E+00  0.00000000E+00
  0.00000000E+00  0.00000000E+00  0.00000000E+00  0.00000000E+00  0.00000000E+00
  0.00000000E+00  0.00000000E+00  0.00000000E+00  0.00000000E+00  0.00000000E+00
  0.00000000E+00  0.00000000E+00  0.00000000E+00  0.00000000E+00  0.00000000E+00
  0.00000000E+00  0.00000000E+00  0.00000000E+00  0.00000000E+00  0.00000000E+00
  0.00000000E+00  0.00000000E+00  0.00000000E+00  0.00000000E+00  0.00000000E+00
  0.00000000E+00  0.00000000E+00  0.00000000E+00  0.00000000E+00  0.00000000E+00
  0.00000000E+00  0.00000000E+00  0.00000000E+00  0.00000000E+00  0.00000000E+00
  0.00000000E+00  0.00000000E+00  0.00000000E+00  0.00000000E+00  0.00000000E+00
  0.00000000E+00  0.00000000E+00  0.00000000E+00  0.00000000E+00  0.00000000E+00
  0.00000000E+00  0.00000000E+00  0.00000000E+00  0.00000000E+00  0.00000000E+00
  0.00000000E+00  0.00000000E+00  0.00000000E+00  0.00000000E+00  0.00000000E+00
  0.00000000E+00  0.00000000E+00  0.00000000E+00  0.00000000E+00  0.00000000E+00
  0.00000000E+00  0.00000000E+00  0.00000000E+00  0.00000000E+00  0.00000000E+00
  0.00000000E+00  0.00000000E+00  0.00000000E+00  0.00000000E+00  0.00000000E+00
  0.00000000E+00  0.00000000E+00  0.00000000E+00  0.00000000E+00  0.00000000E+00
IOpCl                                      I                0
IROHF                                      I                0
Alpha Orbital Energies                     R   N=          36
 -1.10293051E+01 -1.10292943E+01 -1.10292713E+01 -1.10289466E+01 -1.10289381E+01
 -1.10287976E+01 -1.08912901E+00 -9.52613841E-01 -9.52572209E-01 -7.63163336E-01
 -7.63093201E-01 -6.57216360E-01 -5.87541810E-01 -5.52433026E-01 -5.30415500E-01
 -5.30334309E-01 -4.55735506E-01 -4.29919672E-01 -4.29861867E-01 -2.79383767E-01
 -2.79369636E-01  2.69294902E-01  2.69313313E-01  5.04304751E-01  5.64619130E-01
  6.36301130E-01  6.36580649E-01  7.06658055E-01  7.25894341E-01  7.26096456E-01
  8.74848665E-01  8.75044210E-01  8.94050826E-01  8.94138939E-01  1.08782498E+00
  1.14436503E+00
Alpha MO coefficients                      R   N=        1296
  6.73279482E-01  1.96272647E-02  0.00000000E+00  0.00000000E+00 -6.09584270E-04
  3.41073324E-01  9.09064972E-03  0.00000000E+00  2.19846428E-03  2.59092416E-03
 -2.06417834E-01 -6.58617976E-03  0.00000000E+00 -1.46110543E-03  2.67139413E-03
 -4.62575398E-01 -1.38284283E-02  0.00000000E+00  0.00000000E+00 -2.04784400E-04
 -2.06417834E-01 -6.58617976E-03  0.00000000E+00  1.46110543E-03  2.67139413E-03
  3.41073324E-01  9.09064972E-03  0.00000000E+00 -2.19846428E-03  2.59092416E-03
 -4.40000351E-03 -2.23139477E-03  1.31695566E-03  2.97638629E-03  1.31695566E-03
 -2.23139477E-03  0.00000000E+00  0.00000000E+00  0.00000000E+00 -3.69900781E-03
  0.00000000E+00  4.87723392E-01  1.41170064E-02  0.00000000E+00 -5.85673695E-04
 -1.87448959E-03  5.04664275E-01  1.48523246E-02  0.00000000E+00 -6.03904564E-04
  1.78692688E-03  0.00000000E+00  0.00000000E+00  0.00000000E+00 -3.83227406E-03
  0.00000000E+00 -5.04664275E-01 -1.48523246E-02  0.00000000E+00 -6.03904564E-04
 -1.78692688E-03 -4.87723392E-01 -1.41170064E-02  0.00000000E+00 -5.85673695E-04
  1.87448959E-03  0.00000000E+00 -3.16466311E-03 -3.27961449E-03  0.00000000E+00
  3.27961449E-03  3.16466311E-03  2.97354218E-01  6.28830528E-03  0.00000000E+00
  0.00000000E+00 -1.29896068E-03  3.29746598E-01  6.76343303E-03  0.00000000E+00
  9.72196152E-04 -1.26756876E-03  4.58833438E-01  1.08781090E-02  0.00000000E+00
  1.61463862E-03  1.44745148E-04  5.09125175E-01  1.21270418E-02  0.00000000E+00
  0.00000000E+00  1.58151871E-03  4.58833438E-01  1.08781090E-02  0.00000000E+00
 -1.61463862E-03  1.44745148E-04  3.29746598E-01  6.76343303E-03  0.00000000E+00
 -9.72196152E-04 -1.26756876E-03 -2.05067615E-03 -2.25363815E-03 -3.09985210E-03
 -3.42099939E-03 -3.09985210E-03 -2.25363815E-03  5.55112079E-01  2.47280884E-02
  0.00000000E+00  0.00000000E+00  2.16334653E-03 -3.21312500E-01 -1.37377538E-02
  0.00000000E+00  2.54031324E-03  2.27127431E-03 -2.66339844E-01 -1.14378867E-02
  0.00000000E+00  2.52542118E-03 -2.59502258E-03  5.71986214E-01  2.45314917E-02
  0.00000000E+00  0.00000000E+00 -1.92600459E-03 -2.66339844E-01 -1.14378867E-02
  0.00000000E+00 -2.52542118E-03 -2.59502258E-03 -3.21312500E-01 -1.37377538E-02
  0.00000000E+00 -2.54031324E-03  2.27127431E-03 -3.77138394E-03  2.18004842E-03
  1.80709712E-03 -3.87045500E-03  1.80709712E-03  2.18004842E-03  0.00000000E+00
  0.00000000E+00  0.00000000E+00 -3.96642356E-03  0.00000000E+00  5.04305470E-01
  2.17725130E-02  0.00000000E+00 -5.46670239E-04  2.53128876E-03 -4.87352162E-01
 -2.12775329E-02  0.00000000E+00  5.26275114E-04  2.59386656E-03  0.00000000E+00
  0.00000000E+00  0.00000000E+00  3.83771966E-03  0.00000000E+00  4.87352162E-01
  2.12775329E-02  0.00000000E+00  5.26275114E-04 -2.59386656E-03 -5.04305470E-01
 -2.17725130E-02  0.00000000E+00 -5.46670239E-04 -2.53128876E-03  0.00000000E+00
 -3.41929435E-03  3.30920769E-03  0.00000000E+00 -3.30920769E-03  3.41929435E-03
 -3.66846095E-01 -1.94999337E-02  0.00000000E+00  0.00000000E+00 -2.48463966E-03
  4.04900557E-01  2.06594317E-02  0.00000000E+00 -2.03707501E-03  1.37122432E-03
 -4.10093527E-01 -2.12456546E-02  0.00000000E+00  2.29305650E-03  1.21263655E-03
  4.29063509E-01  2.18440322E-02  0.00000000E+00  0.00000000E+00 -2.57584169E-03
 -4.10093527E-01 -2.12456546E-02  0.00000000E+00 -2.29305650E-03  1.21263655E-03
  4.04900557E-01  2.06594317E-02  0.00000000E+00  2.03707501E-03  1.37122432E-03
  2.57959435E-03 -2.83877656E-03  2.87408334E-03 -3.00562347E-03  2.87408334E-03
 -2.83877656E-03 -1.04600891E-01  2.65044235E-01  0.00000000E+00  0.00000000E+00
  6.30733815E-02 -1.04630466E-01  2.65096982E-01  0.00000000E+00 -5.45718009E-02
  3.15227708E-02 -1.04642427E-01  2.65128619E-01  0.00000000E+00 -5.45825535E-02
 -3.15081599E-02 -1.04644254E-01  2.65131623E-01  0.00000000E+00  0.00000000E+00
 -6.30250233E-02 -1.04642427E-01  2.65128619E-01  0.00000000E+00  5.45825535E-02
 -3.15081599E-02 -1.04630466E-01  2.65096982E-01  0.00000000E+00  5.45718009E-02
  3.15227708E-02  4.57174723E-02  4.58126896E-02  4.58197659E-02  4.58202824E-02
  4.58197659E-02  4.58126896E-02  0.00000000E+00  0.00000000E+00  0.00000000E+00
  1.31060842E-01  0.00000000E+00 -1.26986163E-01  3.43540791E-01  0.00000000E+00
  1.02168948E-02  6.97732064E-02 -1.26988075E-01  3.43545358E-01  0.00000000E+00
  1.02220702E-02 -6.97706422E-02  0.00000000E+00  0.00000000E+00  0.00000000E+00
  1.31069262E-01  0.00000000E+00  1.26988075E-01 -3.43545358E-01  0.00000000E+00
  1.02220702E-02  6.97706422E-02  1.26986163E-01 -3.43540791E-01  0.00000000E+00
  1.02168948E-02 -6.97732064E-02  0.00000000E+00  9.23409239E-02  9.23448618E-02
  0.00000000E+00 -9.23448618E-02 -9.23409239E-02  1.46603906E-01 -3.96660848E-01
  0.00000000E+00  0.00000000E+00 -3.02376080E-02  7.33565762E-02 -1.98457173E-01
  0.00000000E+00  6.97811452E-02  9.07672855E-02 -7.32991676E-02  1.98304219E-01
  0.00000000E+00 -6.97775848E-02  9.08352072E-02 -1.46644990E-01  3.96729932E-01
  0.00000000E+00  0.00000000E+00 -3.00404052E-02 -7.32991676E-02  1.98304219E-01
  0.00000000E+00  6.97775848E-02  9.08352072E-02  7.33565762E-02 -1.98457173E-01
  0.00000000E+00 -6.97811452E-02  9.07672855E-02 -1.06426600E-01 -5.33425982E-02
  5.33129787E-02  1.06655675E-01  5.33129787E-02 -5.33425982E-02  0.00000000E+00
  0.00000000E+00  0.00000000E+00  2.33865565E-01  0.00000000E+00 -9.89934823E-02
  2.92961387E-01  0.00000000E+00  2.61710239E-03 -1.36535682E-01  9.89894382E-02
 -2.92948448E-01  0.00000000E+00 -2.62107069E-03 -1.36550796E-01  0.00000000E+00
  0.00000000E+00  0.00000000E+00 -2.33879161E-01  0.00000000E+00 -9.89894382E-02
  2.92948448E-01  0.00000000E+00 -2.62107069E-03  1.36550796E-01  9.89934823E-02
 -2.92961387E-01  0.00000000E+00  2.61710239E-03  1.36535682E-01  0.00000000E+00
  1.52182926E-01 -1.52185682E-01  0.00000000E+00  1.52185682E-01 -1.52182926E-01
 -1.14326889E-01  3.38400729E-01  0.00000000E+00  0.00000000E+00 -8.10500821E-02
  5.70964997E-02 -1.68975786E-01  0.00000000E+00 -1.36697491E-01 -1.55107292E-01
  5.72027105E-02 -1.69296902E-01  0.00000000E+00 -1.36641180E-01  1.54984455E-01
 -1.14285562E-01  3.38223008E-01  0.00000000E+00  0.00000000E+00  8.14516601E-02
  5.72027105E-02 -1.69296902E-01  0.00000000E+00  1.36641180E-01  1.54984455E-01
  5.70964997E-02 -1.68975786E-01  0.00000000E+00  1.36697491E-01 -1.55107292E-01
  1.75403119E-01 -8.78722108E-02 -8.79987595E-02  1.75725479E-01 -8.79987595E-02
 -8.78722108E-02 -9.42279174E-03  3.88704853E-02  0.00000000E+00  0.00000000E+00
 -2.33711546E-01 -9.42121094E-03  3.88378683E-02  0.00000000E+00  2.02635693E-01
 -1.17302711E-01 -9.27012059E-03  3.83514881E-02  0.00000000E+00  2.02630880E-01
  1.17134557E-01 -9.46644737E-03  3.89772418E-02  0.00000000E+00  0.00000000E+00
  2.34389447E-01 -9.27012059E-03  3.83514881E-02  0.00000000E+00 -2.02630880E-01
  1.17134557E-01 -9.42121094E-03  3.88378683E-02  0.00000000E+00 -2.02635693E-01
 -1.17302711E-01  1.76205833E-01  1.76572838E-01  1.76307298E-01  1.76811975E-01
  1.76307298E-01  1.76572838E-01 -6.51741719E-02  2.20621261E-01  0.00000000E+00
  0.00000000E+00 -1.63179085E-01  6.50449877E-02 -2.20117293E-01  0.00000000E+00
 -1.41856045E-01  8.14845588E-02 -6.50223104E-02  2.20069184E-01  0.00000000E+00
  1.42064487E-01  8.21034360E-02  6.50570112E-02 -2.20154601E-01  0.00000000E+00
  0.00000000E+00 -1.62972026E-01 -6.50223104E-02  2.20069184E-01  0.00000000E+00
 -1.42064487E-01  8.21034360E-02  6.50449877E-02 -2.20117293E-01  0.00000000E+00
  1.41856045E-01  8.14845588E-02  2.32276310E-01 -2.32521121E-01  2.32879073E-01
 -2.32044956E-01  2.32879073E-01 -2.32521121E-01  0.00000000E+00  0.00000000E+00
  0.00000000E+00  3.32110489E-01  0.00000000E+00 -4.06253841E-06  1.70640733E-05
  0.00000000E+00 -1.66067752E-01 -2.87624679E-01  6.97514332E-07 -2.75999082E-06
  0.00000000E+00 -1.66080307E-01  2.87621804E-01  0.00000000E+00  0.00000000E+00
  0.00000000E+00  3.32131384E-01  0.00000000E+00 -6.97514332E-07  2.75999082E-06
  0.00000000E+00 -1.66080307E-01 -2.87621804E-01  4.06253841E-06 -1.70640733E-05
  0.00000000E+00 -1.66067752E-01  2.87624679E-01  0.00000000E+00  1.54182516E-06
 -1.79474896E-05  0.00000000E+00  1.79474896E-05 -1.54182516E-06  0.00000000E+00
  0.00000000E+00  0.00000000E+00 -1.00241852E-01  0.00000000E+00  2.23693149E-02
 -6.96766985E-02  0.00000000E+00  2.51269906E-01 -2.02974244E-01  2.23715698E-02
 -6.96818766E-02  0.00000000E+00  2.51275058E-01  2.02970558E-01  0.00000000E+00
  0.00000000E+00  0.00000000E+00 -1.00259916E-01  0.00000000E+00 -2.23715698E-02
  6.96818766E-02  0.00000000E+00  2.51275058E-01 -2.02970558E-01 -2.23693149E-02
  6.96766985E-02  0.00000000E+00  2.51269906E-01  2.02974244E-01  0.00000000E+00
  2.46924259E-01  2.46927107E-01  0.00000000E+00 -2.46927107E-01 -2.46924259E-01
 -2.56842042E-02  7.98756396E-02  0.00000000E+00  0.00000000E+00  3.68601347E-01
 -1.30005427E-02  4.05141698E-02  0.00000000E+00 -2.02792734E-01  1.71658880E-02
  1.29819851E-02 -4.04750544E-02  0.00000000E+00  2.02716930E-01  1.64879804E-02
  2.57746078E-02 -8.02559268E-02  0.00000000E+00  0.00000000E+00  3.68720010E-01
  1.29819851E-02 -4.04750544E-02  0.00000000E+00 -2.02716930E-01  1.64879804E-02
 -1.30005427E-02  4.05141698E-02  0.00000000E+00  2.02792734E-01  1.71658880E-02
 -2.85500029E-01 -1.42416944E-01  1.42087548E-01  2.85510522E-01  1.42087548E-01
 -1.42416944E-01  0.00000000E+00  0.00000000E+00  3.34247725E-01  0.00000000E+00
  0.00000000E+00  0.00000000E+00  0.00000000E+00  3.34290567E-01  0.00000000E+00
  0.00000000E+00  0.00000000E+00  0.00000000E+00  3.34297999E-01  0.00000000E+00
  0.00000000E+00  0.00000000E+00  0.00000000E+00  3.34300744E-01  0.00000000E+00
  0.00000000E+00  0.00000000E+00  0.00000000E+00  3.34297999E-01  0.00000000E+00
  0.00000000E+00  0.00000000E+00  0.00000000E+00  3.34290567E-01  0.00000000E+00
  0.00000000E+00  0.00000000E+00  0.00000000E+00  0.00000000E+00  0.00000000E+00
  0.00000000E+00  0.00000000E+00  0.00000000E+00  0.00000000E+00  0.00000000E+00
  3.30819223E-01  0.00000000E+00 -6.33707362E-03  1.23452416E-02  0.00000000E+00
 -2.94456995E-01 -2.10130895E-02  6.33641790E-03 -1.23398768E-02  0.00000000E+00
  2.94435190E-01 -2.09973268E-02  0.00000000E+00  0.00000000E+00  0.00000000E+00
 -3.30810297E-01  0.00000000E+00 -6.33641790E-03  1.23398768E-02  0.00000000E+00
  2.94435190E-01  2.09973268E-02  6.33707362E-03 -1.23452416E-02  0.00000000E+00
 -2.94456995E-01  2.10130895E-02  0.00000000E+00 -2.60681686E-01  2.60676407E-01
  0.00000000E+00 -2.60676407E-01  2.60681686E-01  7.28044256E-03 -1.40145046E-02
  0.00000000E+00  0.00000000E+00 -2.82671665E-01 -3.62675025E-03  7.01772218E-03
  0.00000000E+00  2.10815727E-02  3.18626278E-01 -3.68075423E-03  7.20818120E-03
  0.00000000E+00  2.09578437E-02 -3.18616028E-01  7.31110309E-03 -1.42349992E-02
  0.00000000E+00  0.00000000E+00  2.82071984E-01 -3.68075423E-03  7.20818120E-03
  0.00000000E+00 -2.09578437E-02 -3.18616028E-01 -3.62675025E-03  7.01772218E-03
  0.00000000E+00 -2.10815727E-02  3.18626278E-01  3.01496490E-01 -1.50473902E-01
 -1.50473990E-01  3.00785350E-01 -1.50473990E-01 -1.50473902E-01  0.00000000E+00
  0.00000000E+00  0.00000000E+00  0.00000000E+00  0.00000000E+00  0.00000000E+00
  0.00000000E+00  4.60463897E-01  0.00000000E+00  0.00000000E+00  0.00000000E+00
  0.00000000E+00  4.60453731E-01  0.00000000E+00  0.00000000E+00  0.00000000E+00
  0.00000000E+00  0.00000000E+00  0.00000000E+00  0.00000000E+00  0.00000000E+00
  0.00000000E+00 -4.60453731E-01  0.00000000E+00  0.00000000E+00  0.00000000E+00
  0.00000000E+00 -4.60463897E-01  0.00000000E+00  0.00000000E+00  0.00000000E+00
  0.00000000E+00  0.00000000E+00  0.00000000E+00  0.00000000E+00  0.00000000E+00
  0.00000000E+00  0.00000000E+00 -5.31663932E-01  0.00000000E+00  0.00000000E+00
  0.00000000E+00  0.00000000E+00 -2.65884577E-01  0.00000000E+00  0.00000000E+00
  0.00000000E+00  0.00000000E+00  2.65829463E-01  0.00000000E+00  0.00000000E+00
  0.00000000E+00  0.00000000E+00  5.31698146E-01  0.00000000E+00  0.00000000E+00
  0.00000000E+00  0.00000000E+00  2.65829463E-01  0.00000000E+00  0.00000000E+00
  0.00000000E+00  0.00000000E+00 -2.65884577E-01  0.00000000E+00  0.00000000E+00
  0.00000000E+00  0.00000000E+00  0.00000000E+00  0.00000000E+00  0.00000000E+00
  0.00000000E+00  0.00000000E+00  0.00000000E+00  0.00000000E+00  0.00000000E+00
  0.00000000E+00  0.00000000E+00  0.00000000E+00 -5.69963805E-01  0.00000000E+00
  0.00000000E+00  0.00000000E+00  0.00000000E+00  5.69972018E-01  0.00000000E+00
  0.00000000E+00  0.00000000E+00  0.00000000E+00  0.00000000E+00  0.00000000E+00
  0.00000000E+00  0.00000000E+00  0.00000000E+00 -5.69972018E-01  0.00000000E+00
  0.00000000E+00  0.00000000E+00  0.00000000E+00  5.69963805E-01  0.00000000E+00
  0.00000000E+00  0.00000000E+00  0.00000000E+00  0.00000000E+00  0.00000000E+00
  0.00000000E+00  0.00000000E+00  0.00000000E+00  0.00000000E+00  6.58147684E-01
  0.00000000E+00  0.00000000E+00  0.00000000E+00  0.00000000E+00 -3.29026899E-01
  0.00000000E+00  0.00000000E+00  0.00000000E+00  0.00000000E+00 -3.29101776E-01
  0.00000000E+00  0.00000000E+00  0.00000000E+00  0.00000000E+00  6.58150399E-01
  0.00000000E+00  0.00000000E+00  0.00000000E+00  0.00000000E+00 -3.29101776E-01
  0.00000000E+00  0.00000000E+00  0.00000000E+00  0.00000000E+00 -3.29026899E-01
  0.00000000E+00  0.00000000E+00  0.00000000E+00  0.00000000E+00  0.00000000E+00
  0.00000000E+00  0.00000000E+00  0.00000000E+00  0.00000000E+00  0.00000000E+00
  5.22241850E-01  0.00000000E+00  0.00000000E+00  0.00000000E+00  0.00000000E+00
 -5.22200892E-01  0.00000000E+00  0.00000000E+00  0.00000000E+00  0.00000000E+00
  5.22177009E-01  0.00000000E+00  0.00000000E+00  0.00000000E+00  0.00000000E+00
 -5.22169654E-01  0.00000000E+00  0.00000000E+00  0.00000000E+00  0.00000000E+00
  5.22177009E-01  0.00000000E+00  0.00000000E+00  0.00000000E+00  0.00000000E+00
 -5.22200892E-01  0.00000000E+00  0.00000000E+00  0.00000000E+00  0.00000000E+00
  0.00000000E+00  0.00000000E+00  0.00000000E+00  0.00000000E+00  5.27391517E-02
 -3.29236162E-01  0.00000000E+00  0.00000000E+00  3.14101971E-01  5.22089984E-02
 -3.26296155E-01  0.00000000E+00 -2.70490855E-01  1.56433498E-01  5.23352804E-02
 -3.26988644E-01  0.00000000E+00 -2.69910694E-01 -1.54900547E-01  5.22563690E-02
 -3.26533455E-01  0.00000000E+00  0.00000000E+00 -3.10698676E-01  5.23352804E-02
 -3.26988644E-01  0.00000000E+00  2.69910694E-01 -1.54900547E-01  5.22089984E-02
 -3.26296155E-01  0.00000000E+00  2.70490855E-01  1.56433498E-01  5.07557180E-01
  5.04704283E-01  5.03785344E-01  5.02931598E-01  5.03785344E-01  5.04704283E-01
 -3.31149947E-02  2.10925881E-01  0.00000000E+00  0.00000000E+00 -5.52172395E-01
 -1.56089305E-02  9.97977903E-02  0.00000000E+00  1.08731057E-01 -3.60537215E-01
  1.62996574E-02 -1.04139265E-01  0.00000000E+00 -1.10272963E-01 -3.63140309E-01
  3.26825442E-02 -2.08613129E-01  0.00000000E+00  0.00000000E+00 -5.52720530E-01
  1.62996574E-02 -1.04139265E-01  0.00000000E+00  1.10272963E-01 -3.63140309E-01
 -1.56089305E-02  9.97977903E-02  0.00000000E+00 -1.08731057E-01 -3.60537215E-01
 -6.54160261E-01 -3.22824131E-01  3.27559770E-01  6.54176134E-01  3.27559770E-01
 -3.22824131E-01  0.00000000E+00  0.00000000E+00  0.00000000E+00 -2.99053372E-01
  0.00000000E+00  2.81727961E-02 -1.79866869E-01  0.00000000E+00 -4.88912951E-01
  1.09619045E-01  2.81700224E-02 -1.79850151E-01  0.00000000E+00 -4.88940033E-01
 -1.09615920E-01  0.00000000E+00  0.00000000E+00  0.00000000E+00 -2.99080715E-01
  0.00000000E+00 -2.81700224E-02  1.79850151E-01  0.00000000E+00 -4.88940033E-01
  1.09615920E-01 -2.81727961E-02  1.79866869E-01  0.00000000E+00 -4.88912951E-01
 -1.09619045E-01  0.00000000E+00  5.65490893E-01  5.65498963E-01  0.00000000E+00
 -5.65498963E-01 -5.65490893E-01 -1.20159750E-01  7.46541839E-01  0.00000000E+00
  0.00000000E+00 -7.24372076E-02  1.19648729E-01 -7.43490061E-01  0.00000000E+00
 -6.30919158E-02  4.13379084E-02 -1.18107615E-01  7.33651057E-01  0.00000000E+00
  6.47857940E-02  3.52262755E-02  1.17451225E-01 -7.29495730E-01  0.00000000E+00
  0.00000000E+00 -7.15887138E-02 -1.18107615E-01  7.33651057E-01  0.00000000E+00
 -6.47857940E-02  3.52262755E-02  1.19648729E-01 -7.43490061E-01  0.00000000E+00
  6.30919158E-02  4.13379084E-02 -4.50147062E-01  4.51841670E-01 -4.45690348E-01
  4.41665775E-01 -4.45690348E-01  4.51841670E-01 -1.59139722E-01  1.02219580E+00
  0.00000000E+00  0.00000000E+00 -7.81392566E-03  7.91359843E-02 -5.08506166E-01
  0.00000000E+00  1.75609873E-01  3.15491765E-01  8.13091368E-02 -5.22117166E-01
  0.00000000E+00  1.74717788E-01 -3.13256380E-01 -1.61388186E-01  1.03645864E+00
  0.00000000E+00  0.00000000E+00  1.18744865E-02  8.13091368E-02 -5.22117166E-01
  0.00000000E+00 -1.74717788E-01 -3.13256380E-01  7.91359843E-02 -5.08506166E-01
  0.00000000E+00 -1.75609873E-01  3.15491765E-01 -4.90363579E-01  2.45719306E-01
  2.52275782E-01 -5.01877833E-01  2.52275782E-01  2.45719306E-01  0.00000000E+00
  0.00000000E+00  0.00000000E+00  4.15772297E-01  0.00000000E+00  1.38892808E-01
 -8.92238894E-01  0.00000000E+00 -1.10954873E-01 -1.76060536E-01 -1.38901416E-01
  8.92299451E-01  0.00000000E+00  1.10940174E-01 -1.76018572E-01  0.00000000E+00
  0.00000000E+00  0.00000000E+00 -4.15850258E-01  0.00000000E+00  1.38901416E-01
 -8.92299451E-01  0.00000000E+00  1.10940174E-01  1.76018572E-01 -1.38892808E-01
  8.92238894E-01  0.00000000E+00 -1.10954873E-01  1.76060536E-01  0.00000000E+00
  4.29796534E-01 -4.29826346E-01  0.00000000E+00  4.29826346E-01 -4.29796534E-01
  3.87903397E-02 -2.79188396E-01  0.00000000E+00  0.00000000E+00 -8.04764308E-01
 -1.99535027E-02  1.43435224E-01  0.00000000E+00 -4.57284240E-01  1.41132675E-02
 -1.91277015E-02  1.37687661E-01  0.00000000E+00 -4.61481528E-01 -5.68314543E-03
  3.95693261E-02 -2.84645092E-01  0.00000000E+00  0.00000000E+00  8.05069211E-01
 -1.91277015E-02  1.37687661E-01  0.00000000E+00  4.61481528E-01 -5.68314543E-03
 -1.99535027E-02  1.43435224E-01  0.00000000E+00  4.57284240E-01  1.41132675E-02
 -5.13810238E-01  2.56339298E-01  2.58109597E-01 -5.12882731E-01  2.58109597E-01
  2.56339298E-01  0.00000000E+00  0.00000000E+00  0.00000000E+00 -2.54636546E-01
  0.00000000E+00 -3.37057322E-02  2.42535114E-01  0.00000000E+00 -5.40202848E-01
  4.59127843E-01  3.37409860E-02 -2.42784461E-01  0.00000000E+00  5.40260633E-01
  4.58961939E-01  0.00000000E+00  0.00000000E+00  0.00000000E+00  2.54975201E-01
  0.00000000E+00 -3.37409860E-02  2.42784461E-01  0.00000000E+00  5.40260633E-01
 -4.58961939E-01  3.37057322E-02 -2.42535114E-01  0.00000000E+00 -5.40202848E-01
 -4.59127843E-01  0.00000000E+00  4.45666445E-01 -4.45548174E-01  0.00000000E+00
  4.45548174E-01 -4.45666445E-01 -9.45621267E-02  6.76176817E-01  0.00000000E+00
  0.00000000E+00 -4.98440397E-02 -4.72757812E-02  3.37988412E-01  0.00000000E+00
  3.92634095E-01  6.20716086E-01  4.74333967E-02 -3.39171563E-01  0.00000000E+00
 -3.87467943E-01  6.21172647E-01  9.43600539E-02 -6.74708655E-01  0.00000000E+00
  0.00000000E+00 -5.99890955E-02  4.74333967E-02 -3.39171563E-01  0.00000000E+00
  3.87467943E-01  6.21172647E-01 -4.72757812E-02  3.37988412E-01  0.00000000E+00
 -3.92634095E-01  6.20716086E-01 -2.78285247E-01 -1.42987485E-01  1.39820642E-01
  2.85877282E-01  1.39820642E-01 -1.42987485E-01  0.00000000E+00  0.00000000E+00
  0.00000000E+00  8.46026501E-01  0.00000000E+00  8.19104052E-02 -5.85723026E-01
  0.00000000E+00  1.70207046E-01  3.90060483E-01  8.18833192E-02 -5.85535877E-01
  0.00000000E+00  1.70052929E-01 -3.90364773E-01  0.00000000E+00  0.00000000E+00
  0.00000000E+00  8.45984397E-01  0.00000000E+00 -8.18833192E-02  5.85535877E-01
  0.00000000E+00  1.70052929E-01  3.90364773E-01 -8.19104052E-02  5.85723026E-01
  0.00000000E+00  1.70207046E-01 -3.90060483E-01  0.00000000E+00  2.44811496E-01
  2.44955299E-01  0.00000000E+00 -2.44955299E-01 -2.44811496E-01  0.00000000E+00
  0.00000000E+00  0.00000000E+00  7.56474047E-01  0.00000000E+00  8.49405722E-06
 -6.18450423E-05  0.00000000E+00  3.78221351E-01  6.55065017E-01  2.16183093E-06
 -1.71975822E-05  0.00000000E+00 -3.78185312E-01  6.55011846E-01  0.00000000E+00
  0.00000000E+00  0.00000000E+00 -7.56340063E-01  0.00000000E+00 -2.16183093E-06
  1.71975822E-05  0.00000000E+00 -3.78185312E-01 -6.55011846E-01 -8.49405722E-06
  6.18450423E-05  0.00000000E+00  3.78221351E-01 -6.55065017E-01  0.00000000E+00
  7.78967524E-06  1.26588332E-05  0.00000000E+00 -1.26588332E-05 -7.78967524E-06
 -6.37979824E-02  4.82792702E-01  0.00000000E+00  0.00000000E+00  6.69524591E-01
  6.37113703E-02 -4.82029858E-01  0.00000000E+00  5.80436660E-01 -3.34988646E-01
 -6.37069468E-02  4.82005736E-01  0.00000000E+00 -5.80644395E-01 -3.35092023E-01
  6.37260125E-02 -4.82161439E-01  0.00000000E+00  0.00000000E+00  6.70442296E-01
 -6.37069468E-02  4.82005736E-01  0.00000000E+00  5.80644395E-01 -3.35092023E-01
  6.37113703E-02 -4.82029858E-01  0.00000000E+00 -5.80436660E-01 -3.34988646E-01
  2.63467137E-01 -2.64442006E-01  2.64614565E-01 -2.64596580E-01  2.64614565E-01
 -2.64442006E-01
Orthonormal basis                          R   N=        1296
  5.32442517E-02  2.07857785E-01  0.00000000E+00  0.00000000E+00  1.23602053E-01
  5.32739820E-02  2.07944938E-01  0.00000000E+00 -1.06960881E-01  6.18203788E-02
  5.32911091E-02  2.08009602E-01  0.00000000E+00 -1.06991720E-01 -6.17542590E-02
  5.32935614E-02  2.08021540E-01  0.00000000E+00  0.00000000E+00 -1.23538946E-01
  5.32911091E-02  2.08009602E-01  0.00000000E+00  1.06991720E-01 -6.17542590E-02
  5.32739820E-02  2.07944938E-01  0.00000000E+00  1.06960881E-01  6.18203788E-02
  6.58837934E-02  6.60455761E-02  6.60878262E-02  6.60930634E-02  6.60878262E-02
  6.60455761E-02 -9.20191935E-02 -2.77956278E-01  0.00000000E+00  0.00000000E+00
  4.01868494E-02 -4.60854349E-02 -1.39162275E-01  0.00000000E+00  5.39044104E-02
  1.33674466E-01  4.60066534E-02  1.38944851E-01  0.00000000E+00 -5.38408036E-02
  1.34015813E-01  9.21057499E-02  2.78141792E-01  0.00000000E+00  0.00000000E+00
  4.07147696E-02  4.60066534E-02  1.38944851E-01  0.00000000E+00  5.38408036E-02
  1.34015813E-01 -4.60854349E-02 -1.39162275E-01  0.00000000E+00 -5.39044104E-02
  1.33674466E-01 -1.98114848E-01 -9.92743313E-02  9.92596844E-02  1.98652777E-01
  9.92596844E-02 -9.92743313E-02  1.56453201E-02  5.52401747E-02  0.00000000E+00
  0.00000000E+00 -2.13712958E-01  2.51394330E-02  7.62009859E-02  0.00000000E+00
  2.04218088E-01 -9.94018369E-02  2.50550454E-02  7.59957485E-02  0.00000000E+00
  2.04270595E-01  9.92172196E-02  1.55429294E-02  5.49421584E-02  0.00000000E+00
  0.00000000E+00  2.13780762E-01  2.50550454E-02  7.59957485E-02  0.00000000E+00
 -2.04270595E-01  9.92172196E-02  2.51394330E-02  7.62009859E-02  0.00000000E+00
 -2.04218088E-01 -9.94018369E-02  1.66292155E-01  1.87769833E-01  1.87604603E-01
  1.66177261E-01  1.87604603E-01  1.87769833E-01 -9.19790550E-02 -2.04711968E-01
  0.00000000E+00  0.00000000E+00  1.36804832E-01  4.35552287E-02  9.47483976E-02
  0.00000000E+00  1.54051967E-01  1.76796392E-01  4.36820589E-02  9.50558893E-02
  0.00000000E+00  1.53970932E-01 -1.76521071E-01 -9.18240644E-02 -2.04268625E-01
  0.00000000E+00  0.00000000E+00 -1.36918117E-01  4.36820589E-02  9.50558893E-02
  0.00000000E+00 -1.53970932E-01 -1.76521071E-01  4.35552287E-02  9.47483976E-02
  0.00000000E+00 -1.54051967E-01  1.76796392E-01 -2.16284767E-01  8.89584803E-02
  8.92040390E-02 -2.16159357E-01  8.92040390E-02  8.89584803E-02  9.77492262E-02
  1.27514484E-01  0.00000000E+00  0.00000000E+00 -1.83928875E-01 -9.74836972E-02
 -1.27101482E-01  0.00000000E+00 -1.60060797E-01  9.20568204E-02  9.74812525E-02
  1.27117690E-01  0.00000000E+00  1.60012530E-01  9.22877357E-02 -9.76608670E-02
 -1.27336530E-01  0.00000000E+00  0.00000000E+00 -1.83887120E-01  9.74812525E-02
  1.27117690E-01  0.00000000E+00 -1.60012530E-01  9.22877357E-02 -9.74836972E-02
 -1.27101482E-01  0.00000000E+00  1.60060797E-01  9.20568204E-02  2.33620955E-01
 -2.33871525E-01  2.33945395E-01 -2.33473678E-01  2.33945395E-01 -2.33871525E-01
  8.93335946E-02  1.04677477E-01  0.00000000E+00  0.00000000E+00  3.85018317E-01
  4.48710274E-02  5.26114586E-02  0.00000000E+00 -2.23712157E-01 -3.19781111E-03
 -4.48729834E-02 -5.26245737E-02  0.00000000E+00  2.23749746E-01 -3.30352613E-03
 -8.93672156E-02 -1.04771782E-01  0.00000000E+00  0.00000000E+00  3.84999483E-01
 -4.48729834E-02 -5.26245737E-02  0.00000000E+00 -2.23749746E-01 -3.30352613E-03
  4.48710274E-02  5.26114586E-02  0.00000000E+00  2.23712157E-01 -3.19781111E-03
 -2.20520959E-01 -1.09731287E-01  1.09700168E-01  2.20342994E-01  1.09700168E-01
 -1.09731287E-01  2.86585755E-02  2.18144977E-03  0.00000000E+00  0.00000000E+00
  2.91967529E-01 -1.43380681E-02 -1.13597878E-03  0.00000000E+00 -1.97366564E-02
 -3.26186476E-01 -1.43408441E-02 -1.13367588E-03  0.00000000E+00 -1.98022987E-02
  3.26195332E-01  2.86850512E-02  2.26630307E-03  0.00000000E+00  0.00000000E+00
 -2.91932295E-01 -1.43408441E-02 -1.13367588E-03  0.00000000E+00  1.98022987E-02
  3.26195332E-01 -1.43380681E-02 -1.13597878E-03  0.00000000E+00  1.97366564E-02
 -3.26186476E-01 -2.81660251E-01  1.40714359E-01  1.40673593E-01 -2.81384647E-01
  1.40673593E-01  1.40714359E-01 -3.88702439E-01 -2.05015522E-02  0.00000000E+00
  0.00000000E+00 -7.51529287E-02  3.88211016E-01  2.04932911E-02  0.00000000E+00
 -6.52420765E-02  3.74468597E-02 -3.87561205E-01 -2.04474884E-02  0.00000000E+00
  6.50287493E-02  3.77377451E-02  3.87159033E-01  2.04230577E-02  0.00000000E+00
  0.00000000E+00 -7.51548212E-02 -3.87561205E-01 -2.04474884E-02  0.00000000E+00
 -6.50287493E-02  3.77377451E-02  3.88211016E-01  2.04932911E-02  0.00000000E+00
  6.52420765E-02  3.74468597E-02  1.13875509E-01 -1.13700829E-01  1.13643566E-01
 -1.13582826E-01  1.13643566E-01 -1.13700829E-01  5.59942677E-01  2.73339739E-02
  0.00000000E+00  0.00000000E+00  3.29294831E-02 -2.79615872E-01 -1.36601141E-02
  0.00000000E+00  7.43474100E-02  9.58447400E-02 -2.80676389E-01 -1.37000353E-02
  0.00000000E+00  7.44977204E-02 -9.57357472E-02  5.60908044E-01  2.73810694E-02
  0.00000000E+00  0.00000000E+00 -3.32155799E-02 -2.80676389E-01 -1.37000353E-02
  0.00000000E+00 -7.44977204E-02 -9.57357472E-02 -2.79615872E-01 -1.36601141E-02
  0.00000000E+00 -7.43474100E-02  9.58447400E-02 -7.47159063E-02  3.72225540E-02
  3.75344040E-02 -7.49450560E-02  3.75344040E-02  3.72225540E-02  4.07318676E-01
 -4.97675987E-02  0.00000000E+00  0.00000000E+00 -4.56998831E-02  4.07449082E-01
 -4.97630571E-02  0.00000000E+00  3.95120150E-02 -2.27723721E-02  4.07203138E-01
 -4.97395133E-02  0.00000000E+00  3.94615297E-02  2.28255490E-02  4.07112289E-01
 -4.97306155E-02  0.00000000E+00  0.00000000E+00  4.55724210E-02  4.07203138E-01
 -4.97395133E-02  0.00000000E+00 -3.94615297E-02  2.28255490E-02  4.07449082E-01
 -4.97630571E-02  0.00000000E+00 -3.95120150E-02 -2.27723721E-02 -8.66359630E-02
 -8.66064392E-02 -8.65584572E-02 -8.65519503E-02 -8.65584572E-02 -8.66064392E-02
 -5.66878985E-01  7.62605444E-02  0.00000000E+00  0.00000000E+00  9.66428985E-02
 -2.83469355E-01  3.81268564E-02  0.00000000E+00 -1.02620156E-01 -8.11824279E-02
  2.83659688E-01 -3.81586149E-02  0.00000000E+00  1.02649440E-01 -8.11621932E-02
  5.67201485E-01 -7.62988032E-02  0.00000000E+00  0.00000000E+00  9.66166527E-02
  2.83659688E-01 -3.81586149E-02  0.00000000E+00 -1.02649440E-01 -8.11621932E-02
 -2.83469355E-01  3.81268564E-02  0.00000000E+00  1.02620156E-01 -8.11824279E-02
  5.91930967E-02  2.95852003E-02 -2.96170345E-02 -5.92076502E-02 -2.96170345E-02
  2.95852003E-02  1.65915568E-02 -4.24648049E-02  0.00000000E+00  0.00000000E+00
  5.10394459E-01  8.18118863E-03 -2.10811964E-02  0.00000000E+00 -1.55090122E-03
  5.04073776E-01 -7.69347543E-03  1.93640591E-02  0.00000000E+00  1.42464105E-03
  5.03812509E-01 -1.57188020E-02  3.97944339E-02  0.00000000E+00  0.00000000E+00
  5.05678251E-01 -7.69347543E-03  1.93640591E-02  0.00000000E+00 -1.42464105E-03
  5.03812509E-01  8.18118863E-03 -2.10811964E-02  0.00000000E+00  1.55090122E-03
  5.04073776E-01  5.74808584E-01  2.86087670E-01 -2.84551231E-01 -5.69309185E-01
 -2.84551231E-01  2.86087670E-01  9.48964555E-02 -3.59333747E-01  0.00000000E+00
  0.00000000E+00  3.01368996E-01  9.43824018E-02 -3.57855606E-01  0.00000000E+00
 -2.56448371E-01  1.46299817E-01  9.45158575E-02 -3.58119915E-01  0.00000000E+00
 -2.57246540E-01 -1.51138139E-01  9.44560604E-02 -3.57869694E-01  0.00000000E+00
  0.00000000E+00 -3.02749909E-01  9.45158575E-02 -3.58119915E-01  0.00000000E+00
  2.57246540E-01 -1.51138139E-01  9.43824018E-02 -3.57855606E-01  0.00000000E+00
  2.56448371E-01  1.46299817E-01  4.95407380E-01  4.90145110E-01  4.93192152E-01
  4.96987477E-01  4.93192152E-01  4.90145110E-01  7.58272676E-03 -1.09642263E-02
  0.00000000E+00  0.00000000E+00  7.68913735E-01 -4.36018694E-03  7.73467311E-03
  0.00000000E+00  3.93124552E-01 -9.62653300E-02 -4.10937696E-03  7.16425088E-03
  0.00000000E+00  3.90931372E-01  9.07371819E-02  6.72858079E-03 -7.95014975E-03
  0.00000000E+00  0.00000000E+00 -7.67163011E-01 -4.10937696E-03  7.16425088E-03
  0.00000000E+00 -3.90931372E-01  9.07371819E-02 -4.36018694E-03  7.73467311E-03
  0.00000000E+00 -3.93124552E-01 -9.62653300E-02  6.37951260E-01 -3.24366703E-01
 -3.20089740E-01  6.36151915E-01 -3.20089740E-01 -3.24366703E-01  4.98713474E-02
 -1.68680752E-01  0.00000000E+00  0.00000000E+00  5.34183550E-01 -4.96749148E-02
  1.67856726E-01  0.00000000E+00  4.64144666E-01 -2.70712254E-01  4.92508622E-02
 -1.65949307E-01  0.00000000E+00 -4.66559297E-01 -2.70516251E-01 -4.99016124E-02
  1.68890365E-01  0.00000000E+00  0.00000000E+00  5.41431187E-01  4.92508622E-02
 -1.65949307E-01  0.00000000E+00  4.66559297E-01 -2.70516251E-01 -4.96749148E-02
  1.67856726E-01  0.00000000E+00 -4.64144666E-01 -2.70712254E-01  4.91749863E-01
 -4.94705463E-01  4.95238089E-01 -4.98232011E-01  4.95238089E-01 -4.94705463E-01
 -1.49217515E-01  7.54542178E-01  0.00000000E+00  0.00000000E+00 -1.64174241E-01
 -7.44082081E-02  3.76250863E-01  0.00000000E+00  3.84711093E-01  4.96099656E-01
  7.48002072E-02 -3.78134056E-01  0.00000000E+00 -3.83394954E-01  4.95472696E-01
  1.48874125E-01 -7.53054207E-01  0.00000000E+00  0.00000000E+00 -1.67645562E-01
  7.48002072E-02 -3.78134056E-01  0.00000000E+00  3.83394954E-01  4.95472696E-01
 -7.44082081E-02  3.76250863E-01  0.00000000E+00 -3.84711093E-01  4.96099656E-01
 -4.22764501E-01 -2.13407141E-01  2.13683730E-01  4.25277125E-01  2.13683730E-01
 -2.13407141E-01 -2.12269697E-01  1.10080900E+00  0.00000000E+00  0.00000000E+00
  2.04591167E-01  1.06367026E-01 -5.51748883E-01  0.00000000E+00  2.71773852E-01
  2.67020720E-01  1.06160599E-01 -5.50556482E-01  0.00000000E+00  2.71816253E-01
 -2.68242303E-01 -2.12573924E-01  1.10256231E+00  0.00000000E+00  0.00000000E+00
 -2.02645669E-01  1.06160599E-01 -5.50556482E-01  0.00000000E+00 -2.71816253E-01
 -2.68242303E-01  1.06367026E-01 -5.51748883E-01  0.00000000E+00 -2.71773852E-01
  2.67020720E-01 -3.09569563E-01  1.55856386E-01  1.55760721E-01 -3.11998069E-01
  1.55760721E-01  1.55856386E-01 -1.54154006E-01  8.83690786E-01  0.00000000E+00
  0.00000000E+00  3.90226044E-01  1.54249437E-01 -8.84292041E-01  0.00000000E+00
  3.37584665E-01 -1.95092648E-01 -1.54292008E-01  8.84529762E-01  0.00000000E+00
 -3.37667489E-01 -1.94943354E-01  1.54296072E-01 -8.84537451E-01  0.00000000E+00
  0.00000000E+00  3.89931572E-01 -1.54292008E-01  8.84529762E-01  0.00000000E+00
  3.37667489E-01 -1.94943354E-01  1.54249437E-01 -8.84292041E-01  0.00000000E+00
 -3.37584665E-01 -1.95092648E-01 -1.08659351E-01  1.09263278E-01 -1.09351860E-01
  1.09341889E-01 -1.09351860E-01  1.09263278E-01  0.00000000E+00  0.00000000E+00
  0.00000000E+00  0.00000000E+00  0.00000000E+00  0.00000000E+00  0.00000000E+00
  4.60458814E-01  0.00000000E+00  0.00000000E+00  0.00000000E+00  0.00000000E+00
  4.60458814E-01  0.00000000E+00  0.00000000E+00  0.00000000E+00  0.00000000E+00
  0.00000000E+00  0.00000000E+00  0.00000000E+00  0.00000000E+00  0.00000000E+00
 -4.60458814E-01  0.00000000E+00  0.00000000E+00  0.00000000E+00  0.00000000E+00
 -4.60458814E-01  0.00000000E+00  0.00000000E+00  0.00000000E+00  0.00000000E+00
  0.00000000E+00  0.00000000E+00  0.00000000E+00  0.00000000E+00  0.00000000E+00
  0.00000000E+00  0.00000000E+00  0.00000000E+00  0.00000000E+00  0.00000000E+00
  0.00000000E+00  5.69967912E-01  0.00000000E+00  0.00000000E+00  0.00000000E+00
  0.00000000E+00 -5.69967912E-01  0.00000000E+00  0.00000000E+00  0.00000000E+00
  0.00000000E+00  0.00000000E+00  0.00000000E+00  0.00000000E+00  0.00000000E+00
  0.00000000E+00  5.69967912E-01  0.00000000E+00  0.00000000E+00  0.00000000E+00
  0.00000000E+00 -5.69967912E-01  0.00000000E+00  0.00000000E+00  0.00000000E+00
  0.00000000E+00  0.00000000E+00  0.00000000E+00  0.00000000E+00  0.00000000E+00
  0.00000000E+00  0.00000000E+00  3.34287600E-01  0.00000000E+00  0.00000000E+00
  0.00000000E+00  0.00000000E+00  3.34287600E-01  0.00000000E+00  0.00000000E+00
  0.00000000E+00  0.00000000E+00  3.34287600E-01  0.00000000E+00  0.00000000E+00
  0.00000000E+00  0.00000000E+00  3.34287600E-01  0.00000000E+00  0.00000000E+00
  0.00000000E+00  0.00000000E+00  3.34287600E-01  0.00000000E+00  0.00000000E+00
  0.00000000E+00  0.00000000E+00  3.34287600E-01  0.00000000E+00  0.00000000E+00
  0.00000000E+00  0.00000000E+00  0.00000000E+00  0.00000000E+00  0.00000000E+00
  0.00000000E+00  0.00000000E+00  0.00000000E+00  5.31692040E-01  0.00000000E+00
  0.00000000E+00  0.00000000E+00  0.00000000E+00  2.65846020E-01  0.00000000E+00
  0.00000000E+00  0.00000000E+00  0.00000000E+00 -2.65846020E-01  0.00000000E+00
  0.00000000E+00  0.00000000E+00  0.00000000E+00 -5.31692040E-01  0.00000000E+00
  0.00000000E+00  0.00000000E+00  0.00000000E+00 -2.65846020E-01  0.00000000E+00
  0.00000000E+00  0.00000000E+00  0.00000000E+00  2.65846020E-01  0.00000000E+00
  0.00000000E+00  0.00000000E+00  0.00000000E+00  0.00000000E+00  0.00000000E+00
  0.00000000E+00  0.00000000E+00  0.00000000E+00  0.00000000E+00  6.58142254E-01
  0.00000000E+00  0.00000000E+00  0.00000000E+00  0.00000000E+00 -3.29071127E-01
  0.00000000E+00  0.00000000E+00  0.00000000E+00  0.00000000E+00 -3.29071127E-01
  0.00000000E+00  0.00000000E+00  0.00000000E+00  0.00000000E+00  6.58142254E-01
  0.00000000E+00  0.00000000E+00  0.00000000E+00  0.00000000E+00 -3.29071127E-01
  0.00000000E+00  0.00000000E+00  0.00000000E+00  0.00000000E+00 -3.29071127E-01
  0.00000000E+00  0.00000000E+00  0.00000000E+00  0.00000000E+00  0.00000000E+00
  0.00000000E+00  0.00000000E+00  0.00000000E+00  0.00000000E+00  0.00000000E+00
 -5.22194552E-01  0.00000000E+00  0.00000000E+00  0.00000000E+00  0.00000000E+00
  5.22194552E-01  0.00000000E+00  0.00000000E+00  0.00000000E+00  0.00000000E+00
 -5.22194552E-01  0.00000000E+00  0.00000000E+00  0.00000000E+00  0.00000000E+00
  5.22194552E-01  0.00000000E+00  0.00000000E+00  0.00000000E+00  0.00000000E+00
 -5.22194552E-01  0.00000000E+00  0.00000000E+00  0.00000000E+00  0.00000000E+00
  5.22194552E-01  0.00000000E+00  0.00000000E+00  0.00000000E+00  0.00000000E+00
  0.00000000E+00  0.00000000E+00  0.00000000E+00  0.00000000E+00  0.00000000E+00
  0.00000000E+00  0.00000000E+00  1.64918647E-01  0.00000000E+00  7.97196125E-02
  2.40784832E-01  0.00000000E+00  7.16131711E-02  5.38699414E-02  7.97196125E-02
  2.40784832E-01  0.00000000E+00  7.16131711E-02 -5.38699414E-02  0.00000000E+00
  0.00000000E+00  0.00000000E+00  1.64918647E-01  0.00000000E+00 -7.97196125E-02
 -2.40784832E-01  0.00000000E+00  7.16131711E-02  5.38699414E-02 -7.97196125E-02
 -2.40784832E-01  0.00000000E+00  7.16131711E-02 -5.38699414E-02  0.00000000E+00
  1.71876912E-01  1.71876912E-01  0.00000000E+00 -1.71876912E-01 -1.71876912E-01
  0.00000000E+00  0.00000000E+00  0.00000000E+00  2.66183843E-01  0.00000000E+00
  7.84257226E-02  1.73270481E-01  0.00000000E+00  2.46458995E-02 -1.67910630E-01
 -7.84257226E-02 -1.73270481E-01  0.00000000E+00 -2.46458995E-02 -1.67910630E-01
  0.00000000E+00  0.00000000E+00  0.00000000E+00 -2.66183843E-01  0.00000000E+00
  7.84257226E-02  1.73270481E-01  0.00000000E+00 -2.46458995E-02  1.67910630E-01
 -7.84257226E-02 -1.73270481E-01  0.00000000E+00  2.46458995E-02  1.67910630E-01
  0.00000000E+00  1.76725754E-01 -1.76725754E-01  0.00000000E+00  1.76725754E-01
 -1.76725754E-01  0.00000000E+00  0.00000000E+00  0.00000000E+00 -3.32124345E-01
  0.00000000E+00 -3.18930266E-14 -3.66748706E-14  0.00000000E+00  1.66062173E-01
  2.87628120E-01 -3.17503698E-14 -3.61290358E-14  0.00000000E+00  1.66062173E-01
 -2.87628120E-01  0.00000000E+00  0.00000000E+00  0.00000000E+00 -3.32124345E-01
  0.00000000E+00  3.17503698E-14  3.61290358E-14  0.00000000E+00  1.66062173E-01
  2.87628120E-01  3.18930266E-14  3.66748706E-14  0.00000000E+00  1.66062173E-01
 -2.87628120E-01  0.00000000E+00  4.84580835E-14  4.83675881E-14  0.00000000E+00
 -4.83675881E-14 -4.84580835E-14  0.00000000E+00  0.00000000E+00  0.00000000E+00
 -1.32451482E-01  0.00000000E+00 -7.75069982E-02 -9.08773347E-02  0.00000000E+00
  2.55462881E-01 -2.23962462E-01 -7.75069982E-02 -9.08773347E-02  0.00000000E+00
  2.55462881E-01  2.23962462E-01  0.00000000E+00  0.00000000E+00  0.00000000E+00
 -1.32451482E-01  0.00000000E+00  7.75069982E-02  9.08773347E-02  0.00000000E+00
  2.55462881E-01 -2.23962462E-01  7.75069982E-02  9.08773347E-02  0.00000000E+00
  2.55462881E-01  2.23962462E-01  0.00000000E+00  1.90560259E-01  1.90560259E-01
  0.00000000E+00 -1.90560259E-01 -1.90560259E-01  0.00000000E+00  0.00000000E+00
  0.00000000E+00 -3.37654020E-01  0.00000000E+00 -2.48255247E-02 -1.95135954E-03
  0.00000000E+00  3.03378322E-01  1.97890832E-02  2.48255247E-02  1.95135954E-03
  0.00000000E+00 -3.03378322E-01  1.97890832E-02  0.00000000E+00  0.00000000E+00
  0.00000000E+00  3.37654020E-01  0.00000000E+00 -2.48255247E-02 -1.95135954E-03
  0.00000000E+00 -3.03378322E-01 -1.97890832E-02  2.48255247E-02  1.95135954E-03
  0.00000000E+00  3.03378322E-01 -1.97890832E-02  0.00000000E+00  2.43710154E-01
 -2.43710154E-01  0.00000000E+00  2.43710154E-01 -2.43710154E-01  0.00000000E+00
  0.00000000E+00  0.00000000E+00 -1.38735628E-01  0.00000000E+00  4.85310352E-01
  2.36872295E-02  0.00000000E+00  9.84398996E-03  7.44156217E-02 -4.85310352E-01
 -2.36872295E-02  0.00000000E+00 -9.84398996E-03  7.44156217E-02  0.00000000E+00
  0.00000000E+00  0.00000000E+00  1.38735628E-01  0.00000000E+00  4.85310352E-01
  2.36872295E-02  0.00000000E+00 -9.84398996E-03 -7.44156217E-02 -4.85310352E-01
 -2.36872295E-02  0.00000000E+00  9.84398996E-03 -7.44156217E-02  0.00000000E+00
 -6.47781166E-02  6.47781166E-02  0.00000000E+00 -6.47781166E-02  6.47781166E-02
  0.00000000E+00  0.00000000E+00  0.00000000E+00 -1.40427726E-01  0.00000000E+00
  4.91101763E-01 -6.60632653E-02  0.00000000E+00  3.73445884E-02 -1.02636893E-01
  4.91101763E-01 -6.60632653E-02  0.00000000E+00  3.73445884E-02  1.02636893E-01
  0.00000000E+00  0.00000000E+00  0.00000000E+00 -1.40427726E-01  0.00000000E+00
 -4.91101763E-01  6.60632653E-02  0.00000000E+00  3.73445884E-02 -1.02636893E-01
 -4.91101763E-01  6.60632653E-02  0.00000000E+00  3.73445884E-02  1.02636893E-01
  0.00000000E+00 -5.12526997E-02 -5.12526997E-02  0.00000000E+00  5.12526997E-02
  5.12526997E-02  0.00000000E+00  0.00000000E+00  0.00000000E+00  5.03614408E-01
  0.00000000E+00 -1.37958377E-02  3.50889517E-02  0.00000000E+00  5.06534977E-01
 -1.68619126E-03 -1.37958377E-02  3.50889517E-02  0.00000000E+00  5.06534977E-01
  1.68619126E-03  0.00000000E+00  0.00000000E+00  0.00000000E+00  5.03614408E-01
  0.00000000E+00  1.37958377E-02 -3.50889517E-02  0.00000000E+00  5.06534977E-01
 -1.68619126E-03  1.37958377E-02 -3.50889517E-02  0.00000000E+00  5.06534977E-01
  1.68619126E-03  0.00000000E+00 -4.94892140E-01 -4.94892140E-01  0.00000000E+00
  4.94892140E-01  4.94892140E-01  0.00000000E+00  0.00000000E+00  0.00000000E+00
 -1.33140108E-01  0.00000000E+00  6.43633227E-03 -9.28665208E-03  0.00000000E+00
 -5.44066384E-01  3.90985350E-01 -6.43633227E-03  9.28665208E-03  0.00000000E+00
  5.44066384E-01  3.90985350E-01  0.00000000E+00  0.00000000E+00  0.00000000E+00
  1.33140108E-01  0.00000000E+00  6.43633227E-03 -9.28665208E-03  0.00000000E+00
  5.44066384E-01 -3.90985350E-01 -6.43633227E-03  9.28665208E-03  0.00000000E+00
 -5.44066384E-01 -3.90985350E-01  0.00000000E+00  5.53874018E-01 -5.53874018E-01
  0.00000000E+00  5.53874018E-01 -5.53874018E-01  0.00000000E+00  0.00000000E+00
  0.00000000E+00  7.56390079E-01  0.00000000E+00 -6.26903574E-14  2.03590235E-13
  0.00000000E+00  3.78195040E-01  6.55053024E-01  6.15669450E-14 -1.99984428E-13
  0.00000000E+00 -3.78195040E-01  6.55053024E-01  0.00000000E+00  0.00000000E+00
  0.00000000E+00 -7.56390079E-01  0.00000000E+00 -6.15669450E-14  1.99984428E-13
  0.00000000E+00 -3.78195040E-01 -6.55053024E-01  6.26903574E-14 -2.03590235E-13
  0.00000000E+00  3.78195040E-01 -6.55053024E-01  0.00000000E+00 -5.38797558E-13
  5.37329638E-13  0.00000000E+00 -5.37329638E-13  5.38797558E-13  0.00000000E+00
  0.00000000E+00  0.00000000E+00 -7.17159387E-01  0.00000000E+00 -1.29124925E-01
  6.53120399E-01  0.00000000E+00 -5.36459453E-02 -3.83079664E-01 -1.29124925E-01
  6.53120399E-01  0.00000000E+00 -5.36459453E-02  3.83079664E-01  0.00000000E+00
  0.00000000E+00  0.00000000E+00 -7.17159387E-01  0.00000000E+00  1.29124925E-01
 -6.53120399E-01  0.00000000E+00 -5.36459453E-02 -3.83079664E-01  1.29124925E-01
 -6.53120399E-01  0.00000000E+00 -5.36459453E-02  3.83079664E-01  0.00000000E+00
 -3.68595075E-01 -3.68595075E-01  0.00000000E+00  3.68595075E-01  3.68595075E-01
  0.00000000E+00  0.00000000E+00  0.00000000E+00 -4.24455785E-01  0.00000000E+00
 -1.83990855E-01  9.54354572E-01  0.00000000E+00 -4.60505452E-02  2.71646957E-01
  1.83990855E-01 -9.54354572E-01  0.00000000E+00  4.60505452E-02  2.71646957E-01
  0.00000000E+00  0.00000000E+00  0.00000000E+00  4.24455785E-01  0.00000000E+00
 -1.83990855E-01  9.54354572E-01  0.00000000E+00  4.60505452E-02 -2.71646957E-01
  1.83990855E-01 -9.54354572E-01  0.00000000E+00 -4.60505452E-02 -2.71646957E-01
  0.00000000E+00 -2.69869300E-01  2.69869300E-01  0.00000000E+00 -2.69869300E-01
  2.69869300E-01
Total SCF Density                          R   N=         666
  2.07000821E+00 -2.10996043E-01  8.00562011E-01  0.00000000E+00  0.00000000E+00
  7.88776156E-01 -1.40029852E-35  1.67286398E-34  1.00148357E-32  6.03373252E-01
  1.72699684E-03 -2.06315353E-02 -7.32444364E-49 -9.89502755E-33  6.16986633E-01
  2.42334704E-02 -6.31689599E-02 -3.85185989E-34 -9.58771568E-02 -5.59231151E-02
  2.07000876E+00 -6.31762478E-02  9.47286294E-02  1.54074396E-33  2.48947959E-01
  1.52226207E-01 -2.10933602E-01  8.00272552E-01  7.70371978E-34 -1.54074396E-33
  5.06194201E-01  0.00000000E+00 -7.70371978E-34 -6.01853108E-36  9.62964972E-35
  7.88943582E-01  9.63827498E-02 -2.56327352E-01  0.00000000E+00 -3.51594435E-01
 -1.98767891E-01 -1.50670200E-03  1.77409069E-02  1.00148357E-32  6.13671248E-01
  5.50824478E-02 -1.39483306E-01 -7.70371978E-34 -2.09835516E-01 -1.15608269E-01
  8.67798564E-04 -1.02372682E-02 -2.40741243E-35 -5.92478326E-03  6.06822623E-01
 -4.64651066E-03  1.46499113E-02  9.62964972E-35  1.28544353E-02  1.91099292E-02
  2.42314107E-02 -6.31720973E-02  3.00926554E-36  5.00434679E-04 -1.10997271E-01
  2.07000922E+00  1.46548062E-02 -3.77992460E-02 -3.85185989E-34 -4.11077961E-02
 -7.47296251E-02 -6.31718738E-02  9.47532922E-02 -4.81482486E-35 -7.38667978E-03
  2.91711946E-01 -2.10935061E-01  8.00275882E-01 -4.81482486E-35  3.85185989E-34
 -5.91871839E-02 -3.85185989E-34  9.62964972E-35  3.00926554E-36 -4.81482486E-35
  5.06190065E-01  3.08148791E-33  4.81482486E-35 -1.20370622E-35  9.62964972E-35
  7.88876187E-01 -1.01275321E-02  4.41764354E-02  0.00000000E+00  3.55728258E-02
  1.59979096E-02  4.99528598E-04 -7.38554388E-03  3.08148791E-33  2.29109911E-03
  5.52083985E-03 -1.50713127E-03  1.77449800E-02  6.93334780E-33  6.13672480E-01
 -2.06959221E-02  7.29592535E-02  3.85185989E-34  5.42682558E-02  7.61240825E-02
  1.11000514E-01 -2.91722922E-01 -4.81482486E-35 -5.51392850E-03 -4.69552148E-01
 -8.71469686E-04  1.02495612E-02  2.40741243E-35  5.91309184E-03  6.06834138E-01
 -4.36472970E-03  1.51996182E-02  0.00000000E+00 -9.59883305E-35  1.18383003E-02
 -4.64516986E-03  1.46516136E-02 -4.81482486E-35 -1.01252415E-02  2.06888917E-02
  2.42312257E-02 -6.31719554E-02  7.70371978E-34  9.63779322E-02 -5.50676398E-02
  2.07000868E+00  1.51998416E-02 -5.18438506E-02  0.00000000E+00  3.47656776E-34
 -4.28767258E-02  1.46516282E-02 -3.78139792E-02  1.92592994E-34  4.41683890E-02
 -7.29664951E-02 -6.31712990E-02  9.47535117E-02 -1.54074396E-33 -2.56327017E-01
  1.39465123E-01 -2.10932308E-01  8.00264779E-01  0.00000000E+00  0.00000000E+00
 -3.41890927E-01 -1.54074396E-33  6.45879236E-50  4.81482486E-35 -3.85185989E-34
 -5.92335022E-02 -3.85185989E-34 -3.85185989E-34 -3.85185989E-34  1.54074396E-33
  5.06194205E-01  0.00000000E+00  1.54074396E-33  0.00000000E+00  0.00000000E+00
  7.88919812E-01  9.59892378E-35 -3.47645180E-34 -1.54074396E-33 -5.32062603E-02
  1.34278095E-34  1.28541950E-02 -4.11059089E-02 -3.85185989E-34  3.55759515E-02
 -5.42655686E-02 -9.58780504E-02  2.48943478E-01  3.08148791E-33 -3.51596688E-01
  2.09838508E-01  1.41186852E-35 -1.66172881E-34  6.93334780E-33  6.03413575E-01
 -1.18384122E-02  4.28752957E-02  6.45879236E-50  1.34278095E-34  3.66456596E-02
 -1.91129724E-02  7.47334921E-02 -9.62964972E-35 -1.60052873E-02  7.61462682E-02
  5.59319913E-02 -1.52255512E-01  1.54074396E-33  1.98796114E-01 -1.15672585E-01
 -1.74126620E-03  2.04942045E-02 -7.32493313E-49 -9.89609831E-33  6.17078368E-01
 -4.64651066E-03  1.46499113E-02 -9.62964972E-35 -1.28544353E-02  1.91099292E-02
 -4.36423936E-03  1.51982456E-02 -4.81482486E-35 -1.02510768E-02  5.92182316E-03
 -4.64549400E-03  1.46527798E-02 -1.92592994E-34 -2.29798367E-02  1.57434031E-03
  2.42312257E-02 -6.31712990E-02  3.85185989E-34  9.58780504E-02  5.59319913E-02
  2.07000922E+00  1.46548062E-02 -3.77992460E-02  3.85185989E-34  4.11077961E-02
 -7.47296251E-02  1.51985545E-02 -5.18408265E-02  1.92592994E-34  3.71281736E-02
 -2.14488389E-02  1.46527798E-02 -3.78175868E-02  3.85185989E-34  8.52759281E-02
  1.77254715E-03 -6.31719554E-02  9.47535117E-02 -1.54074396E-33 -2.48943478E-01
 -1.52255512E-01 -2.10935061E-01  8.00275882E-01  4.81482486E-35 -3.85185989E-34
 -5.91871839E-02 -3.85185989E-34 -9.62964972E-35  4.81482486E-35 -1.92592994E-34
 -3.41899212E-01 -3.08148791E-33 -1.92592994E-34  1.92592994E-34 -3.85185989E-34
 -5.91943654E-02  0.00000000E+00 -9.62964972E-35 -7.70371978E-34  1.54074396E-33
  5.06194205E-01  0.00000000E+00 -1.54074396E-33  1.20370622E-35 -9.62964972E-35
  7.88876187E-01  1.01275321E-02 -4.41764354E-02  0.00000000E+00  3.55728258E-02
 -1.59979096E-02  1.02522338E-02 -3.71313294E-02 -3.08148791E-33  1.41792469E-02
 -3.89088496E-02  2.29798367E-02 -8.52759281E-02  0.00000000E+00  9.64311463E-02
 -1.91300359E-02 -9.63779322E-02  2.56327017E-01  3.08148791E-33 -3.51596688E-01
 -1.98796114E-01  1.50713127E-03 -1.77449800E-02  6.93334780E-33  6.13672480E-01
 -2.06959221E-02  7.29592535E-02 -3.85185989E-34 -5.42682558E-02  7.61240825E-02
 -5.91699552E-03  2.14294719E-02 -1.92592994E-34 -3.88972290E-02 -3.07339270E-02
  1.57434031E-03  1.77254715E-03  9.62964972E-35  1.91300359E-02  1.52812533E-02
 -5.50676398E-02  1.39465123E-01 -1.54074396E-33 -2.09838508E-01 -1.15672585E-01
 -8.71469686E-04  1.02495612E-02 -2.40741243E-35 -5.91309184E-03  6.06834138E-01
  2.42334704E-02 -6.31689599E-02  3.85185989E-34  9.58771568E-02 -5.59231151E-02
 -4.64666041E-03  1.46578219E-02 -1.92592994E-34 -2.29850623E-02 -1.58082704E-03
 -4.36423936E-03  1.51985545E-02 -4.81482486E-35 -1.02522338E-02 -5.91699552E-03
 -4.64516986E-03  1.46516282E-02 -4.81482486E-35 -1.28541950E-02 -1.91129724E-02
  2.42314107E-02 -6.31718738E-02 -3.00926554E-36 -4.99528598E-04  1.11000514E-01
  2.07000876E+00 -6.31762478E-02  9.47286294E-02 -1.54074396E-33 -2.48947959E-01
  1.52226207E-01  1.46578219E-02 -3.78363639E-02  3.85185989E-34  8.52976040E-02
 -1.74593057E-03  1.51982456E-02 -5.18408265E-02  1.92592994E-34  3.71313294E-02
  2.14294719E-02  1.46516136E-02 -3.78139792E-02  3.85185989E-34  4.11059089E-02
  7.47334921E-02 -6.31720973E-02  9.47532922E-02  4.81482486E-35  7.38554388E-03
 -2.91722922E-01 -2.10933602E-01  8.00272552E-01 -7.70371978E-34  1.54074396E-33
  5.06194201E-01  0.00000000E+00  7.70371978E-34  1.92592994E-34 -3.85185989E-34
 -5.91644184E-02  0.00000000E+00  1.92592994E-34  4.81482486E-35 -1.92592994E-34
 -3.41899212E-01 -3.08148791E-33  1.92592994E-34  4.81482486E-35 -1.92592994E-34
 -5.92335022E-02 -3.85185989E-34  9.62964972E-35 -3.00926554E-36  4.81482486E-35
  5.06190065E-01  3.08148791E-33  4.81482486E-35  6.01853108E-36 -9.62964972E-35
  7.88943582E-01 -9.63827498E-02  2.56327352E-01  0.00000000E+00 -3.51594435E-01
  1.98767891E-01  2.29850623E-02 -8.52976040E-02  0.00000000E+00  9.64561988E-02
  1.91510527E-02  1.02510768E-02 -3.71281736E-02 -3.08148791E-33  1.41792469E-02
  3.88972290E-02  1.01252415E-02 -4.41683890E-02 -3.85185989E-34  3.55759515E-02
  1.60052873E-02 -5.00434679E-04  7.38667978E-03  3.08148791E-33  2.29109911E-03
  5.51392850E-03  1.50670200E-03 -1.77409069E-02  1.00148357E-32  6.13671248E-01
  5.50824478E-02 -1.39483306E-01  7.70371978E-34  2.09835516E-01 -1.15608269E-01
 -1.58082704E-03 -1.74593057E-03 -1.92592994E-34 -1.91510527E-02  1.52695678E-02
  5.92182316E-03 -2.14488389E-02  1.92592994E-34  3.89088496E-02 -3.07339270E-02
  2.06888917E-02 -7.29664951E-02  3.85185989E-34  5.42655686E-02  7.61462682E-02
 -1.10997271E-01  2.91711946E-01 -4.81482486E-35 -5.52083985E-03 -4.69552148E-01
  8.67798564E-04 -1.02372682E-02  2.40741243E-35  5.92478326E-03  6.06822623E-01
 -1.08641797E-01  2.89021244E-01  0.00000000E+00  4.50282664E-33 -5.55336403E-01
  2.71405153E-02 -1.00165021E-01  3.85185989E-34  6.61680407E-02  1.07964619E-01
 -1.71764803E-02  6.58388990E-02 -2.40741243E-35 -3.78196255E-03 -8.99611846E-02
 -1.98698910E-03  7.15258815E-03  0.00000000E+00  3.53311794E-35 -4.35741627E-03
 -1.71764803E-02  6.58388990E-02  2.40741243E-35  3.78196255E-03 -8.99611846E-02
  2.71405153E-02 -1.00165021E-01 -3.85185989E-34 -6.61680407E-02  1.07964619E-01
  6.03277170E-01  2.71317419E-02 -1.00171745E-01 -7.70371978E-34 -1.26544504E-01
 -3.28854976E-03 -1.08703725E-01  2.88866701E-01  3.08148791E-33  4.80832982E-01
 -2.77598105E-01  2.71333899E-02 -1.00142078E-01 -3.85185989E-34 -6.04275188E-02
  1.11237323E-01 -1.71697122E-02  6.58061935E-02  3.85185989E-34  7.59794797E-02
 -4.82348898E-02 -1.98624790E-03  7.14620413E-03  2.40741243E-35  3.77525767E-03
 -2.18070593E-03 -1.71697210E-02  6.58089920E-02  3.85185989E-34  7.97644730E-02
 -4.16773803E-02 -7.04918982E-02  6.02984754E-01 -1.71729665E-02  6.58052468E-02
  3.85185989E-34  7.59783715E-02  4.82251980E-02  2.71346557E-02 -1.00145368E-01
 -3.85185989E-34 -6.04249175E-02 -1.11237815E-01 -1.08704145E-01  2.88869298E-01
  3.08148791E-33  4.80830074E-01  2.77603074E-01  2.71341176E-02 -1.00143142E-01
 -7.70371978E-34 -1.26550782E-01  3.28956974E-03 -1.71704508E-02  6.58091886E-02
  7.70371978E-34  7.97638397E-02  4.16786671E-02 -1.98471438E-03  7.14064373E-03
  2.40741243E-35  3.76749396E-03  2.18538550E-03 -3.95759279E-02 -7.04776055E-02
  6.02983084E-01 -1.98415914E-03  7.14480419E-03  0.00000000E+00 -3.53867989E-35
  4.36427586E-03 -1.71701037E-02  6.58080755E-02 -2.40741243E-35 -3.78539714E-03
  8.99172285E-02  2.71345163E-02 -1.00145624E-01  3.85185989E-34  6.61256162E-02
 -1.07950974E-01 -1.08704286E-01  2.88869747E-01  0.00000000E+00 -4.50183035E-33
  5.55213530E-01  2.71345163E-02 -1.00145624E-01 -3.85185989E-34 -6.61256162E-02
 -1.07950974E-01 -1.71701037E-02  6.58080755E-02  2.40741243E-35  3.78539714E-03
  8.99172285E-02  1.59931335E-02 -3.95533995E-02 -7.04743611E-02  6.02988745E-01
 -1.71729665E-02  6.58052468E-02 -3.85185989E-34 -7.59783715E-02  4.82251980E-02
 -1.98471438E-03  7.14064373E-03 -2.40741243E-35 -3.76749396E-03  2.18538550E-03
 -1.71704508E-02  6.58091886E-02 -7.70371978E-34 -7.97638397E-02  4.16786671E-02
  2.71341176E-02 -1.00143142E-01  7.70371978E-34  1.26550782E-01  3.28956974E-03
 -1.08704145E-01  2.88869298E-01 -3.08148791E-33 -4.80830074E-01  2.77603074E-01
  2.71346557E-02 -1.00145368E-01  3.85185989E-34  6.04249175E-02 -1.11237815E-01
 -3.95759279E-02  1.59826388E-02 -3.95567062E-02 -7.04743611E-02  6.02983084E-01
  2.71317419E-02 -1.00171745E-01  7.70371978E-34  1.26544504E-01 -3.28854976E-03
 -1.71697210E-02  6.58089920E-02 -3.85185989E-34 -7.97644730E-02 -4.16773803E-02
 -1.98624790E-03  7.14620413E-03 -2.40741243E-35 -3.77525767E-03 -2.18070593E-03
 -1.71697122E-02  6.58061935E-02 -3.85185989E-34 -7.59794797E-02 -4.82348898E-02
  2.71333899E-02 -1.00142078E-01  3.85185989E-34  6.04275188E-02  1.11237323E-01
 -1.08703725E-01  2.88866701E-01 -3.08148791E-33 -4.80832982E-01 -2.77598105E-01
 -7.04918982E-02 -3.95541542E-02  1.59826388E-02 -3.95533995E-02 -7.04776055E-02
  6.02984754E-01
Mulliken Charges                           R   N=          12
 -6.01747095E-02 -6.04501875E-02 -6.03942808E-02 -6.04143341E-02 -6.03942808E-02
 -6.04501875E-02  6.02619769E-02  6.04036279E-02  6.04048323E-02  6.03990830E-02
  6.04048323E-02  6.04036279E-02
ONIOM Charges                              I   N=          16
           0           0           0           0           0           0
           0           0           0           0           0           0
           0           0           0           0
ONIOM Multiplicities                       I   N=          16
           1           0           0           0           0           0
           0           0           0           0           0           0
           0           0           0           0
Atom Layers                                I   N=          12
           1           1           1           1           1           1
           1           1           1           1           1           1
Atom Modifiers                             I   N=          12
           0           0           0           0           0           0
           0           0           0           0           0           0
Int Atom Modified Types                    I   N=          12
           0           0           0           0           0           0
           0           0           0           0           0           0
Atom Modified Types                        C   N=          12
                                                            
                                                            
                        
Link Atoms                                 I   N=          12
           0           0           0           0           0           0
           0           0           0           0           0           0
Atom Modified MM Charges                   R   N=          12
  0.00000000E+00  0.00000000E+00  0.00000000E+00  0.00000000E+00  0.00000000E+00
  0.00000000E+00  0.00000000E+00  0.00000000E+00  0.00000000E+00  0.00000000E+00
  0.00000000E+00  0.00000000E+00
Link Distances                             R   N=          48
  0.00000000E+00  0.00000000E+00  0.00000000E+00  0.00000000E+00  0.00000000E+00
  0.00000000E+00  0.00000000E+00  0.00000000E+00  0.00000000E+00  0.00000000E+00
  0.00000000E+00  0.00000000E+00  0.00000000E+00  0.00000000E+00  0.00000000E+00
  0.00000000E+00  0.00000000E+00  0.00000000E+00  0.00000000E+00  0.00000000E+00
  0.00000000E+00  0.00000000E+00  0.00000000E+00  0.00000000E+00  0.00000000E+00
  0.00000000E+00  0.00000000E+00  0.00000000E+00  0.00000000E+00  0.00000000E+00
  0.00000000E+00  0.00000000E+00  0.00000000E+00  0.00000000E+00  0.00000000E+00
  0.00000000E+00  0.00000000E+00  0.00000000E+00  0.00000000E+00  0.00000000E+00
  0.00000000E+00  0.00000000E+00  0.00000000E+00  0.00000000E+00  0.00000000E+00
  0.00000000E+00  0.00000000E+00  0.00000000E+00
Cartesian Gradient                         R   N=          36
 -0.00000000E+00  0.00000000E+00  0.00000000E+00 -0.00000000E+00  0.00000000E+00
  0.00000000E+00 -0.00000000E+00  0.00000000E+00  0.00000000E+00 -0.00000000E+00
  0.00000000E+00  0.00000000E+00 -0.00000000E+00  0.00000000E+00  0.00000000E+00
 -0.00000000E+00  0.00000000E+00  0.00000000E+00 -0.00000000E+00  0.00000000E+00
  0.00000000E+00 -0.00000000E+00  0.00000000E+00  0.00000000E+00 -0.00000000E+00
  0.00000000E+00  0.00000000E+00 -0.00000000E+00  0.00000000E+00  0.00000000E+00
 -0.00000000E+00  0.00000000E+00  0.00000000E+00 -0.00000000E+00  0.00000000E+00
  0.00000000E+00
Dipole Moment                              R   N=           3
 -1.75958489E-17  9.36020074E-16 -1.02002393E-04
Quadrupole Moment                          R   N=           6
 -1.96900614E+00  9.83865552E-01  9.85140585E-01  1.61918148E-16 -2.80420425E-20
 -3.00043052E-16
QEq coupling tensors                       R   N=          72
  1.48218282E-01 -3.10557474E-17 -7.00410033E-02  1.73082238E-17  1.03569553E-16
 -7.81772782E-02  1.48398197E-01 -1.97222843E-18 -7.62386601E-02  1.19751762E-19
  3.51091723E-03 -7.21595365E-02  1.48299629E-01 -1.97220523E-18 -7.61832162E-02
 -1.19757099E-19 -3.54007877E-03 -7.21164125E-02  1.48361777E-01 -3.10551616E-17
 -7.01024993E-02 -1.73081249E-17 -5.52250405E-17 -7.82592775E-02  1.48299629E-01
  1.21449042E-16 -7.61832162E-02  7.01948839E-18  3.54007877E-03 -7.21164125E-02
  1.48398197E-01  1.21445461E-16 -7.62386601E-02 -7.01969952E-18 -3.51091723E-03
 -7.21595365E-02  1.51243892E-01 -1.28563444E-18  1.41859002E-01  3.07574329E-18
 -1.83436789E-17 -2.93102893E-01  1.52232988E-01 -4.29382418E-19 -1.85583466E-01
  1.11345731E-19  1.89600785E-01  3.33504780E-02  1.52232129E-01 -4.29382029E-19
 -1.85583464E-01 -1.11345393E-19 -1.89602046E-01  3.33513346E-02  1.52233198E-01
 -1.28944023E-18  1.42815480E-01 -3.08203840E-18 -4.98570032E-17 -2.95048679E-01
  1.52232129E-01 -6.76064153E-17 -1.85583464E-01  4.15535812E-17  1.89602046E-01
  3.33513346E-02  1.52232988E-01 -6.76064488E-17 -1.85583466E-01 -4.15544622E-17
 -1.89600785E-01  3.33504780E-02
ClPar MaxAn                                I              200
ClPar NIntPar                              I               12
ClPar NRealPar                             I               16
ClPar NBits                                I               30
ClPar LenBitVec                            I                1
ClPar Read BitMap                          I   N=         200
           0           0           0           0           0           0
           0           0           0           0           0           0
           0           0           0           0           0           0
           0           0           0           0           0           0
           0           0           0           0           0           0
           0           0           0           0           0           0
           0           0           0           0           0           0
           0           0           0           0           0           0
           0           0           0           0           0           0
           0           0           0           0           0           0
           0           0           0           0           0           0
           0           0           0           0           0           0
           0           0           0           0           0           0
           0           0           0           0           0           0
           0           0           0           0           0           0
           0           0           0           0           0           0
           0           0           0           0           0           0
           0           0           0           0           0           0
           0           0           0           0           0           0
           0           0           0           0           0           0
           0           0           0           0           0           0
           0           0           0           0           0           0
           0           0           0           0           0           0
           0           0           0           0           0           0
           0           0           0           0           0           0
           0           0           0           0           0           0
           0           0           0           0           0           0
           0           0           0           0           0           0
           0           0           0           0           0           0
           0           0           0           0           0           0
           0           0           0           0           0           0
           0           0           0           0           0           0
           0           0           0           0           0           0
           0           0
ClPar Default BitMap                       I   N=         200
      516096      516096      516096      516096      516096      516096
      516096      516096      516096      516096      516096      516096
      516096      516096      516096      516096      516096      516096
      516096      516096      516096      516096      516096      516096
      516096      516096      516096      516096      516096      516096
      516096      516096      516096      516096      516096      516096
      516096      516096      516096      516096      516096      516096
      516096      516096      516096      516096      516096      516096
      516096      516096      516096      516096      516096      516096
      516096      516096      516096      516096      516096      516096
      516096      516096      516096      516096      516096      516096
      516096      516096      516096      516096      516096      516096
      516096      516096      516096      516096      516096      516096
      516096      516096      516096      516096      516096      516096
      516096      516096      122880      122880      122880      122880
      122880      122880      122880      122880      122880      122880
      122880      122880      122880      122880      122880      122880
      122880      122880      122880      122880      122880      122880
      122880      122880      122880      122880      122880      122880
      122880      122880      122880      122880      122880      122880
      122880      122880      122880      122880      122880      122880
      122880      122880      122880      122880      122880      122880
      122880      122880      122880      122880      122880      122880
      122880      122880      122880      122880      122880      122880
      122880      122880      122880      122880      122880      122880
      122880      122880      122880      122880      122880      122880
      122880      122880      122880      122880      122880      122880
      122880      122880      122880      122880      122880      122880
      122880      122880      122880      122880      122880      122880
      122880      122880      122880      122880      122880      122880
      122880      122880      122880      122880      122880      122880
      122880      122880      122880      122880      122880      122880
      122880      122880      122880      122880      122880      122880
      122880      122880
ClPar Int Params                           I   N=        2400
           0           0           0           0           0           0
           0           0           0           0           0           0
           0           0           0           0           0           0
           0           0           0           0           0           0
           0           0           0           0           0           0
           0           0           0           0           0           0
           0           0           0           0           0           0
           0           0           0           0           0           0
           0           0           0           0           0           0
           0           0           0           0           0           0
           0           0           0           0           0           0
           0           0           0           0           0           0
           0           0           0           0           0           0
           0           0           0           0           0           0
           0           0           0           0           0           0
           0           0           0           0           0           0
           0           0           0           0           0           0
           0           0           0           0           0           0
           0           0           0           0           0           0
           0           0           0           0           0           0
           0           0           0           0           0           0
           0           0           0           0           0           0
           0           0           0           0           0           0
           0           0           0           0           0           0
           0           0           0           0           0           0
           0           0           0           0           0           0
           0           0           0           0           0           0
           0           0           0           0           0           0
           0           0           0           0           0           0
           0           0           0           0           0           0
           0           0           0           0           0           0
           0           0           0           0           0           0
           0           0           0           0           0           0
           0           0           0           0           0           0
           0           0           0           0           0           0
           0           0           0           0           0           0
           0           0           0           0           0           0
           0           0           0           0           0           0
           0           0           0           0           0           0
           0           0           0           0           0           0
           0           0           0           0           0           0
           0           0           0           0           0           0
           0           0           0           0           0           0
           0           0           0           0           0           0
           0           0           0           0           0           0
           0           0           0           0           0           0
           0           0           0           0           0           0
           0           0           0           0           0           0
           0           0           0           0           0           0
           0           0           0           0           0           0
           0           0           0           0           0           0
           0           0           0           0           0           0
           0           0           0           0           0           0
           0           0           0           0           0           0
           0           0           0           0           0           0
           0           0           0           0           0           0
           0           0           0           0           0           0
           0           0           0           0           0           0
           0           0           0           0           0           0
           0           0           0           0           0           0
           0           0           0           0           0           0
           0           0           0           0           0           0
           0           0           0           0           0           0
           0           0           0           0           0           0
           0           0           0           0           0           0
           0           0           0           0           0           0
           0           0           0           0           0           0
           0           0           0           0           0           0
           0           0           0           0           0           0
           0           0           0           0           0           0
           0           0           0           0           0           0
           0           0           0           0           0           0
           0           0           0           0           0           0
           0           0           0           0           0           0
           0           0           0           0           0           0
           0           0           0           0           0           0
           0           0           0           0           0           0
           0           0           0           0           0           0
           0           0           0           0           0           0
           0           0           0           0           0           0
           0           0           0           0           0           0
           0           0           0           0           0           0
           0           0           0           0           0           0
           0           0           0           0           0           0
           0           0           0           0           0           0
           0           0           0           0           0           0
           0           0           0           0           0           0
           0           0           0           0           0           0
           0           0           0           0           0           0
           0           0           0           0           0           0
           0           0           0           0           0           0
           0           0           0           0           0           0
           0           0           0           0           0           0
           0           0           0           0           0           0
           0           0           0           0           0           0
           0           0           0           0           0           0
           0           0           0           0           0           0
           0           0           0           0           0           0
           0           0           0           0           0           0
           0           0           0           0           0           0
           0           0           0           0           0           0
           0           0           0           0           0           0
           0           0           0           0           0           0
           0           0           0           0           0           0
           0           0           0           0           0           0
           0           0           0           0           0           0
           0           0           0           0           0           0
           0           0           0           0           0           0
           0           0           0           0           0           0
           0           0           0           0           0           0
           0           0           0           0           0           0
           0           0           0           0           0           0
           0           0           0           0           0           0
           0           0           0           0           0           0
           0           0           0           0           0           0
           0           0           0           0           0           0
           0           0           0           0           0           0
           0           0           0           0           0           0
           0           0           0           0           0           0
           0           0           0           0           0           0
           0           0           0           0           0           0
           0           0           0           0           0           0
           0           0           0           0           0           0
           0           0           0           0           0           0
           0           0           0           0           0           0
           0           0           0           0           0           0
           0           0           0           0           0           0
           0           0           0           0           0           0
           0           0           0           0           0           0
           0           0           0           0           0           0
           0           0           0           0           0           0
           0           0           0           0           0           0
           0           0           0           0           0           0
           0           0           0           0           0           0
           0           0           0           0           0           0
           0           0           0           0           0           0
           0           0           0           0           0           0
           0           0           0           0           0           0
           0           0           0           0           0           0
           0           0           0           0           0           0
           0           0           0           0           0           0
           0           0           0           0           0           0
           0           0           0           0           0           0
           0           0           0           0           0           0
           0           0           0           0           0           0
           0           0           0           0           0           0
           0           0           0           0           0           0
           0           0           0           0           0           0
           0           0           0           0           0           0
           0           0           0           0           0           0
           0           0           0           0           0           0
           0           0           0           0           0           0
           0           0           0           0           0           0
           0           0           0           0           0           0
           0           0           0           0           0           0
           0           0           0           0           0           0
           0           0           0           0           0           0
           0           0           0           0           0           0
           0           0           0           0           0           0
           0           0           0           0           0           0
           0           0           0           0           0           0
           0           0           0           0           0           0
           0           0           0           0           0           0
           0           0           0           0           0           0
           0           0           0           0           0           0
           0           0           0           0           0           0
           0           0           0           0           0           0
           0           0           0           0           0           0
           0           0           0           0           0           0
           0           0           0           0           0           0
           0           0           0           0           0           0
           0           0           0           0           0           0
           0           0           0           0           0           0
           0           0           0           0           0           0
           0           0           0           0           0           0
           0           0           0           0           0           0
           0           0           0           0           0           0
           0           0           0           0           0           0
           0           0           0           0           0           0
           0           0           0           0           0           0
           0           0           0           0           0           0
           0           0           0           0           0           0
           0           0           0           0           0           0
           0           0           0           0           0           0
           0           0           0           0           0           0
           0           0           0           0           0           0
           0           0           0           0           0           0
           0           0           0           0           0           0
           0           0           0           0           0           0
           0           0           0           0           0           0
           0           0           0           0           0           0
           0           0           0           0           0           0
           0           0           0           0           0           0
           0           0           0           0           0           0
           0           0           0           0           0           0
           0           0           0           0           0           0
           0           0           0           0           0           0
           0           0           0           0           0           0
           0           0           0           0           0           0
           0           0           0           0           0           0
           0           0           0           0           0           0
           0           0           0           0           0           0
           0           0           0           0           0           0
           0           0           0           0           0           0
           0           0           0           0           0           0
           0           0           0           0           0           0
           0           0           0           0           0           0
           0           0           0           0           0           0
           0           0           0           0           0           0
           0           0           0           0           0           0
           0           0           0           0           0           0
           0           0           0           0           0           0
           0           0           0           0           0           0
           0           0           0           0           0           0
           0           0           0           0           0           0
           0           0           0           0           0           0
           0           0           0           0           0           0
           0           0           0           0           0           0
           0           0           0           0           0           0
           0           0           0           0           0           0
           0           0           0           0           0           0
           0           0           0           0           0           0
           0           0           0           0           0           0
           0           0           0           0           0           0
           0           0           0           0           0           0
           0           0           0           0           0           0
           0           0           0           0           0           0
           0           0           0           0           0           0
           0           0           0           0           0           0
           0           0           0           0           0           0
           0           0           0           0           0           0
           0           0           0           0           0           0
           0           0           0           0           0           0
           0           0           0           0           0           0
           0           0           0           0           0           0
           0           0           0           0           0           0
           0           0           0           0           0           0
           0           0           0           0           0           0
           0           0           0           0           0           0
           0           0           0           0           0           0
           0           0           0           0           0           0
           0           0           0           0           0           0
           0           0           0           0           0           0
           0           0           0           0           0           0
           0           0           0           0           0           0
           0           0           0           0           0           0
           0           0           0           0           0           0
           0           0           0           0           0           0
           0           0           0           0           0           0
           0           0           0           0           0           0
           0           0           0           0           0           0
           0           0           0           0           0           0
           0           0           0           0           0           0
           0           0           0           0           0           0
           0           0           0           0           0           0
           0           0           0           0           0           0
           0           0           0           0           0           0
           0           0           0           0           0           0
           0           0           0           0           0           0
           0           0           0           0           0           0
           0           0           0           0           0           0
           0           0           0           0           0           0
           0           0           0           0           0           0
           0           0           0           0           0           0
           0           0           0           0           0           0
           0           0           0           0           0           0
           0           0           0           0           0           0
           0           0           0           0           0           0
           0           0           0           0           0           0
           0           0           0           0           0           0
           0           0           0           0           0           0
           0           0           0           0           0           0
           0           0           0           0           0           0
           0           0           0           0           0           0
           0           0           0           0           0           0
           0           0           0           0           0           0
           0           0           0           0           0           0
           0           0           0           0           0           0
           0           0           0           0           0           0
           0           0           0           0           0           0
           0           0           0           0           0           0
           0           0           0           0           0           0
           0           0           0           0           0           0
           0           0           0           0           0           0
           0           0           0           0           0           0
           0           0           0           0           0           0
           0           0           0           0           0           0
           0           0           0           0           0           0
           0           0           0           0           0           0
           0           0           0           0           0           0
           0           0           0           0           0           0
           0           0           0           0           0           0
           0           0           0           0           0           0
           0           0           0           0           0           0
           0           0           0           0           0           0
           0           0           0           0           0           0
           0           0           0           0           0           0
           0           0           0           0           0           0
           0           0           0           0           0           0
           0           0           0           0           0           0
           0           0           0           0           0           0
           0           0           0           0           0           0
           0           0           0           0           0           0
           0           0           0           0           0           0
           0           0           0           0           0           0
           0           0           0           0           0           0
           0           0           0           0           0           0
           0           0           0           0           0           0
           0           0           0           0           0           0
           0           0           0           0           0           0
           0           0           0           0           0           0
           0           0           0           0           0           0
           0           0           0           0           0           0
           0           0           0           0           0           0
           0           0           0           0           0           0
           0           0           0           0           0           0
           0           0           0           0           0           0
           0           0           0           0           0           0
           0           0           0           0           0           0
           0           0           0           0           0           0
           0           0           0           0           0           0
           0           0           0           0           0           0
           0           0           0           0           0           0
           0           0           0           0           0           0
           0           0           0           0           0           0
           0           0           0           0           0           0
           0           0           0           0           0           0
           0           0           0           0           0           0
           0           0           0           0           0           0
           0           0           0           0           0           0
           0           0           0           0           0           0
           0           0           0           0           0           0
           0           0           0           0           0           0
           0           0           0           0           0           0
           0           0           0           0           0           0
           0           0           0           0           0           0
           0           0           0           0           0           0
           0           0           0           0           0           0
           0           0           0           0           0           0
           0           0           0           0           0           0
           0           0           0           0           0           0
           0           0           0           0           0           0
           0           0           0           0           0           0
           0           0           0           0           0           0
           0           0           0           0           0           0
           0           0           0           0           0           0
           0           0           0           0           0           0
           0           0           0           0           0           0
           0           0           0           0           0           0
           0           0           0           0           0           0
           0           0           0           0           0           0
           0           0           0           0           0           0
           0           0           0           0           0           0
           0           0           0           0           0           0
           0           0           0           0           0           0
           0           0           0           0           0           0
           0           0           0           0           0           0
           0           0           0           0           0           0
           0           0           0           0           0           0
           0           0           0           0           0           0
           0           0           0           0           0           0
           0           0           0           0           0           0
           0           0           0           0           0           0
           0           0           0           0           0           0
           0           0           0           0           0           0
           0           0           0           0           0           0
           0           0           0           0           0           0
           0           0           0           0           0           0
           0           0           0           0           0           0
           0           0           0           0           0           0
           0           0           0           0           0           0
           0           0           0           0           0           0
           0           0           0           0           0           0
           0           0           0           0           0           0
           0           0           0           0           0           0
           0           0           0           0           0           0
           0           0           0           0           0           0
           0           0           0           0           0           0
           0           0           0           0           0           0
           0           0           0           0           0           0
           0           0           0           0           0           0
           0           0           0           0           0           0
           0           0           0           0           0           0
           0           0           0           0           0           0
           0           0           0           0           0           0
           0           0           0           0           0           0
           0           0           0           0           0           0
           0           0           0           0           0           0
           0           0           0           0           0           0
           0           0           0           0           0           0
           0           0           0           0           0           0
           0           0           0           0           0           0
           0           0           0           0           0           0
           0           0           0           0           0           0
           0           0           0           0           0           0
           0           0           0           0           0           0
           0           0           0           0           0           0
           0           0           0           0           0           0
           0           0           0           0           0           0
           0           0           0           0           0           0
ClPar Real Params                          R   N=        3200
  0.00000000E+00  0.00000000E+00  0.00000000E+00  0.00000000E+00  0.00000000E+00
  0.00000000E+00  0.00000000E+00  0.00000000E+00  0.00000000E+00  0.00000000E+00
  0.00000000E+00  0.00000000E+00  0.00000000E+00  0.00000000E+00  0.00000000E+00
  0.00000000E+00  0.00000000E+00  0.00000000E+00  0.00000000E+00  0.00000000E+00
  0.00000000E+00  0.00000000E+00  0.00000000E+00  0.00000000E+00  0.00000000E+00
  0.00000000E+00  0.00000000E+00  0.00000000E+00  0.00000000E+00  0.00000000E+00
  0.00000000E+00  0.00000000E+00  0.00000000E+00  0.00000000E+00  0.00000000E+00
  0.00000000E+00  0.00000000E+00  0.00000000E+00  0.00000000E+00  0.00000000E+00
  0.00000000E+00  0.00000000E+00  0.00000000E+00  0.00000000E+00  0.00000000E+00
  0.00000000E+00  0.00000000E+00  0.00000000E+00  0.00000000E+00  0.00000000E+00
  0.00000000E+00  0.00000000E+00  0.00000000E+00  0.00000000E+00  0.00000000E+00
  0.00000000E+00  0.00000000E+00  0.00000000E+00  0.00000000E+00  0.00000000E+00
  0.00000000E+00  0.00000000E+00  0.00000000E+00  0.00000000E+00  0.00000000E+00
  0.00000000E+00  0.00000000E+00  0.00000000E+00  0.00000000E+00  0.00000000E+00
  0.00000000E+00  0.00000000E+00  0.00000000E+00  0.00000000E+00  0.00000000E+00
  0.00000000E+00  0.00000000E+00  0.00000000E+00  0.00000000E+00  0.00000000E+00
  0.00000000E+00  0.00000000E+00  0.00000000E+00  0.00000000E+00  0.00000000E+00
  0.00000000E+00  0.00000000E+00  0.00000000E+00  0.00000000E+00  0.00000000E+00
  0.00000000E+00  0.00000000E+00  0.00000000E+00  0.00000000E+00  0.00000000E+00
  0.00000000E+00  0.00000000E+00  0.00000000E+00  0.00000000E+00  0.00000000E+00
  0.00000000E+00  0.00000000E+00  0.00000000E+00  0.00000000E+00  0.00000000E+00
  0.00000000E+00  0.00000000E+00  0.00000000E+00  0.00000000E+00  0.00000000E+00
  0.00000000E+00  0.00000000E+00  0.00000000E+00  0.00000000E+00  0.00000000E+00
  0.00000000E+00  0.00000000E+00  0.00000000E+00  0.00000000E+00  0.00000000E+00
  0.00000000E+00  0.00000000E+00  0.00000000E+00  0.00000000E+00  0.00000000E+00
  0.00000000E+00  0.00000000E+00  0.00000000E+00  0.00000000E+00  0.00000000E+00
  0.00000000E+00  0.00000000E+00  0.00000000E+00  0.00000000E+00  0.00000000E+00
  0.00000000E+00  0.00000000E+00  0.00000000E+00  0.00000000E+00  0.00000000E+00
  0.00000000E+00  0.00000000E+00  0.00000000E+00  0.00000000E+00  0.00000000E+00
  0.00000000E+00  0.00000000E+00  0.00000000E+00  0.00000000E+00  0.00000000E+00
  0.00000000E+00  0.00000000E+00  0.00000000E+00  0.00000000E+00  0.00000000E+00
  0.00000000E+00  0.00000000E+00  0.00000000E+00  0.00000000E+00  0.00000000E+00
  0.00000000E+00  0.00000000E+00  0.00000000E+00  0.00000000E+00  0.00000000E+00
  0.00000000E+00  0.00000000E+00  0.00000000E+00  0.00000000E+00  0.00000000E+00
  0.00000000E+00  0.00000000E+00  0.00000000E+00  0.00000000E+00  0.00000000E+00
  0.00000000E+00  0.00000000E+00  0.00000000E+00  0.00000000E+00  0.00000000E+00
  0.00000000E+00  0.00000000E+00  0.00000000E+00  0.00000000E+00  0.00000000E+00
  0.00000000E+00  0.00000000E+00  0.00000000E+00  0.00000000E+00  0.00000000E+00
  0.00000000E+00  0.00000000E+00  0.00000000E+00  0.00000000E+00  0.00000000E+00
  0.00000000E+00  0.00000000E+00  0.00000000E+00  0.00000000E+00  0.00000000E+00
  2.26000000E-01  4.43000000E-01  1.01000000E-01  1.47000000E-01  1.92000000E-01
  2.40000000E-01  2.75000000E-01  3.03000000E-01  3.25000000E-01  4.13000000E-01
  9.60000000E-02  1.35000000E-01  1.73000000E-01  2.11000000E-01  2.48000000E-01
  2.86000000E-01  3.23000000E-01  3.60000000E-01  8.20000000E-02  1.04000000E-01
  1.17000000E-01  1.23000000E-01  1.29000000E-01  1.34000000E-01  1.40000000E-01
  1.44000000E-01  1.48000000E-01  1.52000000E-01  1.55000000E-01  1.76000000E-01
  1.98000000E-01  2.19000000E-01  2.39000000E-01  2.60000000E-01  2.80000000E-01
  3.00000000E-01  7.90000000E-02  9.90000000E-02  1.19000000E-01  1.26000000E-01
  1.33000000E-01  1.40000000E-01  1.47000000E-01  1.53000000E-01  1.58000000E-01
  1.63000000E-01  1.57000000E-01  1.70000000E-01  1.87000000E-01  2.03000000E-01
  2.19000000E-01  2.34000000E-01  2.50000000E-01  2.65000000E-01  7.40000000E-02
  9.20000000E-02  1.05000000E-01  1.06000000E-01  1.07000000E-01  1.08000000E-01
  1.09000000E-01  1.10000000E-01  1.11000000E-01  1.12000000E-01  1.13000000E-01
  1.14000000E-01  1.15000000E-01  1.16000000E-01  1.17000000E-01  1.17000000E-01
  1.26000000E-01  1.36000000E-01  1.46000000E-01  1.55000000E-01  1.65000000E-01
  1.73000000E-01  1.82000000E-01  1.90000000E-01  1.62000000E-01  1.78000000E-01
  1.10000000E-01  1.35000000E-01  1.59000000E-01  1.83000000E-01  2.07000000E-01
  2.31000000E-01  6.90000000E-02  9.40000000E-02  1.02000000E-01  1.03000000E-01
  1.05000000E-01  1.07000000E-01  1.09000000E-01  1.11000000E-01  1.13000000E-01
  1.15000000E-01  1.17000000E-01  1.19000000E-01  1.20000000E-01  1.22000000E-01
  1.24000000E-01  1.26000000E-01  1.28000000E-01  1.28000000E-01  1.28000000E-01
  1.28000000E-01  1.28000000E-01  1.28000000E-01  1.28000000E-01  1.28000000E-01
  1.28000000E-01  1.28000000E-01  1.28000000E-01  1.28000000E-01  1.28000000E-01
  1.28000000E-01  1.28000000E-01  1.28000000E-01  1.28000000E-01  1.28000000E-01
  1.28000000E-01  1.28000000E-01  1.28000000E-01  1.28000000E-01  1.28000000E-01
  1.28000000E-01  1.28000000E-01  1.28000000E-01  1.28000000E-01  1.28000000E-01
  1.28000000E-01  1.28000000E-01  1.28000000E-01  1.28000000E-01  1.28000000E-01
  1.28000000E-01  1.28000000E-01  1.28000000E-01  1.28000000E-01  1.28000000E-01
  1.28000000E-01  1.28000000E-01  1.28000000E-01  1.28000000E-01  1.28000000E-01
  1.28000000E-01  1.28000000E-01  1.28000000E-01  1.28000000E-01  1.28000000E-01
  1.28000000E-01  1.28000000E-01  1.28000000E-01  1.28000000E-01  1.28000000E-01
  1.28000000E-01  1.28000000E-01  1.28000000E-01  1.28000000E-01  1.28000000E-01
  1.28000000E-01  1.28000000E-01  1.28000000E-01  1.28000000E-01  1.28000000E-01
  1.28000000E-01  1.28000000E-01  1.28000000E-01  1.28000000E-01  1.28000000E-01
  1.28000000E-01  1.28000000E-01  1.28000000E-01  1.28000000E-01  1.28000000E-01
  1.28000000E-01  1.28000000E-01  1.28000000E-01  1.28000000E-01  1.28000000E-01
  1.28000000E-01  1.28000000E-01  1.28000000E-01  1.28000000E-01  1.28000000E-01
  1.28000000E-01  1.28000000E-01  1.28000000E-01  1.28000000E-01  1.28000000E-01
  1.28000000E-01  1.28000000E-01  1.28000000E-01  1.28000000E-01  1.28000000E-01
  1.28000000E-01  1.28000000E-01  1.28000000E-01  1.28000000E-01  1.28000000E-01
  5.47000000E-01  5.92000000E-01  5.99000000E-01  6.68000000E-01  6.98000000E-01
  7.18000000E-01  7.26000000E-01  7.36000000E-01  7.43000000E-01  7.45000000E-01
  6.07000000E-01  6.66000000E-01  6.93000000E-01  7.09000000E-01  7.20000000E-01
  7.29000000E-01  7.35000000E-01  7.40000000E-01  6.08000000E-01  7.34000000E-01
  7.46000000E-01  7.55000000E-01  7.61000000E-01  7.65000000E-01  7.67000000E-01
  7.60000000E-01  7.49000000E-01  7.33000000E-01  7.08000000E-01  6.48000000E-01
  6.88000000E-01  7.09000000E-01  7.22000000E-01  7.31000000E-01  7.38000000E-01
  7.44000000E-01  6.09000000E-01  7.30000000E-01  7.41000000E-01  7.52000000E-01
  7.58000000E-01  7.63000000E-01  7.66000000E-01  7.58000000E-01  7.48000000E-01
  7.33000000E-01  7.01000000E-01  6.45000000E-01  6.86000000E-01  7.08000000E-01
  7.22000000E-01  7.31000000E-01  7.38000000E-01  7.44000000E-01  6.08000000E-01
  7.28000000E-01  7.32000000E-01  7.32000000E-01  7.32000000E-01  7.32000000E-01
  7.32000000E-01  7.32000000E-01  7.32000000E-01  7.32000000E-01  7.32000000E-01
  7.31000000E-01  7.31000000E-01  7.31000000E-01  7.31000000E-01  7.46000000E-01
  7.37000000E-01  7.46000000E-01  7.51000000E-01  7.55000000E-01  7.58000000E-01
  7.47000000E-01  7.32000000E-01  7.11000000E-01  7.41000000E-01  7.07000000E-01
  7.47000000E-01  7.43000000E-01  7.42000000E-01  7.42000000E-01  7.43000000E-01
  7.44000000E-01  6.05000000E-01  7.24000000E-01  7.26000000E-01  7.26000000E-01
  7.27000000E-01  7.27000000E-01  7.27000000E-01  7.28000000E-01  7.28000000E-01
  7.28000000E-01  7.28000000E-01  7.28000000E-01  7.29000000E-01  7.29000000E-01
  7.29000000E-01  7.29000000E-01  7.29000000E-01  7.29000000E-01  7.29000000E-01
  7.29000000E-01  7.29000000E-01  7.29000000E-01  7.29000000E-01  7.29000000E-01
  7.29000000E-01  7.29000000E-01  7.29000000E-01  7.29000000E-01  7.29000000E-01
  7.29000000E-01  7.29000000E-01  7.29000000E-01  7.29000000E-01  7.29000000E-01
  7.29000000E-01  7.29000000E-01  7.29000000E-01  7.29000000E-01  7.29000000E-01
  7.29000000E-01  7.29000000E-01  7.29000000E-01  7.29000000E-01  7.29000000E-01
  7.29000000E-01  7.29000000E-01  7.29000000E-01  7.29000000E-01  7.29000000E-01
  7.29000000E-01  7.29000000E-01  7.29000000E-01  7.29000000E-01  7.29000000E-01
  7.29000000E-01  7.29000000E-01  7.29000000E-01  7.29000000E-01  7.29000000E-01
  7.29000000E-01  7.29000000E-01  7.29000000E-01  7.29000000E-01  7.29000000E-01
  7.29000000E-01  7.29000000E-01  7.29000000E-01  7.29000000E-01  7.29000000E-01
  7.29000000E-01  7.29000000E-01  7.29000000E-01  7.29000000E-01  7.29000000E-01
  7.29000000E-01  7.29000000E-01  7.29000000E-01  7.29000000E-01  7.29000000E-01
  7.29000000E-01  7.29000000E-01  7.29000000E-01  7.29000000E-01  7.29000000E-01
  7.29000000E-01  7.29000000E-01  7.29000000E-01  7.29000000E-01  7.29000000E-01
  7.29000000E-01  7.29000000E-01  7.29000000E-01  7.29000000E-01  7.29000000E-01
  7.29000000E-01  7.29000000E-01  7.29000000E-01  7.29000000E-01  7.29000000E-01
  7.29000000E-01  7.29000000E-01  7.29000000E-01  7.29000000E-01  7.29000000E-01
  7.29000000E-01  7.29000000E-01  7.29000000E-01  7.29000000E-01  7.29000000E-01
  7.29000000E-01  7.29000000E-01  7.29000000E-01  7.29000000E-01  7.29000000E-01
  1.00000000E+00  1.70400000E+00  3.23000000E-01  3.89000000E-01  4.67000000E-01
  5.67000000E-01  6.36000000E-01  6.64000000E-01  6.96000000E-01  8.79000000E-01
  3.07000000E-01  3.48000000E-01  4.00000000E-01  4.54000000E-01  5.09000000E-01
  5.65000000E-01  6.21000000E-01  6.77000000E-01  2.56000000E-01  3.50000000E-01
  3.64000000E-01  3.62000000E-01  3.62000000E-01  3.62000000E-01  3.62000000E-01
  3.65000000E-01  3.69000000E-01  3.75000000E-01  3.86000000E-01  4.46000000E-01
  4.55000000E-01  4.74000000E-01  4.96000000E-01  5.20000000E-01  5.45000000E-01
  5.70000000E-01  2.45000000E-01  3.22000000E-01  3.55000000E-01  3.59000000E-01
  3.64000000E-01  3.70000000E-01  3.76000000E-01  3.85000000E-01  3.95000000E-01
  4.08000000E-01  3.76000000E-01  4.23000000E-01  4.22000000E-01  4.32000000E-01
  4.45000000E-01  4.59000000E-01  4.75000000E-01  4.91000000E-01  2.28000000E-01
  2.92000000E-01  2.89000000E-01  2.92000000E-01  2.95000000E-01  2.98000000E-01
  3.00000000E-01  3.03000000E-01  3.06000000E-01  3.09000000E-01  3.12000000E-01
  3.15000000E-01  3.18000000E-01  3.21000000E-01  3.24000000E-01  3.61000000E-01
  3.69000000E-01  3.70000000E-01  3.72000000E-01  3.75000000E-01  3.78000000E-01
  3.85000000E-01  3.94000000E-01  4.07000000E-01  5.26000000E-01  6.21000000E-01
  3.36000000E-01  3.54000000E-01  3.71000000E-01  3.86000000E-01  4.02000000E-01
  4.17000000E-01  2.09000000E-01  2.94000000E-01  2.65000000E-01  2.72000000E-01
  2.78000000E-01  2.84000000E-01  2.91000000E-01  2.97000000E-01  3.03000000E-01
  3.10000000E-01  3.16000000E-01  3.22000000E-01  3.29000000E-01  3.35000000E-01
  3.41000000E-01  3.48000000E-01  3.54000000E-01  3.54000000E-01  3.54000000E-01
  3.54000000E-01  3.54000000E-01  3.54000000E-01  3.54000000E-01  3.54000000E-01
  3.54000000E-01  3.54000000E-01  3.54000000E-01  3.54000000E-01  3.54000000E-01
  3.54000000E-01  3.54000000E-01  3.54000000E-01  3.54000000E-01  3.54000000E-01
  3.54000000E-01  3.54000000E-01  3.54000000E-01  3.54000000E-01  3.54000000E-01
  3.54000000E-01  3.54000000E-01  3.54000000E-01  3.54000000E-01  3.54000000E-01
  3.54000000E-01  3.54000000E-01  3.54000000E-01  3.54000000E-01  3.54000000E-01
  3.54000000E-01  3.54000000E-01  3.54000000E-01  3.54000000E-01  3.54000000E-01
  3.54000000E-01  3.54000000E-01  3.54000000E-01  3.54000000E-01  3.54000000E-01
  3.54000000E-01  3.54000000E-01  3.54000000E-01  3.54000000E-01  3.54000000E-01
  3.54000000E-01  3.54000000E-01  3.54000000E-01  3.54000000E-01  3.54000000E-01
  3.54000000E-01  3.54000000E-01  3.54000000E-01  3.54000000E-01  3.54000000E-01
  3.54000000E-01  3.54000000E-01  3.54000000E-01  3.54000000E-01  3.54000000E-01
  3.54000000E-01  3.54000000E-01  3.54000000E-01  3.54000000E-01  3.54000000E-01
  3.54000000E-01  3.54000000E-01  3.54000000E-01  3.54000000E-01  3.54000000E-01
  3.54000000E-01  3.54000000E-01  3.54000000E-01  3.54000000E-01  3.54000000E-01
  3.54000000E-01  3.54000000E-01  3.54000000E-01  3.54000000E-01  3.54000000E-01
  3.54000000E-01  3.54000000E-01  3.54000000E-01  3.54000000E-01  3.54000000E-01
  3.54000000E-01  3.54000000E-01  3.54000000E-01  3.54000000E-01  3.54000000E-01
  3.54000000E-01  3.54000000E-01  3.54000000E-01  3.54000000E-01  3.54000000E-01
  2.74000000E-01  2.96000000E-01  5.80000000E-02  4.40000000E-02  3.90000000E-02
  3.90000000E-02  3.60000000E-02  3.20000000E-02  2.90000000E-02  3.30000000E-02
  5.50000000E-02  3.90000000E-02  3.30000000E-02  3.00000000E-02  2.80000000E-02
  2.60000000E-02  2.50000000E-02  2.50000000E-02  4.50000000E-02  4.40000000E-02
  3.30000000E-02  2.50000000E-02  2.10000000E-02  1.80000000E-02  1.50000000E-02
  1.80000000E-02  2.10000000E-02  2.50000000E-02  3.30000000E-02  5.00000000E-02
  3.80000000E-02  3.10000000E-02  2.70000000E-02  2.40000000E-02  2.20000000E-02
  2.10000000E-02  4.30000000E-02  4.00000000E-02  3.20000000E-02  2.50000000E-02
  2.10000000E-02  1.80000000E-02  1.60000000E-02  1.90000000E-02  2.20000000E-02
  2.80000000E-02  3.10000000E-02  4.70000000E-02  3.40000000E-02  2.80000000E-02
  2.40000000E-02  2.10000000E-02  1.90000000E-02  1.80000000E-02  3.90000000E-02
  3.60000000E-02  2.50000000E-02  2.50000000E-02  2.50000000E-02  2.60000000E-02
  2.60000000E-02  2.60000000E-02  2.70000000E-02  2.70000000E-02  2.70000000E-02
  2.70000000E-02  2.80000000E-02  2.80000000E-02  2.80000000E-02  3.30000000E-02
  3.30000000E-02  2.60000000E-02  2.10000000E-02  1.80000000E-02  1.60000000E-02
  1.80000000E-02  2.20000000E-02  2.60000000E-02  4.90000000E-02  8.20000000E-02
  3.00000000E-02  2.40000000E-02  2.10000000E-02  1.80000000E-02  1.60000000E-02
  1.50000000E-02  3.50000000E-02  3.60000000E-02  2.20000000E-02  2.30000000E-02
  2.40000000E-02  2.40000000E-02  2.50000000E-02  2.50000000E-02  2.60000000E-02
  2.70000000E-02  2.70000000E-02  2.80000000E-02  2.80000000E-02  2.90000000E-02
  3.00000000E-02  3.00000000E-02  3.10000000E-02  3.10000000E-02  3.10000000E-02
  3.10000000E-02  3.10000000E-02  3.10000000E-02  3.10000000E-02  3.10000000E-02
  3.10000000E-02  3.10000000E-02  3.10000000E-02  3.10000000E-02  3.10000000E-02
  3.10000000E-02  3.10000000E-02  3.10000000E-02  3.10000000E-02  3.10000000E-02
  3.10000000E-02  3.10000000E-02  3.10000000E-02  3.10000000E-02  3.10000000E-02
  3.10000000E-02  3.10000000E-02  3.10000000E-02  3.10000000E-02  3.10000000E-02
  3.10000000E-02  3.10000000E-02  3.10000000E-02  3.10000000E-02  3.10000000E-02
  3.10000000E-02  3.10000000E-02  3.10000000E-02  3.10000000E-02  3.10000000E-02
  3.10000000E-02  3.10000000E-02  3.10000000E-02  3.10000000E-02  3.10000000E-02
  3.10000000E-02  3.10000000E-02  3.10000000E-02  3.10000000E-02  3.10000000E-02
  3.10000000E-02  3.10000000E-02  3.10000000E-02  3.10000000E-02  3.10000000E-02
  3.10000000E-02  3.10000000E-02  3.10000000E-02  3.10000000E-02  3.10000000E-02
  3.10000000E-02  3.10000000E-02  3.10000000E-02  3.10000000E-02  3.10000000E-02
  3.10000000E-02  3.10000000E-02  3.10000000E-02  3.10000000E-02  3.10000000E-02
  3.10000000E-02  3.10000000E-02  3.10000000E-02  3.10000000E-02  3.10000000E-02
  3.10000000E-02  3.10000000E-02  3.10000000E-02  3.10000000E-02  3.10000000E-02
  3.10000000E-02  3.10000000E-02  3.10000000E-02  3.10000000E-02  3.10000000E-02
  3.10000000E-02  3.10000000E-02  3.10000000E-02  3.10000000E-02  3.10000000E-02
  3.10000000E-02  3.10000000E-02  3.10000000E-02  3.10000000E-02  3.10000000E-02
  3.10000000E-02  3.10000000E-02  3.10000000E-02  3.10000000E-02  3.10000000E-02
 -5.92770000E-01 -9.17860000E-01 -2.48668000E+00 -8.36430000E-01 -3.18470000E-01
 -4.55790000E-01 -5.70730000E-01 -6.77940000E-01 -7.69860000E-01 -8.51140000E-01
 -1.51908000E+00 -3.18830000E-01 -2.17900000E-01 -3.01260000E-01 -3.72750000E-01
 -4.15890000E-01 -4.45930000E-01 -5.91320000E-01 -9.56370000E-01 -2.88450000E-01
 -4.87320000E-01 -6.34280000E-01 -7.17490000E-01 -7.91980000E-01 -8.68490000E-01
 -9.17520000E-01 -9.54890000E-01 -9.88460000E-01 -1.50055000E+00 -2.92560000E-01
 -2.14960000E-01 -2.91180000E-01 -3.42080000E-01 -3.84480000E-01 -4.34940000E-01
 -5.24310000E-01 -8.10070000E-01 -2.58460000E-01 -4.35550000E-01 -5.32740000E-01
 -6.08450000E-01 -6.10260000E-01 -7.58920000E-01 -8.90130000E-01 -8.45780000E-01
 -8.69340000E-01 -1.38234000E+00 -2.64850000E-01 -1.97280000E-01 -2.65040000E-01
 -2.94470000E-01 -3.16570000E-01 -3.63590000E-01 -4.57840000E-01 -8.61830000E-01
 -1.33004000E+00 -6.82880000E-01 -6.25540000E-01 -6.35430000E-01 -8.79690000E-01
 -9.02690000E-01 -9.59650000E-01 -1.01869000E+00 -6.81170000E-01 -7.96500000E-01
 -9.04950000E-01 -8.34790000E-01 -9.01560000E-01 -9.74130000E-01 -1.03326000E+00
 -7.15490000E-01 -7.83960000E-01 -8.28380000E-01 -5.61040000E-01 -1.03841000E+00
 -8.62500000E-01 -9.59300000E-01 -1.01755000E+00 -7.64900000E-01 -1.29467000E+00
 -1.92740000E-01 -2.56010000E-01 -3.19820000E-01 -1.94660000E-01 -2.60090000E-01
 -4.27990000E-01  0.00000000E+00  0.00000000E+00  0.00000000E+00  0.00000000E+00
  0.00000000E+00  0.00000000E+00  0.00000000E+00  0.00000000E+00  0.00000000E+00
  0.00000000E+00  0.00000000E+00  0.00000000E+00  0.00000000E+00  0.00000000E+00
  0.00000000E+00  0.00000000E+00  0.00000000E+00  0.00000000E+00  0.00000000E+00
  0.00000000E+00  0.00000000E+00  0.00000000E+00  0.00000000E+00  0.00000000E+00
  0.00000000E+00  0.00000000E+00  0.00000000E+00  0.00000000E+00  0.00000000E+00
  0.00000000E+00  0.00000000E+00  0.00000000E+00  0.00000000E+00  0.00000000E+00
  0.00000000E+00  0.00000000E+00  0.00000000E+00  0.00000000E+00  0.00000000E+00
  0.00000000E+00  0.00000000E+00  0.00000000E+00  0.00000000E+00  0.00000000E+00
  0.00000000E+00  0.00000000E+00  0.00000000E+00  0.00000000E+00  0.00000000E+00
  0.00000000E+00  0.00000000E+00  0.00000000E+00  0.00000000E+00  0.00000000E+00
  0.00000000E+00  0.00000000E+00  0.00000000E+00  0.00000000E+00  0.00000000E+00
  0.00000000E+00  0.00000000E+00  0.00000000E+00  0.00000000E+00  0.00000000E+00
  0.00000000E+00  0.00000000E+00  0.00000000E+00  0.00000000E+00  0.00000000E+00
  0.00000000E+00  0.00000000E+00  0.00000000E+00  0.00000000E+00  0.00000000E+00
  0.00000000E+00  0.00000000E+00  0.00000000E+00  0.00000000E+00  0.00000000E+00
  0.00000000E+00  0.00000000E+00  0.00000000E+00  0.00000000E+00  0.00000000E+00
  0.00000000E+00  0.00000000E+00  0.00000000E+00  0.00000000E+00  0.00000000E+00
  0.00000000E+00  0.00000000E+00  0.00000000E+00  0.00000000E+00  0.00000000E+00
  0.00000000E+00  0.00000000E+00  0.00000000E+00  0.00000000E+00  0.00000000E+00
  0.00000000E+00  0.00000000E+00  0.00000000E+00  0.00000000E+00  0.00000000E+00
  0.00000000E+00  0.00000000E+00  0.00000000E+00  0.00000000E+00  0.00000000E+00
  0.00000000E+00  0.00000000E+00  0.00000000E+00  0.00000000E+00  0.00000000E+00
  1.90440000E+00  1.36430000E+00  4.84000000E-01  7.31600000E+00  9.24030000E+00
  8.78200000E+00  5.61290000E+00  4.83340000E+00  3.24870000E+00  2.71090000E+00
  2.01130000E+00  1.50282000E+01  1.46788000E+01  2.13546000E+01  2.38290000E+01
  1.98022000E+01  1.50468000E+01  1.09745000E+01  1.27219000E+01  1.51949000E+01
  1.57342000E+01  2.79222000E+01  1.61366000E+01  2.21252000E+01  2.45676000E+01
  1.96016000E+01  1.79818000E+01  1.72396000E+01  5.01500000E+00  1.92898000E+01
  2.34477000E+01  2.23993000E+01  2.96586000E+01  2.60081000E+01  2.15580000E+01
  1.69594000E+01  1.56479000E+01  1.86897000E+01  1.93530000E+01  3.43444000E+01
  1.98480000E+01  2.72140000E+01  3.02182000E+01  2.41099000E+01  2.21176000E+01
  2.12047000E+01  7.56690000E+00  2.37264000E+01  2.93879000E+01  3.01278000E+01
  4.19382000E+01  3.85203000E+01  3.39511000E+01  2.75774000E+01  1.56460000E+01
  1.04460000E+01  2.01830000E+01  4.99540000E+01  4.76430000E+01  1.18690000E+01
  1.08670000E+01  9.96100000E+00  9.18700000E+00  3.67980000E+01  1.34070000E+01
  9.38200000E+00  9.81700000E+00  8.90800000E+00  8.40700000E+00  8.05800000E+00
  1.29600000E+01  2.67920000E+01  2.49300000E+01  3.45630000E+01  1.11860000E+01
  1.09440000E+01  1.01270000E+01  9.40400000E+00  1.36660000E+01  7.81000000E+00
  6.93600000E+01  5.86630000E+01  4.79690000E+01  4.52740000E+01  3.92290000E+01
  3.30660000E+01  0.00000000E+00  0.00000000E+00  0.00000000E+00  0.00000000E+00
  0.00000000E+00  0.00000000E+00  0.00000000E+00  0.00000000E+00  0.00000000E+00
  0.00000000E+00  0.00000000E+00  0.00000000E+00  0.00000000E+00  0.00000000E+00
  0.00000000E+00  0.00000000E+00  0.00000000E+00  0.00000000E+00  0.00000000E+00
  0.00000000E+00  0.00000000E+00  0.00000000E+00  0.00000000E+00  0.00000000E+00
  0.00000000E+00  0.00000000E+00  0.00000000E+00  0.00000000E+00  0.00000000E+00
  0.00000000E+00  0.00000000E+00  0.00000000E+00  0.00000000E+00  0.00000000E+00
  0.00000000E+00  0.00000000E+00  0.00000000E+00  0.00000000E+00  0.00000000E+00
  0.00000000E+00  0.00000000E+00  0.00000000E+00  0.00000000E+00  0.00000000E+00
  0.00000000E+00  0.00000000E+00  0.00000000E+00  0.00000000E+00  0.00000000E+00
  0.00000000E+00  0.00000000E+00  0.00000000E+00  0.00000000E+00  0.00000000E+00
  0.00000000E+00  0.00000000E+00  0.00000000E+00  0.00000000E+00  0.00000000E+00
  0.00000000E+00  0.00000000E+00  0.00000000E+00  0.00000000E+00  0.00000000E+00
  0.00000000E+00  0.00000000E+00  0.00000000E+00  0.00000000E+00  0.00000000E+00
  0.00000000E+00  0.00000000E+00  0.00000000E+00  0.00000000E+00  0.00000000E+00
  0.00000000E+00  0.00000000E+00  0.00000000E+00  0.00000000E+00  0.00000000E+00
  0.00000000E+00  0.00000000E+00  0.00000000E+00  0.00000000E+00  0.00000000E+00
  0.00000000E+00  0.00000000E+00  0.00000000E+00  0.00000000E+00  0.00000000E+00
  0.00000000E+00  0.00000000E+00  0.00000000E+00  0.00000000E+00  0.00000000E+00
  0.00000000E+00  0.00000000E+00  0.00000000E+00  0.00000000E+00  0.00000000E+00
  0.00000000E+00  0.00000000E+00  0.00000000E+00  0.00000000E+00  0.00000000E+00
  0.00000000E+00  0.00000000E+00  0.00000000E+00  0.00000000E+00  0.00000000E+00
  0.00000000E+00  0.00000000E+00  0.00000000E+00  0.00000000E+00  0.00000000E+00
  0.00000000E+00  0.00000000E+00  0.00000000E+00  0.00000000E+00  0.00000000E+00
  0.00000000E+00  0.00000000E+00  0.00000000E+00  0.00000000E+00  0.00000000E+00
  0.00000000E+00  0.00000000E+00  0.00000000E+00  0.00000000E+00  0.00000000E+00
  0.00000000E+00  0.00000000E+00  0.00000000E+00  0.00000000E+00  0.00000000E+00
  0.00000000E+00  0.00000000E+00  0.00000000E+00  0.00000000E+00  0.00000000E+00
  0.00000000E+00  0.00000000E+00  0.00000000E+00  0.00000000E+00  0.00000000E+00
  0.00000000E+00  0.00000000E+00  0.00000000E+00  0.00000000E+00  0.00000000E+00
  0.00000000E+00  0.00000000E+00  0.00000000E+00  0.00000000E+00  0.00000000E+00
  0.00000000E+00  0.00000000E+00  0.00000000E+00  0.00000000E+00  0.00000000E+00
  0.00000000E+00  0.00000000E+00  0.00000000E+00  0.00000000E+00  0.00000000E+00
  0.00000000E+00  0.00000000E+00  0.00000000E+00  0.00000000E+00  0.00000000E+00
  0.00000000E+00  0.00000000E+00  0.00000000E+00  0.00000000E+00  0.00000000E+00
  0.00000000E+00  0.00000000E+00  0.00000000E+00  0.00000000E+00  0.00000000E+00
  0.00000000E+00  0.00000000E+00  0.00000000E+00  0.00000000E+00  0.00000000E+00
  0.00000000E+00  0.00000000E+00  0.00000000E+00  0.00000000E+00  0.00000000E+00
  0.00000000E+00  0.00000000E+00  0.00000000E+00  0.00000000E+00  0.00000000E+00
  0.00000000E+00  0.00000000E+00  0.00000000E+00  0.00000000E+00  0.00000000E+00
  0.00000000E+00  0.00000000E+00  0.00000000E+00  0.00000000E+00  0.00000000E+00
  0.00000000E+00  0.00000000E+00  0.00000000E+00  0.00000000E+00  0.00000000E+00
  0.00000000E+00  0.00000000E+00  0.00000000E+00  0.00000000E+00  0.00000000E+00
  0.00000000E+00  0.00000000E+00  0.00000000E+00  0.00000000E+00  0.00000000E+00
  0.00000000E+00  0.00000000E+00  0.00000000E+00  0.00000000E+00  0.00000000E+00
  0.00000000E+00  0.00000000E+00  0.00000000E+00  0.00000000E+00  0.00000000E+00
  0.00000000E+00  0.00000000E+00  0.00000000E+00  0.00000000E+00  0.00000000E+00
  0.00000000E+00  0.00000000E+00  0.00000000E+00  0.00000000E+00  0.00000000E+00
  0.00000000E+00  0.00000000E+00  0.00000000E+00  0.00000000E+00  0.00000000E+00
  0.00000000E+00  0.00000000E+00  0.00000000E+00  0.00000000E+00  0.00000000E+00
  0.00000000E+00  0.00000000E+00  0.00000000E+00  0.00000000E+00  0.00000000E+00
  0.00000000E+00  0.00000000E+00  0.00000000E+00  0.00000000E+00  0.00000000E+00
  0.00000000E+00  0.00000000E+00  0.00000000E+00  0.00000000E+00  0.00000000E+00
  0.00000000E+00  0.00000000E+00  0.00000000E+00  0.00000000E+00  0.00000000E+00
  0.00000000E+00  0.00000000E+00  0.00000000E+00  0.00000000E+00  0.00000000E+00
  0.00000000E+00  0.00000000E+00  0.00000000E+00  0.00000000E+00  0.00000000E+00
  0.00000000E+00  0.00000000E+00  0.00000000E+00  0.00000000E+00  0.00000000E+00
  0.00000000E+00  0.00000000E+00  0.00000000E+00  0.00000000E+00  0.00000000E+00
  0.00000000E+00  0.00000000E+00  0.00000000E+00  0.00000000E+00  0.00000000E+00
  0.00000000E+00  0.00000000E+00  0.00000000E+00  0.00000000E+00  0.00000000E+00
  0.00000000E+00  0.00000000E+00  0.00000000E+00  0.00000000E+00  0.00000000E+00
  0.00000000E+00  0.00000000E+00  0.00000000E+00  0.00000000E+00  0.00000000E+00
  0.00000000E+00  0.00000000E+00  0.00000000E+00  0.00000000E+00  0.00000000E+00
  0.00000000E+00  0.00000000E+00  0.00000000E+00  0.00000000E+00  0.00000000E+00
  0.00000000E+00  0.00000000E+00  0.00000000E+00  0.00000000E+00  0.00000000E+00
  0.00000000E+00  0.00000000E+00  0.00000000E+00  0.00000000E+00  0.00000000E+00
  0.00000000E+00  0.00000000E+00  0.00000000E+00  0.00000000E+00  0.00000000E+00
  0.00000000E+00  0.00000000E+00  0.00000000E+00  0.00000000E+00  0.00000000E+00
  0.00000000E+00  0.00000000E+00  0.00000000E+00  0.00000000E+00  0.00000000E+00
  0.00000000E+00  0.00000000E+00  0.00000000E+00  0.00000000E+00  0.00000000E+00
  0.00000000E+00  0.00000000E+00  0.00000000E+00  0.00000000E+00  0.00000000E+00
  0.00000000E+00  0.00000000E+00  0.00000000E+00  0.00000000E+00  0.00000000E+00
  0.00000000E+00  0.00000000E+00  0.00000000E+00  0.00000000E+00  0.00000000E+00
  0.00000000E+00  0.00000000E+00  0.00000000E+00  0.00000000E+00  0.00000000E+00
  0.00000000E+00  0.00000000E+00  0.00000000E+00  0.00000000E+00  0.00000000E+00
  0.00000000E+00  0.00000000E+00  0.00000000E+00  0.00000000E+00  0.00000000E+00
  0.00000000E+00  0.00000000E+00  0.00000000E+00  0.00000000E+00  0.00000000E+00
  0.00000000E+00  0.00000000E+00  0.00000000E+00  0.00000000E+00  0.00000000E+00
  0.00000000E+00  0.00000000E+00  0.00000000E+00  0.00000000E+00  0.00000000E+00
  0.00000000E+00  0.00000000E+00  0.00000000E+00  0.00000000E+00  0.00000000E+00
  0.00000000E+00  0.00000000E+00  0.00000000E+00  0.00000000E+00  0.00000000E+00
  0.00000000E+00  0.00000000E+00  0.00000000E+00  0.00000000E+00  0.00000000E+00
  0.00000000E+00  0.00000000E+00  0.00000000E+00  0.00000000E+00  0.00000000E+00
  0.00000000E+00  0.00000000E+00  0.00000000E+00  0.00000000E+00  0.00000000E+00
  0.00000000E+00  0.00000000E+00  0.00000000E+00  0.00000000E+00  0.00000000E+00
  0.00000000E+00  0.00000000E+00  0.00000000E+00  0.00000000E+00  0.00000000E+00
  0.00000000E+00  0.00000000E+00  0.00000000E+00  0.00000000E+00  0.00000000E+00
  0.00000000E+00  0.00000000E+00  0.00000000E+00  0.00000000E+00  0.00000000E+00
  0.00000000E+00  0.00000000E+00  0.00000000E+00  0.00000000E+00  0.00000000E+00
  0.00000000E+00  0.00000000E+00  0.00000000E+00  0.00000000E+00  0.00000000E+00
  0.00000000E+00  0.00000000E+00  0.00000000E+00  0.00000000E+00  0.00000000E+00
  0.00000000E+00  0.00000000E+00  0.00000000E+00  0.00000000E+00  0.00000000E+00
  0.00000000E+00  0.00000000E+00  0.00000000E+00  0.00000000E+00  0.00000000E+00
  0.00000000E+00  0.00000000E+00  0.00000000E+00  0.00000000E+00  0.00000000E+00
  0.00000000E+00  0.00000000E+00  0.00000000E+00  0.00000000E+00  0.00000000E+00
  0.00000000E+00  0.00000000E+00  0.00000000E+00  0.00000000E+00  0.00000000E+00
  0.00000000E+00  0.00000000E+00  0.00000000E+00  0.00000000E+00  0.00000000E+00
  0.00000000E+00  0.00000000E+00  0.00000000E+00  0.00000000E+00  0.00000000E+00
  0.00000000E+00  0.00000000E+00  0.00000000E+00  0.00000000E+00  0.00000000E+00
  0.00000000E+00  0.00000000E+00  0.00000000E+00  0.00000000E+00  0.00000000E+00
  0.00000000E+00  0.00000000E+00  0.00000000E+00  0.00000000E+00  0.00000000E+00
  0.00000000E+00  0.00000000E+00  0.00000000E+00  0.00000000E+00  0.00000000E+00
  0.00000000E+00  0.00000000E+00  0.00000000E+00  0.00000000E+00  0.00000000E+00
  0.00000000E+00  0.00000000E+00  0.00000000E+00  0.00000000E+00  0.00000000E+00
  0.00000000E+00  0.00000000E+00  0.00000000E+00  0.00000000E+00  0.00000000E+00
  0.00000000E+00  0.00000000E+00  0.00000000E+00  0.00000000E+00  0.00000000E+00
  0.00000000E+00  0.00000000E+00  0.00000000E+00  0.00000000E+00  0.00000000E+00
  0.00000000E+00  0.00000000E+00  0.00000000E+00  0.00000000E+00  0.00000000E+00
  0.00000000E+00  0.00000000E+00  0.00000000E+00  0.00000000E+00  0.00000000E+00
  0.00000000E+00  0.00000000E+00  0.00000000E+00  0.00000000E+00  0.00000000E+00
  0.00000000E+00  0.00000000E+00  0.00000000E+00  0.00000000E+00  0.00000000E+00
  0.00000000E+00  0.00000000E+00  0.00000000E+00  0.00000000E+00  0.00000000E+00
  0.00000000E+00  0.00000000E+00  0.00000000E+00  0.00000000E+00  0.00000000E+00
  0.00000000E+00  0.00000000E+00  0.00000000E+00  0.00000000E+00  0.00000000E+00
  0.00000000E+00  0.00000000E+00  0.00000000E+00  0.00000000E+00  0.00000000E+00
  0.00000000E+00  0.00000000E+00  0.00000000E+00  0.00000000E+00  0.00000000E+00
  0.00000000E+00  0.00000000E+00  0.00000000E+00  0.00000000E+00  0.00000000E+00
  0.00000000E+00  0.00000000E+00  0.00000000E+00  0.00000000E+00  0.00000000E+00
  0.00000000E+00  0.00000000E+00  0.00000000E+00  0.00000000E+00  0.00000000E+00
  0.00000000E+00  0.00000000E+00  0.00000000E+00  0.00000000E+00  0.00000000E+00
  0.00000000E+00  0.00000000E+00  0.00000000E+00  0.00000000E+00  0.00000000E+00
  0.00000000E+00  0.00000000E+00  0.00000000E+00  0.00000000E+00  0.00000000E+00
  0.00000000E+00  0.00000000E+00  0.00000000E+00  0.00000000E+00  0.00000000E+00
  0.00000000E+00  0.00000000E+00  0.00000000E+00  0.00000000E+00  0.00000000E+00
  0.00000000E+00  0.00000000E+00  0.00000000E+00  0.00000000E+00  0.00000000E+00
  0.00000000E+00  0.00000000E+00  0.00000000E+00  0.00000000E+00  0.00000000E+00
  0.00000000E+00  0.00000000E+00  0.00000000E+00  0.00000000E+00  0.00000000E+00
  0.00000000E+00  0.00000000E+00  0.00000000E+00  0.00000000E+00  0.00000000E+00
  0.00000000E+00  0.00000000E+00  0.00000000E+00  0.00000000E+00  0.00000000E+00
  0.00000000E+00  0.00000000E+00  0.00000000E+00  0.00000000E+00  0.00000000E+00
  0.00000000E+00  0.00000000E+00  0.00000000E+00  0.00000000E+00  0.00000000E+00
  0.00000000E+00  0.00000000E+00  0.00000000E+00  0.00000000E+00  0.00000000E+00
  0.00000000E+00  0.00000000E+00  0.00000000E+00  0.00000000E+00  0.00000000E+00
  0.00000000E+00  0.00000000E+00  0.00000000E+00  0.00000000E+00  0.00000000E+00
  0.00000000E+00  0.00000000E+00  0.00000000E+00  0.00000000E+00  0.00000000E+00
  0.00000000E+00  0.00000000E+00  0.00000000E+00  0.00000000E+00  0.00000000E+00
  0.00000000E+00  0.00000000E+00  0.00000000E+00  0.00000000E+00  0.00000000E+00
  0.00000000E+00  0.00000000E+00  0.00000000E+00  0.00000000E+00  0.00000000E+00
  0.00000000E+00  0.00000000E+00  0.00000000E+00  0.00000000E+00  0.00000000E+00
  0.00000000E+00  0.00000000E+00  0.00000000E+00  0.00000000E+00  0.00000000E+00
  0.00000000E+00  0.00000000E+00  0.00000000E+00  0.00000000E+00  0.00000000E+00
  0.00000000E+00  0.00000000E+00  0.00000000E+00  0.00000000E+00  0.00000000E+00
  0.00000000E+00  0.00000000E+00  0.00000000E+00  0.00000000E+00  0.00000000E+00
  0.00000000E+00  0.00000000E+00  0.00000000E+00  0.00000000E+00  0.00000000E+00
  0.00000000E+00  0.00000000E+00  0.00000000E+00  0.00000000E+00  0.00000000E+00
  0.00000000E+00  0.00000000E+00  0.00000000E+00  0.00000000E+00  0.00000000E+00
  0.00000000E+00  0.00000000E+00  0.00000000E+00  0.00000000E+00  0.00000000E+00
  0.00000000E+00  0.00000000E+00  0.00000000E+00  0.00000000E+00  0.00000000E+00
  0.00000000E+00  0.00000000E+00  0.00000000E+00  0.00000000E+00  0.00000000E+00
  0.00000000E+00  0.00000000E+00  0.00000000E+00  0.00000000E+00  0.00000000E+00
  0.00000000E+00  0.00000000E+00  0.00000000E+00  0.00000000E+00  0.00000000E+00
  0.00000000E+00  0.00000000E+00  0.00000000E+00  0.00000000E+00  0.00000000E+00
  0.00000000E+00  0.00000000E+00  0.00000000E+00  0.00000000E+00  0.00000000E+00
  0.00000000E+00  0.00000000E+00  0.00000000E+00  0.00000000E+00  0.00000000E+00
  0.00000000E+00  0.00000000E+00  0.00000000E+00  0.00000000E+00  0.00000000E+00
  0.00000000E+00  0.00000000E+00  0.00000000E+00  0.00000000E+00  0.00000000E+00
  0.00000000E+00  0.00000000E+00  0.00000000E+00  0.00000000E+00  0.00000000E+00
  0.00000000E+00  0.00000000E+00  0.00000000E+00  0.00000000E+00  0.00000000E+00
  0.00000000E+00  0.00000000E+00  0.00000000E+00  0.00000000E+00  0.00000000E+00
  0.00000000E+00  0.00000000E+00  0.00000000E+00  0.00000000E+00  0.00000000E+00
  0.00000000E+00  0.00000000E+00  0.00000000E+00  0.00000000E+00  0.00000000E+00
  0.00000000E+00  0.00000000E+00  0.00000000E+00  0.00000000E+00  0.00000000E+00
  0.00000000E+00  0.00000000E+00  0.00000000E+00  0.00000000E+00  0.00000000E+00
  0.00000000E+00  0.00000000E+00  0.00000000E+00  0.00000000E+00  0.00000000E+00
  0.00000000E+00  0.00000000E+00  0.00000000E+00  0.00000000E+00  0.00000000E+00
  0.00000000E+00  0.00000000E+00  0.00000000E+00  0.00000000E+00  0.00000000E+00
  0.00000000E+00  0.00000000E+00  0.00000000E+00  0.00000000E+00  0.00000000E+00
  0.00000000E+00  0.00000000E+00  0.00000000E+00  0.00000000E+00  0.00000000E+00
  0.00000000E+00  0.00000000E+00  0.00000000E+00  0.00000000E+00  0.00000000E+00
  0.00000000E+00  0.00000000E+00  0.00000000E+00  0.00000000E+00  0.00000000E+00
  0.00000000E+00  0.00000000E+00  0.00000000E+00  0.00000000E+00  0.00000000E+00
  0.00000000E+00  0.00000000E+00  0.00000000E+00  0.00000000E+00  0.00000000E+00
  0.00000000E+00  0.00000000E+00  0.00000000E+00  0.00000000E+00  0.00000000E+00
  0.00000000E+00  0.00000000E+00  0.00000000E+00  0.00000000E+00  0.00000000E+00
  0.00000000E+00  0.00000000E+00  0.00000000E+00  0.00000000E+00  0.00000000E+00
  0.00000000E+00  0.00000000E+00  0.00000000E+00  0.00000000E+00  0.00000000E+00
  0.00000000E+00  0.00000000E+00  0.00000000E+00  0.00000000E+00  0.00000000E+00
  0.00000000E+00  0.00000000E+00  0.00000000E+00  0.00000000E+00  0.00000000E+00
  0.00000000E+00  0.00000000E+00  0.00000000E+00  0.00000000E+00  0.00000000E+00
  0.00000000E+00  0.00000000E+00  0.00000000E+00  0.00000000E+00  0.00000000E+00
  0.00000000E+00  0.00000000E+00  0.00000000E+00  0.00000000E+00  0.00000000E+00
  0.00000000E+00  0.00000000E+00  0.00000000E+00  0.00000000E+00  0.00000000E+00
  0.00000000E+00  0.00000000E+00  0.00000000E+00  0.00000000E+00  0.00000000E+00
  0.00000000E+00  0.00000000E+00  0.00000000E+00  0.00000000E+00  0.00000000E+00
  0.00000000E+00  0.00000000E+00  0.00000000E+00  0.00000000E+00  0.00000000E+00
  0.00000000E+00  0.00000000E+00  0.00000000E+00  0.00000000E+00  0.00000000E+00
  0.00000000E+00  0.00000000E+00  0.00000000E+00  0.00000000E+00  0.00000000E+00
  0.00000000E+00  0.00000000E+00  0.00000000E+00  0.00000000E+00  0.00000000E+00
  0.00000000E+00  0.00000000E+00  0.00000000E+00  0.00000000E+00  0.00000000E+00
  0.00000000E+00  0.00000000E+00  0.00000000E+00  0.00000000E+00  0.00000000E+00
  0.00000000E+00  0.00000000E+00  0.00000000E+00  0.00000000E+00  0.00000000E+00
  0.00000000E+00  0.00000000E+00  0.00000000E+00  0.00000000E+00  0.00000000E+00
  0.00000000E+00  0.00000000E+00  0.00000000E+00  0.00000000E+00  0.00000000E+00
  0.00000000E+00  0.00000000E+00  0.00000000E+00  0.00000000E+00  0.00000000E+00
  0.00000000E+00  0.00000000E+00  0.00000000E+00  0.00000000E+00  0.00000000E+00
  0.00000000E+00  0.00000000E+00  0.00000000E+00  0.00000000E+00  0.00000000E+00
  0.00000000E+00  0.00000000E+00  0.00000000E+00  0.00000000E+00  0.00000000E+00
  0.00000000E+00  0.00000000E+00  0.00000000E+00  0.00000000E+00  0.00000000E+00
  0.00000000E+00  0.00000000E+00  0.00000000E+00  0.00000000E+00  0.00000000E+00
  0.00000000E+00  0.00000000E+00  0.00000000E+00  0.00000000E+00  0.00000000E+00
  0.00000000E+00  0.00000000E+00  0.00000000E+00  0.00000000E+00  0.00000000E+00
  0.00000000E+00  0.00000000E+00  0.00000000E+00  0.00000000E+00  0.00000000E+00
  0.00000000E+00  0.00000000E+00  0.00000000E+00  0.00000000E+00  0.00000000E+00
  0.00000000E+00  0.00000000E+00  0.00000000E+00  0.00000000E+00  0.00000000E+00
  0.00000000E+00  0.00000000E+00  0.00000000E+00  0.00000000E+00  0.00000000E+00
  0.00000000E+00  0.00000000E+00  0.00000000E+00  0.00000000E+00  0.00000000E+00
  0.00000000E+00  0.00000000E+00  0.00000000E+00  0.00000000E+00  0.00000000E+00
  0.00000000E+00  0.00000000E+00  0.00000000E+00  0.00000000E+00  0.00000000E+00
  0.00000000E+00  0.00000000E+00  0.00000000E+00  0.00000000E+00  0.00000000E+00
  0.00000000E+00  0.00000000E+00  0.00000000E+00  0.00000000E+00  0.00000000E+00
  0.00000000E+00  0.00000000E+00  0.00000000E+00  0.00000000E+00  0.00000000E+00
  0.00000000E+00  0.00000000E+00  0.00000000E+00  0.00000000E+00  0.00000000E+00
  0.00000000E+00  0.00000000E+00  0.00000000E+00  0.00000000E+00  0.00000000E+00
  0.00000000E+00  0.00000000E+00  0.00000000E+00  0.00000000E+00  0.00000000E+00
  0.00000000E+00  0.00000000E+00  0.00000000E+00  0.00000000E+00  0.00000000E+00
  0.00000000E+00  0.00000000E+00  0.00000000E+00  0.00000000E+00  0.00000000E+00
  0.00000000E+00  0.00000000E+00  0.00000000E+00  0.00000000E+00  0.00000000E+00
  0.00000000E+00  0.00000000E+00  0.00000000E+00  0.00000000E+00  0.00000000E+00
  0.00000000E+00  0.00000000E+00  0.00000000E+00  0.00000000E+00  0.00000000E+00
  0.00000000E+00  0.00000000E+00  0.00000000E+00  0.00000000E+00  0.00000000E+00
  0.00000000E+00  0.00000000E+00  0.00000000E+00  0.00000000E+00  0.00000000E+00
  0.00000000E+00  0.00000000E+00  0.00000000E+00  0.00000000E+00  0.00000000E+00
  0.00000000E+00  0.00000000E+00  0.00000000E+00  0.00000000E+00  0.00000000E+00
  0.00000000E+00  0.00000000E+00  0.00000000E+00  0.00000000E+00  0.00000000E+00
  0.00000000E+00  0.00000000E+00  0.00000000E+00  0.00000000E+00  0.00000000E+00
  0.00000000E+00  0.00000000E+00  0.00000000E+00  0.00000000E+00  0.00000000E+00
  0.00000000E+00  0.00000000E+00  0.00000000E+00  0.00000000E+00  0.00000000E+00
  0.00000000E+00  0.00000000E+00  0.00000000E+00  0.00000000E+00  0.00000000E+00
  0.00000000E+00  0.00000000E+00  0.00000000E+00  0.00000000E+00  0.00000000E+00
  0.00000000E+00  0.00000000E+00  0.00000000E+00  0.00000000E+00  0.00000000E+00
  0.00000000E+00  0.00000000E+00  0.00000000E+00  0.00000000E+00  0.00000000E+00
  0.00000000E+00  0.00000000E+00  0.00000000E+00  0.00000000E+00  0.00000000E+00
  0.00000000E+00  0.00000000E+00  0.00000000E+00  0.00000000E+00  0.00000000E+00
  0.00000000E+00  0.00000000E+00  0.00000000E+00  0.00000000E+00  0.00000000E+00
  0.00000000E+00  0.00000000E+00  0.00000000E+00  0.00000000E+00  0.00000000E+00
  0.00000000E+00  0.00000000E+00  0.00000000E+00  0.00000000E+00  0.00000000E+00
  0.00000000E+00  0.00000000E+00  0.00000000E+00  0.00000000E+00  0.00000000E+00
  0.00000000E+00  0.00000000E+00  0.00000000E+00  0.00000000E+00  0.00000000E+00
  0.00000000E+00  0.00000000E+00  0.00000000E+00  0.00000000E+00  0.00000000E+00
  0.00000000E+00  0.00000000E+00  0.00000000E+00  0.00000000E+00  0.00000000E+00
  0.00000000E+00  0.00000000E+00  0.00000000E+00  0.00000000E+00  0.00000000E+00
  0.00000000E+00  0.00000000E+00  0.00000000E+00  0.00000000E+00  0.00000000E+00
  0.00000000E+00  0.00000000E+00  0.00000000E+00  0.00000000E+00  0.00000000E+00
  0.00000000E+00  0.00000000E+00  0.00000000E+00  0.00000000E+00  0.00000000E+00
  0.00000000E+00  0.00000000E+00  0.00000000E+00  0.00000000E+00  0.00000000E+00
  0.00000000E+00  0.00000000E+00  0.00000000E+00  0.00000000E+00  0.00000000E+00
  0.00000000E+00  0.00000000E+00  0.00000000E+00  0.00000000E+00  0.00000000E+00
  0.00000000E+00  0.00000000E+00  0.00000000E+00  0.00000000E+00  0.00000000E+00
  0.00000000E+00  0.00000000E+00  0.00000000E+00  0.00000000E+00  0.00000000E+00
  0.00000000E+00  0.00000000E+00  0.00000000E+00  0.00000000E+00  0.00000000E+00
  0.00000000E+00  0.00000000E+00  0.00000000E+00  0.00000000E+00  0.00000000E+00
  0.00000000E+00  0.00000000E+00  0.00000000E+00  0.00000000E+00  0.00000000E+00
  0.00000000E+00  0.00000000E+00  0.00000000E+00  0.00000000E+00  0.00000000E+00
  0.00000000E+00  0.00000000E+00  0.00000000E+00  0.00000000E+00  0.00000000E+00
  0.00000000E+00  0.00000000E+00  0.00000000E+00  0.00000000E+00  0.00000000E+00
  0.00000000E+00  0.00000000E+00  0.00000000E+00  0.00000000E+00  0.00000000E+00
  0.00000000E+00  0.00000000E+00  0.00000000E+00  0.00000000E+00  0.00000000E+00
  0.00000000E+00  0.00000000E+00  0.00000000E+00  0.00000000E+00  0.00000000E+00
  0.00000000E+00  0.00000000E+00  0.00000000E+00  0.00000000E+00  0.00000000E+00
  0.00000000E+00  0.00000000E+00  0.00000000E+00  0.00000000E+00  0.00000000E+00
  0.00000000E+00  0.00000000E+00  0.00000000E+00  0.00000000E+00  0.00000000E+00
  0.00000000E+00  0.00000000E+00  0.00000000E+00  0.00000000E+00  0.00000000E+00
  0.00000000E+00  0.00000000E+00  0.00000000E+00  0.00000000E+00  0.00000000E+00
  0.00000000E+00  0.00000000E+00  0.00000000E+00  0.00000000E+00  0.00000000E+00
  0.00000000E+00  0.00000000E+00  0.00000000E+00  0.00000000E+00  0.00000000E+00
  0.00000000E+00  0.00000000E+00  0.00000000E+00  0.00000000E+00  0.00000000E+00
  0.00000000E+00  0.00000000E+00  0.00000000E+00  0.00000000E+00  0.00000000E+00
  0.00000000E+00  0.00000000E+00  0.00000000E+00  0.00000000E+00  0.00000000E+00
  0.00000000E+00  0.00000000E+00  0.00000000E+00  0.00000000E+00  0.00000000E+00
  0.00000000E+00  0.00000000E+00  0.00000000E+00  0.00000000E+00  0.00000000E+00
  0.00000000E+00  0.00000000E+00  0.00000000E+00  0.00000000E+00  0.00000000E+00
  0.00000000E+00  0.00000000E+00  0.00000000E+00  0.00000000E+00  0.00000000E+00
  0.00000000E+00  0.00000000E+00  0.00000000E+00  0.00000000E+00  0.00000000E+00
  0.00000000E+00  0.00000000E+00  0.00000000E+00  0.00000000E+00  0.00000000E+00
  0.00000000E+00  0.00000000E+00  0.00000000E+00  0.00000000E+00  0.00000000E+00
  0.00000000E+00  0.00000000E+00  0.00000000E+00  0.00000000E+00  0.00000000E+00
  0.00000000E+00  0.00000000E+00  0.00000000E+00  0.00000000E+00  0.00000000E+00
  0.00000000E+00  0.00000000E+00  0.00000000E+00  0.00000000E+00  0.00000000E+00
  0.00000000E+00  0.00000000E+00  0.00000000E+00  0.00000000E+00  0.00000000E+00
  0.00000000E+00  0.00000000E+00  0.00000000E+00  0.00000000E+00  0.00000000E+00
  0.00000000E+00  0.00000000E+00  0.00000000E+00  0.00000000E+00  0.00000000E+00
  0.00000000E+00  0.00000000E+00  0.00000000E+00  0.00000000E+00  0.00000000E+00
  0.00000000E+00  0.00000000E+00  0.00000000E+00  0.00000000E+00  0.00000000E+00
  0.00000000E+00  0.00000000E+00  0.00000000E+00  0.00000000E+00  0.00000000E+00
  0.00000000E+00  0.00000000E+00  0.00000000E+00  0.00000000E+00  0.00000000E+00
  0.00000000E+00  0.00000000E+00  0.00000000E+00  0.00000000E+00  0.00000000E+00
  0.00000000E+00  0.00000000E+00  0.00000000E+00  0.00000000E+00  0.00000000E+00
  0.00000000E+00  0.00000000E+00  0.00000000E+00  0.00000000E+00  0.00000000E+00
  0.00000000E+00  0.00000000E+00  0.00000000E+00  0.00000000E+00  0.00000000E+00
  0.00000000E+00  0.00000000E+00  0.00000000E+00  0.00000000E+00  0.00000000E+00
  0.00000000E+00  0.00000000E+00  0.00000000E+00  0.00000000E+00  0.00000000E+00
  0.00000000E+00  0.00000000E+00  0.00000000E+00  0.00000000E+00  0.00000000E+00
  0.00000000E+00  0.00000000E+00  0.00000000E+00  0.00000000E+00  0.00000000E+00
  0.00000000E+00  0.00000000E+00  0.00000000E+00  0.00000000E+00  0.00000000E+00
  0.00000000E+00  0.00000000E+00  0.00000000E+00  0.00000000E+00  0.00000000E+00
  0.00000000E+00  0.00000000E+00  0.00000000E+00  0.00000000E+00  0.00000000E+00
  0.00000000E+00  0.00000000E+00  0.00000000E+00  0.00000000E+00  0.00000000E+00
  0.00000000E+00  0.00000000E+00  0.00000000E+00  0.00000000E+00  0.00000000E+00
  0.00000000E+00  0.00000000E+00  0.00000000E+00  0.00000000E+00  0.00000000E+00
  0.00000000E+00  0.00000000E+00  0.00000000E+00  0.00000000E+00  0.00000000E+00
  0.00000000E+00  0.00000000E+00  0.00000000E+00  0.00000000E+00  0.00000000E+00
  0.00000000E+00  0.00000000E+00  0.00000000E+00  0.00000000E+00  0.00000000E+00
  0.00000000E+00  0.00000000E+00  0.00000000E+00  0.00000000E+00  0.00000000E+00
  0.00000000E+00  0.00000000E+00  0.00000000E+00  0.00000000E+00  0.00000000E+00
  0.00000000E+00  0.00000000E+00  0.00000000E+00  0.00000000E+00  0.00000000E+00
  0.00000000E+00  0.00000000E+00  0.00000000E+00  0.00000000E+00  0.00000000E+00
  0.00000000E+00  0.00000000E+00  0.00000000E+00  0.00000000E+00  0.00000000E+00
  0.00000000E+00  0.00000000E+00  0.00000000E+00  0.00000000E+00  0.00000000E+00
  0.00000000E+00  0.00000000E+00  0.00000000E+00  0.00000000E+00  0.00000000E+00
  0.00000000E+00  0.00000000E+00  0.00000000E+00  0.00000000E+00  0.00000000E+00
  0.00000000E+00  0.00000000E+00  0.00000000E+00  0.00000000E+00  0.00000000E+00
  0.00000000E+00  0.00000000E+00  0.00000000E+00  0.00000000E+00  0.00000000E+00
  0.00000000E+00  0.00000000E+00  0.00000000E+00  0.00000000E+00  0.00000000E+00
  0.00000000E+00  0.00000000E+00  0.00000000E+00  0.00000000E+00  0.00000000E+00
  0.00000000E+00  0.00000000E+00  0.00000000E+00  0.00000000E+00  0.00000000E+00
  0.00000000E+00  0.00000000E+00  0.00000000E+00  0.00000000E+00  0.00000000E+00
  0.00000000E+00  0.00000000E+00  0.00000000E+00  0.00000000E+00  0.00000000E+00
  0.00000000E+00  0.00000000E+00  0.00000000E+00  0.00000000E+00  0.00000000E+00
  0.00000000E+00  0.00000000E+00  0.00000000E+00  0.00000000E+00  0.00000000E+00
  0.00000000E+00  0.00000000E+00  0.00000000E+00  0.00000000E+00  0.00000000E+00
  0.00000000E+00  0.00000000E+00  0.00000000E+00  0.00000000E+00  0.00000000E+00
  0.00000000E+00  0.00000000E+00  0.00000000E+00  0.00000000E+00  0.00000000E+00
  0.00000000E+00  0.00000000E+00  0.00000000E+00  0.00000000E+00  0.00000000E+00
  0.00000000E+00  0.00000000E+00  0.00000000E+00  0.00000000E+00  0.00000000E+00
  0.00000000E+00  0.00000000E+00  0.00000000E+00  0.00000000E+00  0.00000000E+00
  0.00000000E+00  0.00000000E+00  0.00000000E+00  0.00000000E+00  0.00000000E+00
  0.00000000E+00  0.00000000E+00  0.00000000E+00  0.00000000E+00  0.00000000E+00
  0.00000000E+00  0.00000000E+00  0.00000000E+00  0.00000000E+00  0.00000000E+00
  0.00000000E+00  0.00000000E+00  0.00000000E+00  0.00000000E+00  0.00000000E+00
  0.00000000E+00  0.00000000E+00  0.00000000E+00  0.00000000E+00  0.00000000E+00
  0.00000000E+00  0.00000000E+00  0.00000000E+00  0.00000000E+00  0.00000000E+00
  0.00000000E+00  0.00000000E+00  0.00000000E+00  0.00000000E+00  0.00000000E+00
  0.00000000E+00  0.00000000E+00  0.00000000E+00  0.00000000E+00  0.00000000E+00
  0.00000000E+00  0.00000000E+00  0.00000000E+00  0.00000000E+00  0.00000000E+00
  0.00000000E+00  0.00000000E+00  0.00000000E+00  0.00000000E+00  0.00000000E+00
  0.00000000E+00  0.00000000E+00  0.00000000E+00  0.00000000E+00  0.00000000E+00
  0.00000000E+00  0.00000000E+00  0.00000000E+00  0.00000000E+00  0.00000000E+00
  0.00000000E+00  0.00000000E+00  0.00000000E+00  0.00000000E+00  0.00000000E+00
  0.00000000E+00  0.00000000E+00  0.00000000E+00  0.00000000E+00  0.00000000E+00
  0.00000000E+00  0.00000000E+00  0.00000000E+00  0.00000000E+00  0.00000000E+00
  0.00000000E+00  0.00000000E+00  0.00000000E+00  0.00000000E+00  0.00000000E+00
  0.00000000E+00  0.00000000E+00  0.00000000E+00  0.00000000E+00  0.00000000E+00
  0.00000000E+00  0.00000000E+00  0.00000000E+00  0.00000000E+00  0.00000000E+00
  0.00000000E+00  0.00000000E+00  0.00000000E+00  0.00000000E+00  0.00000000E+00
  0.00000000E+00  0.00000000E+00  0.00000000E+00  0.00000000E+00  0.00000000E+00
  0.00000000E+00  0.00000000E+00  0.00000000E+00  0.00000000E+00  0.00000000E+00
  0.00000000E+00  0.00000000E+00  0.00000000E+00  0.00000000E+00  0.00000000E+00
  0.00000000E+00  0.00000000E+00  0.00000000E+00  0.00000000E+00  0.00000000E+00
  0.00000000E+00  0.00000000E+00  0.00000000E+00  0.00000000E+00  0.00000000E+00
  0.00000000E+00  0.00000000E+00  0.00000000E+00  0.00000000E+00  0.00000000E+00
  0.00000000E+00  0.00000000E+00  0.00000000E+00  0.00000000E+00  0.00000000E+00
  0.00000000E+00  0.00000000E+00  0.00000000E+00  0.00000000E+00  0.00000000E+00
  0.00000000E+00  0.00000000E+00  0.00000000E+00  0.00000000E+00  0.00000000E+00
  0.00000000E+00  0.00000000E+00  0.00000000E+00  0.00000000E+00  0.00000000E+00
  0.00000000E+00  0.00000000E+00  0.00000000E+00  0.00000000E+00  0.00000000E+00
  0.00000000E+00  0.00000000E+00  0.00000000E+00  0.00000000E+00  0.00000000E+00
  0.00000000E+00  0.00000000E+00  0.00000000E+00  0.00000000E+00  0.00000000E+00
  0.00000000E+00  0.00000000E+00  0.00000000E+00  0.00000000E+00  0.00000000E+00
  0.00000000E+00  0.00000000E+00  0.00000000E+00  0.00000000E+00  0.00000000E+00
  0.00000000E+00  0.00000000E+00  0.00000000E+00  0.00000000E+00  0.00000000E+00
  0.00000000E+00  0.00000000E+00  0.00000000E+00  0.00000000E+00  0.00000000E+00
  0.00000000E+00  0.00000000E+00  0.00000000E+00  0.00000000E+00  0.00000000E+00
  0.00000000E+00  0.00000000E+00  0.00000000E+00  0.00000000E+00  0.00000000E+00
  0.00000000E+00  0.00000000E+00  0.00000000E+00  0.00000000E+00  0.00000000E+00
  0.00000000E+00  0.00000000E+00  0.00000000E+00  0.00000000E+00  0.00000000E+00
  0.00000000E+00  0.00000000E+00  0.00000000E+00  0.00000000E+00  0.00000000E+00
  0.00000000E+00  0.00000000E+00  0.00000000E+00  0.00000000E+00  0.00000000E+00
  0.00000000E+00  0.00000000E+00  0.00000000E+00  0.00000000E+00  0.00000000E+00
  0.00000000E+00  0.00000000E+00  0.00000000E+00  0.00000000E+00  0.00000000E+00
  0.00000000E+00  0.00000000E+00  0.00000000E+00  0.00000000E+00  0.00000000E+00
  0.00000000E+00  0.00000000E+00  0.00000000E+00  0.00000000E+00  0.00000000E+00
  0.00000000E+00  0.00000000E+00  0.00000000E+00  0.00000000E+00  0.00000000E+00
  0.00000000E+00  0.00000000E+00  0.00000000E+00  0.00000000E+00  0.00000000E+00
  0.00000000E+00  0.00000000E+00  0.00000000E+00  0.00000000E+00  0.00000000E+00
  0.00000000E+00  0.00000000E+00  0.00000000E+00  0.00000000E+00  0.00000000E+00
  0.00000000E+00  0.00000000E+00  0.00000000E+00  0.00000000E+00  0.00000000E+00
  0.00000000E+00  0.00000000E+00  0.00000000E+00  0.00000000E+00  0.00000000E+00
  0.00000000E+00  0.00000000E+00  0.00000000E+00  0.00000000E+00  0.00000000E+00
  0.00000000E+00  0.00000000E+00  0.00000000E+00  0.00000000E+00  0.00000000E+00
  0.00000000E+00  0.00000000E+00  0.00000000E+00  0.00000000E+00  0.00000000E+00
  0.00000000E+00  0.00000000E+00  0.00000000E+00  0.00000000E+00  0.00000000E+00
  0.00000000E+00  0.00000000E+00  0.00000000E+00  0.00000000E+00  0.00000000E+00
  0.00000000E+00  0.00000000E+00  0.00000000E+00  0.00000000E+00  0.00000000E+00
Gaussian Version                           C   N=           2
ES64L-GDVRevJ.28        
