%chk=test_parall.chk
%nprocs=1
#p force output=pickett External="CentralExt gau $PGAU/test_pr.dat $EGAU/test_en.dat 2 20 read parall 6"  

title

0 1
 C                 -0.00000000    0.00000000   -0.00000000
 H                 -0.00000000   -0.00000000    1.06792879
 H                 -0.00000000   -1.00685292   -0.35597626
 H                 -0.87196021    0.50342646   -0.35597626
 H                  0.87196021    0.50342646   -0.35597626

--link1--
%chk=test_parall.chk
%nprocs=1
#p force hf/sto-3g

title

0 1
 C                 -0.00000000    0.00000000   -0.00000000
 H                 -0.00000000   -0.00000000    1.06792879
 H                 -0.00000000   -1.00685292   -0.35597626
 H                 -0.87196021    0.50342646   -0.35597626
 H                  0.87196021    0.50342646   -0.35597626

