 Entering Gaussian System, Link 0=g16
 Input=GauExternal.gjf
 Output=GauExternal.log
 Initial command:
 /gaussian/g16.c01/intel64-sandybridge/g16/l1.exe "/home/barone/lcrisci_vb/ACTUAL_PROJECTS/MRCC_new_Interface_project/TestingOldVersion/Symmetry/Acetaldehyde_Cs/Iterations/Iteration_1/task_atom_3_ixyz_1_down/Gau-4151341.inp" -scrdir="/home/barone/lcrisci_vb/ACTUAL_PROJECTS/MRCC_new_Interface_project/TestingOldVersion/Symmetry/Acetaldehyde_Cs/Iterations/Iteration_1/task_atom_3_ixyz_1_down/"
 Entering Link 1 = /gaussian/g16.c01/intel64-sandybridge/g16/l1.exe PID=   4151343.
  
 Copyright (c) 1988-2019, Gaussian, Inc.  All Rights Reserved.
  
 This is part of the Gaussian(R) 16 program.  It is based on
 the Gaussian(R) 09 system (copyright 2009, Gaussian, Inc.),
 the Gaussian(R) 03 system (copyright 2003, Gaussian, Inc.),
 the Gaussian(R) 98 system (copyright 1998, Gaussian, Inc.),
 the Gaussian(R) 94 system (copyright 1995, Gaussian, Inc.),
 the Gaussian 92(TM) system (copyright 1992, Gaussian, Inc.),
 the Gaussian 90(TM) system (copyright 1990, Gaussian, Inc.),
 the Gaussian 88(TM) system (copyright 1988, Gaussian, Inc.),
 the Gaussian 86(TM) system (copyright 1986, Carnegie Mellon
 University), and the Gaussian 82(TM) system (copyright 1983,
 Carnegie Mellon University). Gaussian is a federally registered
 trademark of Gaussian, Inc.
  
 This software contains proprietary and confidential information,
 including trade secrets, belonging to Gaussian, Inc.
  
 This software is provided under written license and may be
 used, copied, transmitted, or stored only in accord with that
 written license.
  
 The following legend is applicable only to US Government
 contracts under FAR:
  
                    RESTRICTED RIGHTS LEGEND
  
 Use, reproduction and disclosure by the US Government is
 subject to restrictions as set forth in subparagraphs (a)
 and (c) of the Commercial Computer Software - Restricted
 Rights clause in FAR 52.227-19.
  
 Gaussian, Inc.
 340 Quinnipiac St., Bldg. 40, Wallingford CT 06492
  
  
 ---------------------------------------------------------------
 Warning -- This program may not be used in any manner that
 competes with the business of Gaussian, Inc. or will provide
 assistance to any competitor of Gaussian, Inc.  The licensee
 of this program is prohibited from giving any competitor of
 Gaussian, Inc. access to this program.  By using this program,
 the user acknowledges that Gaussian, Inc. is engaged in the
 business of creating and licensing software in the field of
 computational chemistry and represents and warrants to the
 licensee that it is not a competitor of Gaussian, Inc. and that
 it will not use this program in any manner prohibited above.
 ---------------------------------------------------------------
  

 Cite this work as:
 Gaussian 16, Revision C.01,
 M. J. Frisch, G. W. Trucks, H. B. Schlegel, G. E. Scuseria, 
 M. A. Robb, J. R. Cheeseman, G. Scalmani, V. Barone, 
 G. A. Petersson, H. Nakatsuji, X. Li, M. Caricato, A. V. Marenich, 
 J. Bloino, B. G. Janesko, R. Gomperts, B. Mennucci, H. P. Hratchian, 
 J. V. Ortiz, A. F. Izmaylov, J. L. Sonnenberg, D. Williams-Young, 
 F. Ding, F. Lipparini, F. Egidi, J. Goings, B. Peng, A. Petrone, 
 T. Henderson, D. Ranasinghe, V. G. Zakrzewski, J. Gao, N. Rega, 
 G. Zheng, W. Liang, M. Hada, M. Ehara, K. Toyota, R. Fukuda, 
 J. Hasegawa, M. Ishida, T. Nakajima, Y. Honda, O. Kitao, H. Nakai, 
 T. Vreven, K. Throssell, J. A. Montgomery, Jr., J. E. Peralta, 
 F. Ogliaro, M. J. Bearpark, J. J. Heyd, E. N. Brothers, K. N. Kudin, 
 V. N. Staroverov, T. A. Keith, R. Kobayashi, J. Normand, 
 K. Raghavachari, A. P. Rendell, J. C. Burant, S. S. Iyengar, 
 J. Tomasi, M. Cossi, J. M. Millam, M. Klene, C. Adamo, R. Cammi, 
 J. W. Ochterski, R. L. Martin, K. Morokuma, O. Farkas, 
 J. B. Foresman, and D. J. Fox, Gaussian, Inc., Wallingford CT, 2019.
 
 ******************************************
 Gaussian 16:  ES64L-G16RevC.01  3-Jul-2019
                19-Nov-2025 
 ******************************************
 %nproc=7
 Will use up to    7 processors via shared memory.
 %mem=55GB
 %chk=GauExternal.chk
 --------------------
 #P hf/sto-3g scf=xqc
 --------------------
 1/38=1,172=1/1;
 2/12=2,17=6,18=5,40=1/2;
 3/6=3,11=9,25=1,30=1/1,2,3;
 4//1;
 5/5=2,8=3,13=1,38=5/2,8;
 6/7=2,8=2,9=2,10=2,28=1/1;
 99/5=1,9=1/99;
 Leave Link    1 at Wed Nov 19 18:08:59 2025, MaxMem=  7381975040 cpu:               0.0 elap:               0.2
 (Enter /gaussian/g16.c01/intel64-sandybridge/g16/l101.exe)
 --------------------
 External Calculation
 --------------------
 Symbolic Z-matrix:
 Charge =  0 Multiplicity = 1
 C                    -0.94209  -0.71548   0. 
 C                     0.        0.46409   0. 
 O                     1.21437   0.37902   0. 
 H                    -1.59596  -0.66629   0.88766 
 H                    -0.37361  -1.65656   0. 
 H                    -1.59596  -0.66629  -0.88766 
 H                    -0.50487   1.46534   0. 
 
 ITRead=  0  0  0  0  0  0  0
 MicOpt= -1 -1 -1 -1 -1 -1 -1
 NAtoms=      7 NQM=        7 NQMF=       0 NMMI=      0 NMMIF=      0
                NMic=       0 NMicF=      0.
                    Isotopes and Nuclear Properties:
 (Nuclear quadrupole moments (NQMom) in fm**2, nuclear magnetic moments (NMagM)
  in nuclear magnetons)

  Atom         1           2           3           4           5           6           7
 IAtWgt=          12          12          16           1           1           1           1
 AtmWgt=  12.0000000  12.0000000  15.9949146   1.0078250   1.0078250   1.0078250   1.0078250
 NucSpn=           0           0           0           1           1           1           1
 AtZEff=  -0.0000000  -0.0000000  -0.0000000  -0.0000000  -0.0000000  -0.0000000  -0.0000000
 NQMom=    0.0000000   0.0000000   0.0000000   0.0000000   0.0000000   0.0000000   0.0000000
 NMagM=    0.0000000   0.0000000   0.0000000   2.7928460   2.7928460   2.7928460   2.7928460
 AtZNuc=   6.0000000   6.0000000   8.0000000   1.0000000   1.0000000   1.0000000   1.0000000
 Leave Link  101 at Wed Nov 19 18:09:00 2025, MaxMem=  7381975040 cpu:               0.2 elap:               0.2
 (Enter /gaussian/g16.c01/intel64-sandybridge/g16/l202.exe)
                          Input orientation:                          
 ---------------------------------------------------------------------
 Center     Atomic      Atomic             Coordinates (Angstroms)
 Number     Number       Type             X           Y           Z
 ---------------------------------------------------------------------
      1          6           0       -0.942090   -0.715484    0.000000
      2          6           0        0.000000    0.464094    0.000000
      3          8           0        1.214368    0.379018    0.000000
      4          1           0       -1.595964   -0.666292    0.887665
      5          1           0       -0.373608   -1.656556    0.000000
      6          1           0       -1.595964   -0.666292   -0.887665
      7          1           0       -0.504869    1.465338    0.000000
 ---------------------------------------------------------------------
                    Distance matrix (angstroms):
                    1          2          3          4          5
     1  C    0.000000
     2  C    1.509615   0.000000
     3  O    2.418315   1.217345   0.000000
     4  H    1.103594   2.147748   3.127074   0.000000
     5  H    1.099448   2.153308   2.581711   1.806302   0.000000
     6  H    1.103594   2.147748   3.127074   1.775330   1.806302
     7  H    2.224219   1.121331   2.033683   2.553876   3.124652
                    6          7
     6  H    0.000000
     7  H    2.553876   0.000000
 Stoichiometry    C2H4O
 Framework group  CS[SG(C2H2O),X(H2)]
 Deg. of freedom    10
 Full point group                 CS      NOp   2
 Largest Abelian subgroup         CS      NOp   2
 Largest concise Abelian subgroup CS      NOp   2
                         Standard orientation:                         
 ---------------------------------------------------------------------
 Center     Atomic      Atomic             Coordinates (Angstroms)
 Number     Number       Type             X           Y           Z
 ---------------------------------------------------------------------
      1          6           0       -0.941242   -0.716161    0.000000
      2          6           0        0.000000    0.464094    0.000000
      3          8           0        1.214429    0.379891    0.000000
      4          1           0       -1.595152   -0.667438    0.887665
      5          1           0       -0.372085   -1.656823    0.000000
      6          1           0       -1.595152   -0.667438   -0.887665
      7          1           0       -0.505588    1.464976    0.000000
 ---------------------------------------------------------------------
 Rotational constants (GHZ):          56.1832058          10.0308441           8.9923109
 Leave Link  202 at Wed Nov 19 18:09:00 2025, MaxMem=  7381975040 cpu:               0.0 elap:               0.0
 (Enter /gaussian/g16.c01/intel64-sandybridge/g16/l301.exe)
 Standard basis: STO-3G (5D, 7F)
 Ernie: Thresh=  0.10000D-02 Tol=  0.10000D-05 Strict=F.
 There are    15 symmetry adapted cartesian basis functions of A'  symmetry.
 There are     4 symmetry adapted cartesian basis functions of A"  symmetry.
 There are    15 symmetry adapted basis functions of A'  symmetry.
 There are     4 symmetry adapted basis functions of A"  symmetry.
    19 basis functions,    57 primitive gaussians,    19 cartesian basis functions
    12 alpha electrons       12 beta electrons
       nuclear repulsion energy        69.2171001116 Hartrees.
 IExCor=    0 DFT=F Ex=HF Corr=None ExCW=0 ScaHFX=  1.000000
 ScaDFX=  1.000000  1.000000  1.000000  1.000000 ScalE2=  1.000000  1.000000
 IRadAn=      5 IRanWt=     -1 IRanGd=            0 ICorTp=0 IEmpDi=  4
 NAtoms=    7 NActive=    7 NUniq=    6 SFac= 1.36D+00 NAtFMM=   60 NAOKFM=F Big=F
 Integral buffers will be    131072 words long.
 Raffenetti 1 integral format.
 Two-electron integral symmetry is turned on.
 Leave Link  301 at Wed Nov 19 18:09:00 2025, MaxMem=  7381975040 cpu:               0.1 elap:               0.1
 (Enter /gaussian/g16.c01/intel64-sandybridge/g16/l302.exe)
 NPDir=0 NMtPBC=     1 NCelOv=     1 NCel=       1 NClECP=     1 NCelD=      1
         NCelK=      1 NCelE2=     1 NClLst=     1 CellRange=     0.0.
 One-electron integrals computed using PRISM.
 One-electron integral symmetry used in STVInt
 NBasis=    19 RedAO= T EigKep=  2.20D-01  NBF=    15     4
 NBsUse=    19 1.00D-06 EigRej= -1.00D+00 NBFU=    15     4
 Leave Link  302 at Wed Nov 19 18:09:00 2025, MaxMem=  7381975040 cpu:               0.2 elap:               0.1
 (Enter /gaussian/g16.c01/intel64-sandybridge/g16/l303.exe)
 DipDrv:  MaxL=1.
 Leave Link  303 at Wed Nov 19 18:09:00 2025, MaxMem=  7381975040 cpu:               0.1 elap:               0.1
 (Enter /gaussian/g16.c01/intel64-sandybridge/g16/l401.exe)
 ExpMin= 1.69D-01 ExpMax= 1.31D+02 ExpMxC= 1.31D+02 IAcc=3 IRadAn=         5 AccDes= 0.00D+00
 Harris functional with IExCor=  205 and IRadAn=       5 diagonalized for initial guess.
 HarFok:  IExCor=  205 AccDes= 0.00D+00 IRadAn=         5 IDoV= 1 UseB2=F ITyADJ=14
 ICtDFT=  3500011 ScaDFX=  1.000000  1.000000  1.000000  1.000000
 FoFCou: FMM=F IPFlag=           0 FMFlag=      100000 FMFlg1=           0
         NFxFlg=           0 DoJE=T BraDBF=F KetDBF=T FulRan=T
         wScrn=  0.000000 ICntrl=       500 IOpCl=  0 I1Cent=   200000004 NGrid=           0
         NMat0=    1 NMatS0=      1 NMatT0=    0 NMatD0=    1 NMtDS0=    0 NMtDT0=    0
 Petite list used in FoFCou.
 Harris En= -151.088698849350    
 JPrj=0 DoOrth=F DoCkMO=F.
 Initial guess orbital symmetries:
       Occupied  (A') (A') (A') (A') (A') (A') (A') (A") (A') (A')
                 (A") (A')
       Virtual   (A") (A') (A') (A") (A') (A') (A')
 The electronic state of the initial guess is 1-A'.
 Leave Link  401 at Wed Nov 19 18:09:01 2025, MaxMem=  7381975040 cpu:               0.5 elap:               0.2
 (Enter /gaussian/g16.c01/intel64-sandybridge/g16/l502.exe)
 Keep R1 ints in memory in symmetry-blocked form, NReq=827598.
 FoFCou: FMM=F IPFlag=           0 FMFlag=           0 FMFlg1=           0
         NFxFlg=           0 DoJE=F BraDBF=F KetDBF=F FulRan=T
         wScrn=  0.000000 ICntrl=       600 IOpCl=  0 I1Cent=           0 NGrid=           0
         NMat0=    1 NMatS0=    190 NMatT0=    0 NMatD0=    1 NMtDS0=    0 NMtDT0=    0
 Petite list used in FoFCou.
 Closed shell SCF:
 Using DIIS extrapolation, IDIIS=  1040.
 NGot=  7381975040 LenX=  7381962304 LenY=  7381961422
 Requested convergence on RMS density matrix=1.00D-08 within  32 cycles.
 Requested convergence on MAX density matrix=1.00D-06.
 Requested convergence on             energy=1.00D-06.
 No special actions if energy rises.

 Cycle   1  Pass 1  IDiag  1:
 E= -150.884483758398    
 DIIS: error= 4.57D-02 at cycle   1 NSaved=   1.
 NSaved= 1 IEnMin= 1 EnMin= -150.884483758398     IErMin= 1 ErrMin= 4.57D-02
 ErrMax= 4.57D-02  0.00D+00 EMaxC= 1.00D-01 BMatC= 5.67D-02 BMatP= 5.67D-02
 IDIUse=3 WtCom= 5.43D-01 WtEn= 4.57D-01
 Coeff-Com:  0.100D+01
 Coeff-En:   0.100D+01
 Coeff:      0.100D+01
 Gap=     0.581 Goal=   None    Shift=    0.000
 GapD=    0.581 DampG=2.000 DampE=0.500 DampFc=1.0000 IDamp=-1.
 RMSDP=1.73D-02 MaxDP=1.01D-01              OVMax= 0.00D+00

 Cycle   2  Pass 1  IDiag  1:
 E= -150.941045309083     Delta-E=       -0.056561550685 Rises=F Damp=F
 DIIS: error= 8.37D-03 at cycle   2 NSaved=   2.
 NSaved= 2 IEnMin= 2 EnMin= -150.941045309083     IErMin= 2 ErrMin= 8.37D-03
 ErrMax= 8.37D-03  0.00D+00 EMaxC= 1.00D-01 BMatC= 2.85D-03 BMatP= 5.67D-02
 IDIUse=3 WtCom= 9.16D-01 WtEn= 8.37D-02
 Coeff-Com:  0.100D+00 0.900D+00
 Coeff-En:   0.000D+00 0.100D+01
 Coeff:      0.918D-01 0.908D+00
 Gap=     0.629 Goal=   None    Shift=    0.000
 RMSDP=3.74D-03 MaxDP=1.94D-02 DE=-5.66D-02 OVMax= 0.00D+00

 Cycle   3  Pass 1  IDiag  1:
 E= -150.944068414428     Delta-E=       -0.003023105345 Rises=F Damp=F
 DIIS: error= 5.59D-03 at cycle   3 NSaved=   3.
 NSaved= 3 IEnMin= 3 EnMin= -150.944068414428     IErMin= 3 ErrMin= 5.59D-03
 ErrMax= 5.59D-03  0.00D+00 EMaxC= 1.00D-01 BMatC= 2.00D-04 BMatP= 2.85D-03
 IDIUse=3 WtCom= 9.44D-01 WtEn= 5.59D-02
 Coeff-Com: -0.131D-01 0.115D+00 0.898D+00
 Coeff-En:   0.000D+00 0.000D+00 0.100D+01
 Coeff:     -0.124D-01 0.109D+00 0.903D+00
 Gap=     0.622 Goal=   None    Shift=    0.000
 RMSDP=1.29D-03 MaxDP=1.48D-02 DE=-3.02D-03 OVMax= 0.00D+00

 Cycle   4  Pass 1  IDiag  1:
 E= -150.944436760589     Delta-E=       -0.000368346162 Rises=F Damp=F
 DIIS: error= 1.21D-03 at cycle   4 NSaved=   4.
 NSaved= 4 IEnMin= 4 EnMin= -150.944436760589     IErMin= 4 ErrMin= 1.21D-03
 ErrMax= 1.21D-03  0.00D+00 EMaxC= 1.00D-01 BMatC= 5.52D-05 BMatP= 2.00D-04
 IDIUse=3 WtCom= 9.88D-01 WtEn= 1.21D-02
 Coeff-Com: -0.890D-02-0.480D-01 0.256D+00 0.800D+00
 Coeff-En:   0.000D+00 0.000D+00 0.000D+00 0.100D+01
 Coeff:     -0.879D-02-0.474D-01 0.253D+00 0.803D+00
 Gap=     0.626 Goal=   None    Shift=    0.000
 RMSDP=5.24D-04 MaxDP=3.48D-03 DE=-3.68D-04 OVMax= 0.00D+00

 Cycle   5  Pass 1  IDiag  1:
 E= -150.944512496387     Delta-E=       -0.000075735798 Rises=F Damp=F
 DIIS: error= 5.82D-04 at cycle   5 NSaved=   5.
 NSaved= 5 IEnMin= 5 EnMin= -150.944512496387     IErMin= 5 ErrMin= 5.82D-04
 ErrMax= 5.82D-04  0.00D+00 EMaxC= 1.00D-01 BMatC= 5.13D-06 BMatP= 5.52D-05
 IDIUse=3 WtCom= 9.94D-01 WtEn= 5.82D-03
 Coeff-Com:  0.379D-02-0.140D-01-0.137D+00-0.341D+00 0.149D+01
 Coeff-En:   0.000D+00 0.000D+00 0.000D+00 0.000D+00 0.100D+01
 Coeff:      0.377D-02-0.140D-01-0.136D+00-0.339D+00 0.149D+01
 Gap=     0.627 Goal=   None    Shift=    0.000
 RMSDP=3.66D-04 MaxDP=3.06D-03 DE=-7.57D-05 OVMax= 0.00D+00

 Cycle   6  Pass 1  IDiag  1:
 E= -150.944530638892     Delta-E=       -0.000018142505 Rises=F Damp=F
 DIIS: error= 1.76D-04 at cycle   6 NSaved=   6.
 NSaved= 6 IEnMin= 6 EnMin= -150.944530638892     IErMin= 6 ErrMin= 1.76D-04
 ErrMax= 1.76D-04  0.00D+00 EMaxC= 1.00D-01 BMatC= 4.92D-07 BMatP= 5.13D-06
 IDIUse=3 WtCom= 9.98D-01 WtEn= 1.76D-03
 Coeff-Com: -0.208D-02 0.124D-01 0.104D+00 0.112D+00-0.968D+00 0.174D+01
 Coeff-En:   0.000D+00 0.000D+00 0.000D+00 0.000D+00 0.000D+00 0.100D+01
 Coeff:     -0.207D-02 0.124D-01 0.104D+00 0.112D+00-0.966D+00 0.174D+01
 Gap=     0.628 Goal=   None    Shift=    0.000
 RMSDP=1.18D-04 MaxDP=9.80D-04 DE=-1.81D-05 OVMax= 0.00D+00

 Cycle   7  Pass 1  IDiag  1:
 E= -150.944531922688     Delta-E=       -0.000001283797 Rises=F Damp=F
 DIIS: error= 8.62D-06 at cycle   7 NSaved=   7.
 NSaved= 7 IEnMin= 7 EnMin= -150.944531922688     IErMin= 7 ErrMin= 8.62D-06
 ErrMax= 8.62D-06  0.00D+00 EMaxC= 1.00D-01 BMatC= 2.08D-09 BMatP= 4.92D-07
 IDIUse=1 WtCom= 1.00D+00 WtEn= 0.00D+00
 Coeff-Com:  0.434D-03-0.269D-02-0.222D-01-0.211D-01 0.205D+00-0.419D+00
 Coeff-Com:  0.126D+01
 Coeff:      0.434D-03-0.269D-02-0.222D-01-0.211D-01 0.205D+00-0.419D+00
 Coeff:      0.126D+01
 Gap=     0.628 Goal=   None    Shift=    0.000
 RMSDP=7.20D-06 MaxDP=5.16D-05 DE=-1.28D-06 OVMax= 0.00D+00

 Cycle   8  Pass 1  IDiag  1:
 E= -150.944531928286     Delta-E=       -0.000000005597 Rises=F Damp=F
 DIIS: error= 1.21D-06 at cycle   8 NSaved=   8.
 NSaved= 8 IEnMin= 8 EnMin= -150.944531928286     IErMin= 8 ErrMin= 1.21D-06
 ErrMax= 1.21D-06  0.00D+00 EMaxC= 1.00D-01 BMatC= 4.10D-11 BMatP= 2.08D-09
 IDIUse=1 WtCom= 1.00D+00 WtEn= 0.00D+00
 Coeff-Com: -0.293D-04 0.175D-03 0.166D-02 0.709D-03-0.131D-01 0.331D-01
 Coeff-Com: -0.216D+00 0.119D+01
 Coeff:     -0.293D-04 0.175D-03 0.166D-02 0.709D-03-0.131D-01 0.331D-01
 Coeff:     -0.216D+00 0.119D+01
 Gap=     0.628 Goal=   None    Shift=    0.000
 RMSDP=7.36D-07 MaxDP=4.01D-06 DE=-5.60D-09 OVMax= 0.00D+00

 Cycle   9  Pass 1  IDiag  1:
 E= -150.944531928363     Delta-E=       -0.000000000077 Rises=F Damp=F
 DIIS: error= 8.84D-08 at cycle   9 NSaved=   9.
 NSaved= 9 IEnMin= 9 EnMin= -150.944531928363     IErMin= 9 ErrMin= 8.84D-08
 ErrMax= 8.84D-08  0.00D+00 EMaxC= 1.00D-01 BMatC= 2.63D-13 BMatP= 4.10D-11
 IDIUse=1 WtCom= 1.00D+00 WtEn= 0.00D+00
 Coeff-Com:  0.470D-05-0.263D-04-0.279D-03-0.432D-04 0.195D-02-0.545D-02
 Coeff-Com:  0.448D-01-0.287D+00 0.125D+01
 Coeff:      0.470D-05-0.263D-04-0.279D-03-0.432D-04 0.195D-02-0.545D-02
 Coeff:      0.448D-01-0.287D+00 0.125D+01
 Gap=     0.628 Goal=   None    Shift=    0.000
 RMSDP=6.60D-08 MaxDP=3.58D-07 DE=-7.69D-11 OVMax= 0.00D+00

 Cycle  10  Pass 1  IDiag  1:
 E= -150.944531928364     Delta-E=       -0.000000000001 Rises=F Damp=F
 DIIS: error= 2.51D-08 at cycle  10 NSaved=  10.
 NSaved=10 IEnMin=10 EnMin= -150.944531928364     IErMin=10 ErrMin= 2.51D-08
 ErrMax= 2.51D-08  0.00D+00 EMaxC= 1.00D-01 BMatC= 8.83D-15 BMatP= 2.63D-13
 IDIUse=1 WtCom= 1.00D+00 WtEn= 0.00D+00
 Coeff-Com: -0.153D-05 0.841D-05 0.938D-04-0.103D-05-0.610D-03 0.182D-02
 Coeff-Com: -0.166D-01 0.109D+00-0.554D+00 0.146D+01
 Coeff:     -0.153D-05 0.841D-05 0.938D-04-0.103D-05-0.610D-03 0.182D-02
 Coeff:     -0.166D-01 0.109D+00-0.554D+00 0.146D+01
 Gap=     0.628 Goal=   None    Shift=    0.000
 RMSDP=1.58D-08 MaxDP=1.02D-07 DE=-9.38D-13 OVMax= 0.00D+00

 Cycle  11  Pass 1  IDiag  1:
 E= -150.944531928364     Delta-E=        0.000000000000 Rises=F Damp=F
 DIIS: error= 2.66D-09 at cycle  11 NSaved=  11.
 NSaved=11 IEnMin=10 EnMin= -150.944531928364     IErMin=11 ErrMin= 2.66D-09
 ErrMax= 2.66D-09  0.00D+00 EMaxC= 1.00D-01 BMatC= 1.56D-16 BMatP= 8.83D-15
 IDIUse=1 WtCom= 1.00D+00 WtEn= 0.00D+00
 Coeff-Com:  0.157D-06-0.835D-06-0.107D-04 0.405D-05 0.567D-04-0.203D-03
 Coeff-Com:  0.227D-02-0.152D-01 0.878D-01-0.320D+00 0.125D+01
 Coeff:      0.157D-06-0.835D-06-0.107D-04 0.405D-05 0.567D-04-0.203D-03
 Coeff:      0.227D-02-0.152D-01 0.878D-01-0.320D+00 0.125D+01
 Gap=     0.628 Goal=   None    Shift=    0.000
 RMSDP=1.84D-09 MaxDP=1.04D-08 DE= 5.68D-14 OVMax= 0.00D+00

 SCF Done:  E(RHF) =  -150.944531928     A.U. after   11 cycles
            NFock= 11  Conv=0.18D-08     -V/T= 2.0089
 KE= 1.496106042100D+02 PE=-4.930379409077D+02 EE= 1.232657046577D+02
 Leave Link  502 at Wed Nov 19 18:09:01 2025, MaxMem=  7381975040 cpu:               0.6 elap:               0.4
 (Enter /gaussian/g16.c01/intel64-sandybridge/g16/l508.exe)
 QCSCF skips out because SCF is already converged.
 Leave Link  508 at Wed Nov 19 18:09:01 2025, MaxMem=  7381975040 cpu:               0.0 elap:               0.0
 (Enter /gaussian/g16.c01/intel64-sandybridge/g16/l601.exe)
 Copying SCF densities to generalized density rwf, IOpCl= 0 IROHF=0.

 **********************************************************************

            Population analysis using the SCF Density.

 **********************************************************************

 Orbital symmetries:
       Occupied  (A') (A') (A') (A') (A') (A') (A') (A") (A') (A')
                 (A") (A')
       Virtual   (A") (A') (A') (A") (A') (A') (A')
 The electronic state is 1-A'.
 Alpha  occ. eigenvalues --  -20.28824 -11.12148 -11.05698  -1.32735  -0.96107
 Alpha  occ. eigenvalues --   -0.73910  -0.60807  -0.55692  -0.54287  -0.49796
 Alpha  occ. eigenvalues --   -0.41179  -0.33614
 Alpha virt. eigenvalues --    0.29143   0.61586   0.66172   0.69121   0.70867
 Alpha virt. eigenvalues --    0.76062   0.97306
          Condensed to atoms (all electrons):
               1          2          3          4          5          6
     1  C    4.762321   0.359663  -0.024110   0.377528   0.380839   0.377528
     2  C    0.359663   4.743573   0.443850  -0.020211  -0.020700  -0.020211
     3  O   -0.024110   0.443850   7.816281   0.000272  -0.000940   0.000272
     4  H    0.377528  -0.020211   0.000272   0.610635  -0.018705  -0.020142
     5  H    0.380839  -0.020700  -0.000940  -0.018705   0.600861  -0.018705
     6  H    0.377528  -0.020211   0.000272  -0.020142  -0.018705   0.610635
     7  H   -0.036413   0.366533  -0.024517  -0.000780   0.001573  -0.000780
               7
     1  C   -0.036413
     2  C    0.366533
     3  O   -0.024517
     4  H   -0.000780
     5  H    0.001573
     6  H   -0.000780
     7  H    0.652007
 Mulliken charges:
               1
     1  C   -0.197356
     2  C    0.147501
     3  O   -0.211107
     4  H    0.071404
     5  H    0.075778
     6  H    0.071404
     7  H    0.042377
 Sum of Mulliken charges =   0.00000
 Mulliken charges with hydrogens summed into heavy atoms:
               1
     1  C    0.021229
     2  C    0.189878
     3  O   -0.211107
 Electronic spatial extent (au):  <R**2>=            165.5925
 Charge=              0.0000 electrons
 Dipole moment (field-independent basis, Debye):
    X=             -1.8045    Y=             -0.1195    Z=              0.0000  Tot=              1.8084
 Quadrupole moment (field-independent basis, Debye-Ang):
   XX=            -19.1118   YY=            -16.7603   ZZ=            -16.4396
   XY=             -0.6934   XZ=              0.0000   YZ=              0.0000
 Traceless Quadrupole moment (field-independent basis, Debye-Ang):
   XX=             -1.6745   YY=              0.6769   ZZ=              0.9976
   XY=             -0.6934   XZ=              0.0000   YZ=              0.0000
 Octapole moment (field-independent basis, Debye-Ang**2):
  XXX=              2.5058  YYY=              1.8925  ZZZ=              0.0000  XYY=              1.9592
  XXY=             -0.2238  XXZ=              0.0000  XZZ=              1.9237  YZZ=              0.7575
  YYZ=              0.0000  XYZ=              0.0000
 Hexadecapole moment (field-independent basis, Debye-Ang**3):
 XXXX=           -106.1351 YYYY=            -61.6300 ZZZZ=            -18.5891 XXXY=            -21.7343
 XXXZ=              0.0000 YYYX=            -22.4530 YYYZ=              0.0000 ZZZX=              0.0000
 ZZZY=              0.0000 XXYY=            -28.9002 XXZZ=            -18.0428 YYZZ=            -14.2131
 XXYZ=              0.0000 YYXZ=              0.0000 ZZXY=             -6.2452
 N-N= 6.921710011161D+01 E-N=-4.930379408969D+02  KE= 1.496106042100D+02
 Symmetry A'   KE= 1.440568850699D+02
 Symmetry A"   KE= 5.553719140113D+00
 No NMR shielding tensors so no spin-rotation constants.
 Leave Link  601 at Wed Nov 19 18:09:02 2025, MaxMem=  7381975040 cpu:               0.3 elap:               0.1
 (Enter /gaussian/g16.c01/intel64-sandybridge/g16/l9999.exe)
 Unable to Open any file for archive entry.
 1\1\GINC-THIOTIMOLINE-LARGE01\SP\RHF\STO-3G\C2H4O1\LCRISCI_VB\19-Nov-2
 025\0\\#P hf/sto-3g scf=xqc\\External Calculation\\0,1\C,0,-0.94208986
 69,-0.715484386,0.\C,0,0.,0.4640935329,0.\O,0,1.2143680897,0.379018210
 3,0.\H,0,-1.5959641308,-0.6662916454,0.8876649399\H,0,-0.3736083579,-1
 .6565557287,0.\H,0,-1.5959641308,-0.6662916454,-0.8876649399\H,0,-0.50
 48688966,1.4653384557,0.\\Version=ES64L-G16RevC.01\State=1-A'\HF=-150.
 9445319\RMSD=1.845e-09\Dipole=-0.7099746,-0.046491,0.\Quadrupole=-1.24
 57146,0.5040043,0.7417103,-0.5142702,0.,0.\PG=CS [SG(C2H2O1),X(H2)]\\@
 The archive entry for this job was punched.


 Ideas are like rabbits. You get a couple and learn
 how to handle them, and pretty soon you have a dozen.
                                    -- John Steinbeck
 Job cpu time:       0 days  0 hours  0 minutes  2.3 seconds.
 Elapsed time:       0 days  0 hours  0 minutes  1.8 seconds.
 File lengths (MBytes):  RWF=      5 Int=      0 D2E=      0 Chk=      1 Scr=      1
 Normal termination of Gaussian 16 at Wed Nov 19 18:09:02 2025.
