 Entering Gaussian System, Link 0=g16
 Input=GauExternal.gjf
 Output=GauExternal.log
 Initial command:
 /gaussian/g16.c01/intel64-sandybridge/g16/l1.exe "/home/barone/lcrisci_vb/ACTUAL_PROJECTS/MRCC_new_Interface_project/TestingOldVersion/Symmetry/C3H4_D2d/Iterations/Iteration_1/task_atom_2_ixyz_3_up/Gau-4153903.inp" -scrdir="/home/barone/lcrisci_vb/ACTUAL_PROJECTS/MRCC_new_Interface_project/TestingOldVersion/Symmetry/C3H4_D2d/Iterations/Iteration_1/task_atom_2_ixyz_3_up/"
 Entering Link 1 = /gaussian/g16.c01/intel64-sandybridge/g16/l1.exe PID=   4153905.
  
 Copyright (c) 1988-2019, Gaussian, Inc.  All Rights Reserved.
  
 This is part of the Gaussian(R) 16 program.  It is based on
 the Gaussian(R) 09 system (copyright 2009, Gaussian, Inc.),
 the Gaussian(R) 03 system (copyright 2003, Gaussian, Inc.),
 the Gaussian(R) 98 system (copyright 1998, Gaussian, Inc.),
 the Gaussian(R) 94 system (copyright 1995, Gaussian, Inc.),
 the Gaussian 92(TM) system (copyright 1992, Gaussian, Inc.),
 the Gaussian 90(TM) system (copyright 1990, Gaussian, Inc.),
 the Gaussian 88(TM) system (copyright 1988, Gaussian, Inc.),
 the Gaussian 86(TM) system (copyright 1986, Carnegie Mellon
 University), and the Gaussian 82(TM) system (copyright 1983,
 Carnegie Mellon University). Gaussian is a federally registered
 trademark of Gaussian, Inc.
  
 This software contains proprietary and confidential information,
 including trade secrets, belonging to Gaussian, Inc.
  
 This software is provided under written license and may be
 used, copied, transmitted, or stored only in accord with that
 written license.
  
 The following legend is applicable only to US Government
 contracts under FAR:
  
                    RESTRICTED RIGHTS LEGEND
  
 Use, reproduction and disclosure by the US Government is
 subject to restrictions as set forth in subparagraphs (a)
 and (c) of the Commercial Computer Software - Restricted
 Rights clause in FAR 52.227-19.
  
 Gaussian, Inc.
 340 Quinnipiac St., Bldg. 40, Wallingford CT 06492
  
  
 ---------------------------------------------------------------
 Warning -- This program may not be used in any manner that
 competes with the business of Gaussian, Inc. or will provide
 assistance to any competitor of Gaussian, Inc.  The licensee
 of this program is prohibited from giving any competitor of
 Gaussian, Inc. access to this program.  By using this program,
 the user acknowledges that Gaussian, Inc. is engaged in the
 business of creating and licensing software in the field of
 computational chemistry and represents and warrants to the
 licensee that it is not a competitor of Gaussian, Inc. and that
 it will not use this program in any manner prohibited above.
 ---------------------------------------------------------------
  

 Cite this work as:
 Gaussian 16, Revision C.01,
 M. J. Frisch, G. W. Trucks, H. B. Schlegel, G. E. Scuseria, 
 M. A. Robb, J. R. Cheeseman, G. Scalmani, V. Barone, 
 G. A. Petersson, H. Nakatsuji, X. Li, M. Caricato, A. V. Marenich, 
 J. Bloino, B. G. Janesko, R. Gomperts, B. Mennucci, H. P. Hratchian, 
 J. V. Ortiz, A. F. Izmaylov, J. L. Sonnenberg, D. Williams-Young, 
 F. Ding, F. Lipparini, F. Egidi, J. Goings, B. Peng, A. Petrone, 
 T. Henderson, D. Ranasinghe, V. G. Zakrzewski, J. Gao, N. Rega, 
 G. Zheng, W. Liang, M. Hada, M. Ehara, K. Toyota, R. Fukuda, 
 J. Hasegawa, M. Ishida, T. Nakajima, Y. Honda, O. Kitao, H. Nakai, 
 T. Vreven, K. Throssell, J. A. Montgomery, Jr., J. E. Peralta, 
 F. Ogliaro, M. J. Bearpark, J. J. Heyd, E. N. Brothers, K. N. Kudin, 
 V. N. Staroverov, T. A. Keith, R. Kobayashi, J. Normand, 
 K. Raghavachari, A. P. Rendell, J. C. Burant, S. S. Iyengar, 
 J. Tomasi, M. Cossi, J. M. Millam, M. Klene, C. Adamo, R. Cammi, 
 J. W. Ochterski, R. L. Martin, K. Morokuma, O. Farkas, 
 J. B. Foresman, and D. J. Fox, Gaussian, Inc., Wallingford CT, 2019.
 
 ******************************************
 Gaussian 16:  ES64L-G16RevC.01  3-Jul-2019
                19-Nov-2025 
 ******************************************
 %nproc=7
 Will use up to    7 processors via shared memory.
 %mem=55GB
 %chk=GauExternal.chk
 --------------------
 #P hf/sto-3g scf=xqc
 --------------------
 1/38=1,172=1/1;
 2/12=2,17=6,18=5,40=1/2;
 3/6=3,11=9,25=1,30=1/1,2,3;
 4//1;
 5/5=2,8=3,13=1,38=5/2,8;
 6/7=2,8=2,9=2,10=2,28=1/1;
 99/5=1,9=1/99;
 Leave Link    1 at Wed Nov 19 18:14:06 2025, MaxMem=  7381975040 cpu:               0.0 elap:               0.2
 (Enter /gaussian/g16.c01/intel64-sandybridge/g16/l101.exe)
 --------------------
 External Calculation
 --------------------
 Symbolic Z-matrix:
 Charge =  0 Multiplicity = 1
 C                     0.        0.        0. 
 C                     0.        0.        1.3562 
 H                     0.        0.92472   1.89384 
 H                     0.       -0.92472   1.89384 
 C                     0.        0.       -1.3552 
 H                    -0.92472   0.       -1.89384 
 H                     0.92472   0.       -1.89384 
 
 ITRead=  0  0  0  0  0  0  0
 MicOpt= -1 -1 -1 -1 -1 -1 -1
 NAtoms=      7 NQM=        7 NQMF=       0 NMMI=      0 NMMIF=      0
                NMic=       0 NMicF=      0.
                    Isotopes and Nuclear Properties:
 (Nuclear quadrupole moments (NQMom) in fm**2, nuclear magnetic moments (NMagM)
  in nuclear magnetons)

  Atom         1           2           3           4           5           6           7
 IAtWgt=          12          12           1           1          12           1           1
 AtmWgt=  12.0000000  12.0000000   1.0078250   1.0078250  12.0000000   1.0078250   1.0078250
 NucSpn=           0           0           1           1           0           1           1
 AtZEff=  -0.0000000  -0.0000000  -0.0000000  -0.0000000  -0.0000000  -0.0000000  -0.0000000
 NQMom=    0.0000000   0.0000000   0.0000000   0.0000000   0.0000000   0.0000000   0.0000000
 NMagM=    0.0000000   0.0000000   2.7928460   2.7928460   0.0000000   2.7928460   2.7928460
 AtZNuc=   6.0000000   6.0000000   1.0000000   1.0000000   6.0000000   1.0000000   1.0000000
 Leave Link  101 at Wed Nov 19 18:14:07 2025, MaxMem=  7381975040 cpu:               0.2 elap:               0.2
 (Enter /gaussian/g16.c01/intel64-sandybridge/g16/l202.exe)
                          Input orientation:                          
 ---------------------------------------------------------------------
 Center     Atomic      Atomic             Coordinates (Angstroms)
 Number     Number       Type             X           Y           Z
 ---------------------------------------------------------------------
      1          6           0        0.000000    0.000000    0.000000
      2          6           0        0.000000    0.000000    1.356200
      3          1           0        0.000000    0.924716    1.893841
      4          1           0        0.000000   -0.924716    1.893841
      5          6           0        0.000000    0.000000   -1.355200
      6          1           0       -0.924716    0.000000   -1.893841
      7          1           0        0.924716    0.000000   -1.893841
 ---------------------------------------------------------------------
                    Distance matrix (angstroms):
                    1          2          3          4          5
     1  C    0.000000
     2  C    1.356200   0.000000
     3  H    2.107543   1.069653   0.000000
     4  H    2.107543   1.069653   1.849432   0.000000
     5  C    1.355200   2.711400   3.378072   3.378072   0.000000
     6  H    2.107543   3.379034   4.007087   4.007087   1.070156
     7  H    2.107543   3.379034   4.007087   4.007087   1.070156
                    6          7
     6  H    0.000000
     7  H    1.849432   0.000000
 Stoichiometry    C3H4
 Framework group  C2V[C2(CCC),SGV(H2),SGV'(H2)]
 Deg. of freedom     6
 Full point group                 C2V     NOp   4
 Largest Abelian subgroup         C2V     NOp   4
 Largest concise Abelian subgroup C2V     NOp   4
                         Standard orientation:                         
 ---------------------------------------------------------------------
 Center     Atomic      Atomic             Coordinates (Angstroms)
 Number     Number       Type             X           Y           Z
 ---------------------------------------------------------------------
      1          6           0        0.000000    0.000000   -0.000273
      2          6           0        0.000000    0.000000    1.355927
      3          1           0        0.000000    0.924716    1.893569
      4          1           0       -0.000000   -0.924716    1.893569
      5          6           0        0.000000    0.000000   -1.355473
      6          1           0       -0.924716    0.000000   -1.894114
      7          1           0        0.924716   -0.000000   -1.894114
 ---------------------------------------------------------------------
 Rotational constants (GHZ):         146.6071566           8.3821166           8.3821166
 Leave Link  202 at Wed Nov 19 18:14:07 2025, MaxMem=  7381975040 cpu:               0.0 elap:               0.1
 (Enter /gaussian/g16.c01/intel64-sandybridge/g16/l301.exe)
 Standard basis: STO-3G (5D, 7F)
 Ernie: Thresh=  0.10000D-02 Tol=  0.10000D-05 Strict=F.
 There are    11 symmetry adapted cartesian basis functions of A1  symmetry.
 There are     0 symmetry adapted cartesian basis functions of A2  symmetry.
 There are     4 symmetry adapted cartesian basis functions of B1  symmetry.
 There are     4 symmetry adapted cartesian basis functions of B2  symmetry.
 There are    11 symmetry adapted basis functions of A1  symmetry.
 There are     0 symmetry adapted basis functions of A2  symmetry.
 There are     4 symmetry adapted basis functions of B1  symmetry.
 There are     4 symmetry adapted basis functions of B2  symmetry.
    19 basis functions,    57 primitive gaussians,    19 cartesian basis functions
    11 alpha electrons       11 beta electrons
       nuclear repulsion energy        57.8862855680 Hartrees.
 IExCor=    0 DFT=F Ex=HF Corr=None ExCW=0 ScaHFX=  1.000000
 ScaDFX=  1.000000  1.000000  1.000000  1.000000 ScalE2=  1.000000  1.000000
 IRadAn=      5 IRanWt=     -1 IRanGd=            0 ICorTp=0 IEmpDi=  4
 NAtoms=    7 NActive=    7 NUniq=    5 SFac= 1.96D+00 NAtFMM=   60 NAOKFM=F Big=F
 Integral buffers will be    131072 words long.
 Raffenetti 1 integral format.
 Two-electron integral symmetry is turned on.
 Leave Link  301 at Wed Nov 19 18:14:07 2025, MaxMem=  7381975040 cpu:               0.0 elap:               0.1
 (Enter /gaussian/g16.c01/intel64-sandybridge/g16/l302.exe)
 NPDir=0 NMtPBC=     1 NCelOv=     1 NCel=       1 NClECP=     1 NCelD=      1
         NCelK=      1 NCelE2=     1 NClLst=     1 CellRange=     0.0.
 One-electron integrals computed using PRISM.
 One-electron integral symmetry used in STVInt
 NBasis=    19 RedAO= T EigKep=  1.91D-01  NBF=    11     0     4     4
 NBsUse=    19 1.00D-06 EigRej= -1.00D+00 NBFU=    11     0     4     4
 Leave Link  302 at Wed Nov 19 18:14:07 2025, MaxMem=  7381975040 cpu:               0.2 elap:               0.1
 (Enter /gaussian/g16.c01/intel64-sandybridge/g16/l303.exe)
 DipDrv:  MaxL=1.
 Leave Link  303 at Wed Nov 19 18:14:07 2025, MaxMem=  7381975040 cpu:               0.0 elap:               0.1
 (Enter /gaussian/g16.c01/intel64-sandybridge/g16/l401.exe)
 ExpMin= 1.69D-01 ExpMax= 7.16D+01 ExpMxC= 7.16D+01 IAcc=3 IRadAn=         5 AccDes= 0.00D+00
 Harris functional with IExCor=  205 and IRadAn=       5 diagonalized for initial guess.
 HarFok:  IExCor=  205 AccDes= 0.00D+00 IRadAn=         5 IDoV= 1 UseB2=F ITyADJ=14
 ICtDFT=  3500011 ScaDFX=  1.000000  1.000000  1.000000  1.000000
 FoFCou: FMM=F IPFlag=           0 FMFlag=      100000 FMFlg1=           0
         NFxFlg=           0 DoJE=T BraDBF=F KetDBF=T FulRan=T
         wScrn=  0.000000 ICntrl=       500 IOpCl=  0 I1Cent=   200000004 NGrid=           0
         NMat0=    1 NMatS0=      1 NMatT0=    0 NMatD0=    1 NMtDS0=    0 NMtDT0=    0
 Petite list used in FoFCou.
 Harris En= -114.604733082951    
 JPrj=0 DoOrth=F DoCkMO=F.
 Initial guess orbital symmetries:
       Occupied  (A1) (A1) (A1) (A1) (A1) (A1) (A1) (B2) (B1) (B2)
                 (B1)
       Virtual   (B1) (B2) (A1) (A1) (A1) (B1) (B2) (A1)
 The electronic state of the initial guess is 1-A1.
 Leave Link  401 at Wed Nov 19 18:14:08 2025, MaxMem=  7381975040 cpu:               0.4 elap:               0.1
 (Enter /gaussian/g16.c01/intel64-sandybridge/g16/l502.exe)
 Keep R1 ints in memory in symmetry-blocked form, NReq=828003.
 FoFCou: FMM=F IPFlag=           0 FMFlag=           0 FMFlg1=           0
         NFxFlg=           0 DoJE=F BraDBF=F KetDBF=F FulRan=T
         wScrn=  0.000000 ICntrl=       600 IOpCl=  0 I1Cent=           0 NGrid=           0
         NMat0=    1 NMatS0=    190 NMatT0=    0 NMatD0=    1 NMtDS0=    0 NMtDT0=    0
 Petite list used in FoFCou.
 Closed shell SCF:
 Using DIIS extrapolation, IDIIS=  1040.
 NGot=  7381975040 LenX=  7381966336 LenY=  7381965454
 Requested convergence on RMS density matrix=1.00D-08 within  32 cycles.
 Requested convergence on MAX density matrix=1.00D-06.
 Requested convergence on             energy=1.00D-06.
 No special actions if energy rises.

 Cycle   1  Pass 1  IDiag  1:
 E= -114.350731362702    
 DIIS: error= 4.87D-02 at cycle   1 NSaved=   1.
 NSaved= 1 IEnMin= 1 EnMin= -114.350731362702     IErMin= 1 ErrMin= 4.87D-02
 ErrMax= 4.87D-02  0.00D+00 EMaxC= 1.00D-01 BMatC= 5.74D-02 BMatP= 5.74D-02
 IDIUse=3 WtCom= 5.13D-01 WtEn= 4.87D-01
 Coeff-Com:  0.100D+01
 Coeff-En:   0.100D+01
 Coeff:      0.100D+01
 Gap=     0.598 Goal=   None    Shift=    0.000
 GapD=    0.598 DampG=2.000 DampE=0.500 DampFc=1.0000 IDamp=-1.
 RMSDP=1.60D-02 MaxDP=9.14D-02              OVMax= 0.00D+00

 Cycle   2  Pass 1  IDiag  1:
 E= -114.403936734027     Delta-E=       -0.053205371325 Rises=F Damp=F
 DIIS: error= 1.03D-02 at cycle   2 NSaved=   2.
 NSaved= 2 IEnMin= 2 EnMin= -114.403936734027     IErMin= 2 ErrMin= 1.03D-02
 ErrMax= 1.03D-02  0.00D+00 EMaxC= 1.00D-01 BMatC= 2.96D-03 BMatP= 5.74D-02
 IDIUse=3 WtCom= 8.97D-01 WtEn= 1.03D-01
 Coeff-Com:  0.789D-01 0.921D+00
 Coeff-En:   0.000D+00 0.100D+01
 Coeff:      0.707D-01 0.929D+00
 Gap=     0.608 Goal=   None    Shift=    0.000
 RMSDP=4.45D-03 MaxDP=3.18D-02 DE=-5.32D-02 OVMax= 0.00D+00

 Cycle   3  Pass 1  IDiag  1:
 E= -114.406520769202     Delta-E=       -0.002584035175 Rises=F Damp=F
 DIIS: error= 5.82D-03 at cycle   3 NSaved=   3.
 NSaved= 3 IEnMin= 3 EnMin= -114.406520769202     IErMin= 3 ErrMin= 5.82D-03
 ErrMax= 5.82D-03  0.00D+00 EMaxC= 1.00D-01 BMatC= 7.06D-04 BMatP= 2.96D-03
 IDIUse=3 WtCom= 9.42D-01 WtEn= 5.82D-02
 Coeff-Com: -0.223D-01 0.309D+00 0.713D+00
 Coeff-En:   0.000D+00 0.000D+00 0.100D+01
 Coeff:     -0.210D-01 0.291D+00 0.730D+00
 Gap=     0.607 Goal=   None    Shift=    0.000
 RMSDP=1.64D-03 MaxDP=1.10D-02 DE=-2.58D-03 OVMax= 0.00D+00

 Cycle   4  Pass 1  IDiag  1:
 E= -114.407309007606     Delta-E=       -0.000788238404 Rises=F Damp=F
 DIIS: error= 5.15D-04 at cycle   4 NSaved=   4.
 NSaved= 4 IEnMin= 4 EnMin= -114.407309007606     IErMin= 4 ErrMin= 5.15D-04
 ErrMax= 5.15D-04  0.00D+00 EMaxC= 1.00D-01 BMatC= 3.50D-06 BMatP= 7.06D-04
 IDIUse=3 WtCom= 9.95D-01 WtEn= 5.15D-03
 Coeff-Com:  0.436D-02-0.792D-01-0.119D+00 0.119D+01
 Coeff-En:   0.000D+00 0.000D+00 0.000D+00 0.100D+01
 Coeff:      0.434D-02-0.788D-01-0.119D+00 0.119D+01
 Gap=     0.608 Goal=   None    Shift=    0.000
 RMSDP=1.67D-04 MaxDP=7.86D-04 DE=-7.88D-04 OVMax= 0.00D+00

 Cycle   5  Pass 1  IDiag  1:
 E= -114.407316589192     Delta-E=       -0.000007581586 Rises=F Damp=F
 DIIS: error= 6.41D-05 at cycle   5 NSaved=   5.
 NSaved= 5 IEnMin= 5 EnMin= -114.407316589192     IErMin= 5 ErrMin= 6.41D-05
 ErrMax= 6.41D-05  0.00D+00 EMaxC= 1.00D-01 BMatC= 7.03D-08 BMatP= 3.50D-06
 IDIUse=1 WtCom= 1.00D+00 WtEn= 0.00D+00
 Coeff-Com: -0.159D-03 0.464D-02-0.478D-02-0.163D+00 0.116D+01
 Coeff:     -0.159D-03 0.464D-02-0.478D-02-0.163D+00 0.116D+01
 Gap=     0.608 Goal=   None    Shift=    0.000
 RMSDP=2.67D-05 MaxDP=2.12D-04 DE=-7.58D-06 OVMax= 0.00D+00

 Cycle   6  Pass 1  IDiag  1:
 E= -114.407316721705     Delta-E=       -0.000000132513 Rises=F Damp=F
 DIIS: error= 1.62D-05 at cycle   6 NSaved=   6.
 NSaved= 6 IEnMin= 6 EnMin= -114.407316721705     IErMin= 6 ErrMin= 1.62D-05
 ErrMax= 1.62D-05  0.00D+00 EMaxC= 1.00D-01 BMatC= 3.33D-09 BMatP= 7.03D-08
 IDIUse=1 WtCom= 1.00D+00 WtEn= 0.00D+00
 Coeff-Com:  0.497D-04-0.161D-02 0.233D-02 0.856D-01-0.692D+00 0.161D+01
 Coeff:      0.497D-04-0.161D-02 0.233D-02 0.856D-01-0.692D+00 0.161D+01
 Gap=     0.608 Goal=   None    Shift=    0.000
 RMSDP=7.13D-06 MaxDP=6.21D-05 DE=-1.33D-07 OVMax= 0.00D+00

 Cycle   7  Pass 1  IDiag  1:
 E= -114.407316728509     Delta-E=       -0.000000006803 Rises=F Damp=F
 DIIS: error= 2.43D-06 at cycle   7 NSaved=   7.
 NSaved= 7 IEnMin= 7 EnMin= -114.407316728509     IErMin= 7 ErrMin= 2.43D-06
 ErrMax= 2.43D-06  0.00D+00 EMaxC= 1.00D-01 BMatC= 9.61D-11 BMatP= 3.33D-09
 IDIUse=1 WtCom= 1.00D+00 WtEn= 0.00D+00
 Coeff-Com: -0.120D-04 0.329D-03-0.551D-03-0.160D-01 0.131D+00-0.415D+00
 Coeff-Com:  0.130D+01
 Coeff:     -0.120D-04 0.329D-03-0.551D-03-0.160D-01 0.131D+00-0.415D+00
 Coeff:      0.130D+01
 Gap=     0.608 Goal=   None    Shift=    0.000
 RMSDP=1.25D-06 MaxDP=8.09D-06 DE=-6.80D-09 OVMax= 0.00D+00

 Cycle   8  Pass 1  IDiag  1:
 E= -114.407316728718     Delta-E=       -0.000000000210 Rises=F Damp=F
 DIIS: error= 4.54D-07 at cycle   8 NSaved=   8.
 NSaved= 8 IEnMin= 8 EnMin= -114.407316728718     IErMin= 8 ErrMin= 4.54D-07
 ErrMax= 4.54D-07  0.00D+00 EMaxC= 1.00D-01 BMatC= 4.77D-12 BMatP= 9.61D-11
 IDIUse=1 WtCom= 1.00D+00 WtEn= 0.00D+00
 Coeff-Com: -0.730D-05 0.211D-03-0.322D-03-0.104D-01 0.847D-01-0.228D+00
 Coeff-Com:  0.347D+00 0.807D+00
 Coeff:     -0.730D-05 0.211D-03-0.322D-03-0.104D-01 0.847D-01-0.228D+00
 Coeff:      0.347D+00 0.807D+00
 Gap=     0.608 Goal=   None    Shift=    0.000
 RMSDP=2.11D-07 MaxDP=1.67D-06 DE=-2.10D-10 OVMax= 0.00D+00

 Cycle   9  Pass 1  IDiag  1:
 E= -114.407316728726     Delta-E=       -0.000000000008 Rises=F Damp=F
 DIIS: error= 2.53D-08 at cycle   9 NSaved=   9.
 NSaved= 9 IEnMin= 9 EnMin= -114.407316728726     IErMin= 9 ErrMin= 2.53D-08
 ErrMax= 2.53D-08  0.00D+00 EMaxC= 1.00D-01 BMatC= 7.97D-15 BMatP= 4.77D-12
 IDIUse=1 WtCom= 1.00D+00 WtEn= 0.00D+00
 Coeff-Com:  0.930D-06-0.274D-04 0.431D-04 0.137D-02-0.111D-01 0.307D-01
 Coeff-Com: -0.570D-01-0.942D-01 0.113D+01
 Coeff:      0.930D-06-0.274D-04 0.431D-04 0.137D-02-0.111D-01 0.307D-01
 Coeff:     -0.570D-01-0.942D-01 0.113D+01
 Gap=     0.608 Goal=   None    Shift=    0.000
 RMSDP=1.03D-08 MaxDP=5.46D-08 DE=-7.82D-12 OVMax= 0.00D+00

 Cycle  10  Pass 1  IDiag  1:
 E= -114.407316728726     Delta-E=        0.000000000000 Rises=F Damp=F
 DIIS: error= 2.77D-09 at cycle  10 NSaved=  10.
 NSaved=10 IEnMin= 9 EnMin= -114.407316728726     IErMin=10 ErrMin= 2.77D-09
 ErrMax= 2.77D-09  0.00D+00 EMaxC= 1.00D-01 BMatC= 1.53D-16 BMatP= 7.97D-15
 IDIUse=1 WtCom= 1.00D+00 WtEn= 0.00D+00
 Coeff-Com: -0.157D-06 0.473D-05-0.770D-05-0.240D-03 0.193D-02-0.542D-02
 Coeff-Com:  0.105D-01 0.198D-01-0.252D+00 0.123D+01
 Coeff:     -0.157D-06 0.473D-05-0.770D-05-0.240D-03 0.193D-02-0.542D-02
 Coeff:      0.105D-01 0.198D-01-0.252D+00 0.123D+01
 Gap=     0.608 Goal=   None    Shift=    0.000
 RMSDP=1.41D-09 MaxDP=9.58D-09 DE= 1.14D-13 OVMax= 0.00D+00

 SCF Done:  E(RHF) =  -114.407316729     A.U. after   10 cycles
            NFock= 10  Conv=0.14D-08     -V/T= 2.0072
 KE= 1.135925010730D+02 PE=-3.823699479432D+02 EE= 9.648384457347D+01
 Leave Link  502 at Wed Nov 19 18:14:08 2025, MaxMem=  7381975040 cpu:               0.6 elap:               0.4
 (Enter /gaussian/g16.c01/intel64-sandybridge/g16/l508.exe)
 QCSCF skips out because SCF is already converged.
 Leave Link  508 at Wed Nov 19 18:14:08 2025, MaxMem=  7381975040 cpu:               0.0 elap:               0.0
 (Enter /gaussian/g16.c01/intel64-sandybridge/g16/l601.exe)
 Copying SCF densities to generalized density rwf, IOpCl= 0 IROHF=0.

 **********************************************************************

            Population analysis using the SCF Density.

 **********************************************************************

 Orbital symmetries:
       Occupied  (A1) (A1) (A1) (A1) (A1) (A1) (B2) (B1) (A1) (B2)
                 (B1)
       Virtual   (B1) (B2) (A1) (A1) (A1) (B1) (B2) (A1)
 The electronic state is 1-A1.
 Alpha  occ. eigenvalues --  -11.03094 -11.02123 -11.02114  -0.99205  -0.88878
 Alpha  occ. eigenvalues --   -0.66075  -0.56521  -0.56501  -0.54621  -0.30696
 Alpha  occ. eigenvalues --   -0.30660
 Alpha virt. eigenvalues --    0.30129   0.30175   0.63287   0.70407   0.75027
 Alpha virt. eigenvalues --    0.83506   0.83578   1.19713
          Condensed to atoms (all electrons):
               1          2          3          4          5          6
     1  C    4.867449   0.600785  -0.026303  -0.026303   0.601306  -0.026287
     2  C    0.600785   4.801378   0.393003   0.393003  -0.014770  -0.000085
     3  H   -0.026303   0.393003   0.577299  -0.021601  -0.000083  -0.000012
     4  H   -0.026303   0.393003  -0.021601   0.577299  -0.000083  -0.000012
     5  C    0.601306  -0.014770  -0.000083  -0.000083   4.801067   0.392865
     6  H   -0.026287  -0.000085  -0.000012  -0.000012   0.392865   0.577487
     7  H   -0.026287  -0.000085  -0.000012  -0.000012   0.392865  -0.021625
               7
     1  C   -0.026287
     2  C   -0.000085
     3  H   -0.000012
     4  H   -0.000012
     5  C    0.392865
     6  H   -0.021625
     7  H    0.577487
 Mulliken charges:
               1
     1  C    0.035641
     2  C   -0.173230
     3  H    0.077710
     4  H    0.077710
     5  C   -0.173167
     6  H    0.077668
     7  H    0.077668
 Sum of Mulliken charges =  -0.00000
 Mulliken charges with hydrogens summed into heavy atoms:
               1
     1  C    0.035641
     2  C   -0.017810
     5  C   -0.017831
 Electronic spatial extent (au):  <R**2>=            180.2479
 Charge=             -0.0000 electrons
 Dipole moment (field-independent basis, Debye):
    X=              0.0000    Y=              0.0000    Z=             -0.0014  Tot=              0.0014
 Quadrupole moment (field-independent basis, Debye-Ang):
   XX=            -17.5464   YY=            -17.5460   ZZ=            -16.0739
   XY=             -0.0000   XZ=              0.0000   YZ=             -0.0000
 Traceless Quadrupole moment (field-independent basis, Debye-Ang):
   XX=             -0.4909   YY=             -0.4906   ZZ=              0.9815
   XY=             -0.0000   XZ=              0.0000   YZ=             -0.0000
 Octapole moment (field-independent basis, Debye-Ang**2):
  XXX=             -0.0000  YYY=              0.0000  ZZZ=             -0.0106  XYY=              0.0000
  XXY=              0.0000  XXZ=             -2.1374  XZZ=             -0.0000  YZZ=              0.0000
  YYZ=              2.1361  XYZ=              0.0000
 Hexadecapole moment (field-independent basis, Debye-Ang**3):
 XXXX=            -21.3380 YYYY=            -21.3366 ZZZZ=           -180.2629 XXXY=              0.0000
 XXXZ=              0.0000 YYYX=              0.0000 YYYZ=             -0.0000 ZZZX=              0.0000
 ZZZY=              0.0000 XXYY=             -7.6643 XXZZ=            -32.8266 YYZZ=            -32.8293
 XXYZ=             -0.0000 YYXZ=             -0.0000 ZZXY=             -0.0000
 N-N= 5.788628556796D+01 E-N=-3.823699479504D+02  KE= 1.135925010730D+02
 Symmetry A1   KE= 1.046480241235D+02
 Symmetry A2   KE= 0.000000000000D+00
 Symmetry B1   KE= 4.472320978115D+00
 Symmetry B2   KE= 4.472155971373D+00
 No NMR shielding tensors so no spin-rotation constants.
 Leave Link  601 at Wed Nov 19 18:14:08 2025, MaxMem=  7381975040 cpu:               0.3 elap:               0.1
 (Enter /gaussian/g16.c01/intel64-sandybridge/g16/l9999.exe)
 Unable to Open any file for archive entry.
 1\1\GINC-THIOTIMOLINE-LARGE01\SP\RHF\STO-3G\C3H4\LCRISCI_VB\19-Nov-202
 5\0\\#P hf/sto-3g scf=xqc\\External Calculation\\0,1\C,0,0.,0.,0.\C,0,
 0.,0.,1.3561999999\H,0,0.,0.9247161599,1.8938414899\H,0,0.,-0.92471615
 99,1.8938414899\C,0,0.,0.,-1.3551999999\H,0,-0.9247161599,0.,-1.893841
 4899\H,0,0.9247161599,0.,-1.8938414899\\Version=ES64L-G16RevC.01\State
 =1-A1\HF=-114.4073167\RMSD=1.413e-09\Dipole=0.,0.,-0.0005546\Quadrupol
 e=-0.3650061,-0.3647482,0.7297543,0.,0.,0.\PG=C02V [C2(C1C1C1),SGV(H2)
 ,SGV'(H2)]\\@
 The archive entry for this job was punched.


 LET US LEARN TO DREAM, GENTLEMEN, THEN PERHAPS WE SHALL
 DISCOVER THE TRUTH;  BUT LET US BEWARE OF PUBLISHING
 OUR DREAMS ABROAD BEFORE THEY HAVE BEEN SCRUTINIZED
 BY OUR VIGILANT INTELLECT ... LET US ALWAYS ALLOW
 THE FRUIT TO HANG UNTIL IT IS RIPE.  UNRIPE FRUIT
 BRINGS EVEN THE GROWER BUT LITTLE PROFIT; IT DAMAGES
 THE HEALTH OF THOSE WHO CONSUME IT; IT ENDANGERS
 PARTICULARLY THE YOUTH WHO CANNOT YET DISTINGUISH
 BETWEEN RIPE AND UNRIPE FRUIT.

                                  -- KEKULE, 1890
 Job cpu time:       0 days  0 hours  0 minutes  1.9 seconds.
 Elapsed time:       0 days  0 hours  0 minutes  1.8 seconds.
 File lengths (MBytes):  RWF=      5 Int=      0 D2E=      0 Chk=      1 Scr=      1
 Normal termination of Gaussian 16 at Wed Nov 19 18:14:09 2025.
