%chk=test_parall.chk
%nprocs=1
#p force output=pickett External="CentralExt gau $PGAU/test_pr.dat $EGAU/test_en.dat 7 55 read parall 2" 

title

0 1
C                  0.00000000   -0.67759997   -0.00000000
H                  0.92414474   -1.21655197    0.00000000
H                 -0.92414474   -1.21655197    0.00000000
C                 -0.00000000    0.67759997   -0.00000000
H                 -0.92414474    1.21655197    0.00000000
H                  0.92414474    1.21655197   -0.00000000



--link1--
%chk=test_parall.chk
%nprocs=1
#p force hf/sto-3g

title

0 1
C                  0.00000000   -0.67759997   -0.00000000
H                  0.92414474   -1.21655197    0.00000000
H                 -0.92414474   -1.21655197    0.00000000
C                 -0.00000000    0.67759997   -0.00000000
H                 -0.92414474    1.21655197    0.00000000
H                  0.92414474    1.21655197   -0.00000000

