 Entering Gaussian System, Link 0=g16
 Input=GauExternal.gjf
 Output=GauExternal.log
 Initial command:
 /gaussian/g16.c01/intel64-sandybridge/g16/l1.exe "/home/barone/lcrisci_vb/ACTUAL_PROJECTS/MRCC_new_Interface_project/TestingOldVersion/Symmetry/C3H4_D2d/Iterations/Iteration_1/task_central/Gau-4153762.inp" -scrdir="/home/barone/lcrisci_vb/ACTUAL_PROJECTS/MRCC_new_Interface_project/TestingOldVersion/Symmetry/C3H4_D2d/Iterations/Iteration_1/task_central/"
 Entering Link 1 = /gaussian/g16.c01/intel64-sandybridge/g16/l1.exe PID=   4153764.
  
 Copyright (c) 1988-2019, Gaussian, Inc.  All Rights Reserved.
  
 This is part of the Gaussian(R) 16 program.  It is based on
 the Gaussian(R) 09 system (copyright 2009, Gaussian, Inc.),
 the Gaussian(R) 03 system (copyright 2003, Gaussian, Inc.),
 the Gaussian(R) 98 system (copyright 1998, Gaussian, Inc.),
 the Gaussian(R) 94 system (copyright 1995, Gaussian, Inc.),
 the Gaussian 92(TM) system (copyright 1992, Gaussian, Inc.),
 the Gaussian 90(TM) system (copyright 1990, Gaussian, Inc.),
 the Gaussian 88(TM) system (copyright 1988, Gaussian, Inc.),
 the Gaussian 86(TM) system (copyright 1986, Carnegie Mellon
 University), and the Gaussian 82(TM) system (copyright 1983,
 Carnegie Mellon University). Gaussian is a federally registered
 trademark of Gaussian, Inc.
  
 This software contains proprietary and confidential information,
 including trade secrets, belonging to Gaussian, Inc.
  
 This software is provided under written license and may be
 used, copied, transmitted, or stored only in accord with that
 written license.
  
 The following legend is applicable only to US Government
 contracts under FAR:
  
                    RESTRICTED RIGHTS LEGEND
  
 Use, reproduction and disclosure by the US Government is
 subject to restrictions as set forth in subparagraphs (a)
 and (c) of the Commercial Computer Software - Restricted
 Rights clause in FAR 52.227-19.
  
 Gaussian, Inc.
 340 Quinnipiac St., Bldg. 40, Wallingford CT 06492
  
  
 ---------------------------------------------------------------
 Warning -- This program may not be used in any manner that
 competes with the business of Gaussian, Inc. or will provide
 assistance to any competitor of Gaussian, Inc.  The licensee
 of this program is prohibited from giving any competitor of
 Gaussian, Inc. access to this program.  By using this program,
 the user acknowledges that Gaussian, Inc. is engaged in the
 business of creating and licensing software in the field of
 computational chemistry and represents and warrants to the
 licensee that it is not a competitor of Gaussian, Inc. and that
 it will not use this program in any manner prohibited above.
 ---------------------------------------------------------------
  

 Cite this work as:
 Gaussian 16, Revision C.01,
 M. J. Frisch, G. W. Trucks, H. B. Schlegel, G. E. Scuseria, 
 M. A. Robb, J. R. Cheeseman, G. Scalmani, V. Barone, 
 G. A. Petersson, H. Nakatsuji, X. Li, M. Caricato, A. V. Marenich, 
 J. Bloino, B. G. Janesko, R. Gomperts, B. Mennucci, H. P. Hratchian, 
 J. V. Ortiz, A. F. Izmaylov, J. L. Sonnenberg, D. Williams-Young, 
 F. Ding, F. Lipparini, F. Egidi, J. Goings, B. Peng, A. Petrone, 
 T. Henderson, D. Ranasinghe, V. G. Zakrzewski, J. Gao, N. Rega, 
 G. Zheng, W. Liang, M. Hada, M. Ehara, K. Toyota, R. Fukuda, 
 J. Hasegawa, M. Ishida, T. Nakajima, Y. Honda, O. Kitao, H. Nakai, 
 T. Vreven, K. Throssell, J. A. Montgomery, Jr., J. E. Peralta, 
 F. Ogliaro, M. J. Bearpark, J. J. Heyd, E. N. Brothers, K. N. Kudin, 
 V. N. Staroverov, T. A. Keith, R. Kobayashi, J. Normand, 
 K. Raghavachari, A. P. Rendell, J. C. Burant, S. S. Iyengar, 
 J. Tomasi, M. Cossi, J. M. Millam, M. Klene, C. Adamo, R. Cammi, 
 J. W. Ochterski, R. L. Martin, K. Morokuma, O. Farkas, 
 J. B. Foresman, and D. J. Fox, Gaussian, Inc., Wallingford CT, 2019.
 
 ******************************************
 Gaussian 16:  ES64L-G16RevC.01  3-Jul-2019
                19-Nov-2025 
 ******************************************
 %nproc=7
 Will use up to    7 processors via shared memory.
 %mem=55GB
 %chk=GauExternal.chk
 --------------------
 #P hf/sto-3g scf=xqc
 --------------------
 1/38=1,172=1/1;
 2/12=2,17=6,18=5,40=1/2;
 3/6=3,11=9,25=1,30=1/1,2,3;
 4//1;
 5/5=2,8=3,13=1,38=5/2,8;
 6/7=2,8=2,9=2,10=2,28=1/1;
 99/5=1,9=1/99;
 Leave Link    1 at Wed Nov 19 18:14:01 2025, MaxMem=  7381975040 cpu:               0.0 elap:               0.2
 (Enter /gaussian/g16.c01/intel64-sandybridge/g16/l101.exe)
 --------------------
 External Calculation
 --------------------
 Symbolic Z-matrix:
 Charge =  0 Multiplicity = 1
 C                     0.        0.        0. 
 C                     0.        0.        1.3552 
 H                     0.        0.92472   1.89384 
 H                     0.       -0.92472   1.89384 
 C                     0.        0.       -1.3552 
 H                    -0.92472   0.       -1.89384 
 H                     0.92472   0.       -1.89384 
 
 ITRead=  0  0  0  0  0  0  0
 MicOpt= -1 -1 -1 -1 -1 -1 -1
 NAtoms=      7 NQM=        7 NQMF=       0 NMMI=      0 NMMIF=      0
                NMic=       0 NMicF=      0.
                    Isotopes and Nuclear Properties:
 (Nuclear quadrupole moments (NQMom) in fm**2, nuclear magnetic moments (NMagM)
  in nuclear magnetons)

  Atom         1           2           3           4           5           6           7
 IAtWgt=          12          12           1           1          12           1           1
 AtmWgt=  12.0000000  12.0000000   1.0078250   1.0078250  12.0000000   1.0078250   1.0078250
 NucSpn=           0           0           1           1           0           1           1
 AtZEff=  -0.0000000  -0.0000000  -0.0000000  -0.0000000  -0.0000000  -0.0000000  -0.0000000
 NQMom=    0.0000000   0.0000000   0.0000000   0.0000000   0.0000000   0.0000000   0.0000000
 NMagM=    0.0000000   0.0000000   2.7928460   2.7928460   0.0000000   2.7928460   2.7928460
 AtZNuc=   6.0000000   6.0000000   1.0000000   1.0000000   6.0000000   1.0000000   1.0000000
 Leave Link  101 at Wed Nov 19 18:14:01 2025, MaxMem=  7381975040 cpu:               0.2 elap:               0.2
 (Enter /gaussian/g16.c01/intel64-sandybridge/g16/l202.exe)
                          Input orientation:                          
 ---------------------------------------------------------------------
 Center     Atomic      Atomic             Coordinates (Angstroms)
 Number     Number       Type             X           Y           Z
 ---------------------------------------------------------------------
      1          6           0        0.000000    0.000000    0.000000
      2          6           0        0.000000    0.000000    1.355200
      3          1           0        0.000000    0.924716    1.893841
      4          1           0        0.000000   -0.924716    1.893841
      5          6           0        0.000000    0.000000   -1.355200
      6          1           0       -0.924716    0.000000   -1.893841
      7          1           0        0.924716    0.000000   -1.893841
 ---------------------------------------------------------------------
                    Distance matrix (angstroms):
                    1          2          3          4          5
     1  C    0.000000
     2  C    1.355200   0.000000
     3  H    2.107543   1.070156   0.000000
     4  H    2.107543   1.070156   1.849432   0.000000
     5  C    1.355200   2.710400   3.378072   3.378072   0.000000
     6  H    2.107543   3.378072   4.007087   4.007087   1.070156
     7  H    2.107543   3.378072   4.007087   4.007087   1.070156
                    6          7
     6  H    0.000000
     7  H    1.849432   0.000000
 Stoichiometry    C3H4
 Framework group  D2D[O(C),C2(C.C),2SGD(H2)]
 Deg. of freedom     3
 Full point group                 D2D     NOp   8
 Largest Abelian subgroup         C2V     NOp   4
 Largest concise Abelian subgroup C2V     NOp   4
                         Standard orientation:                         
 ---------------------------------------------------------------------
 Center     Atomic      Atomic             Coordinates (Angstroms)
 Number     Number       Type             X           Y           Z
 ---------------------------------------------------------------------
      1          6           0        0.000000    0.000000    0.000000
      2          6           0        0.000000    0.000000    1.355200
      3          1           0        0.000000    0.924716    1.893841
      4          1           0       -0.000000   -0.924716    1.893841
      5          6           0        0.000000    0.000000   -1.355200
      6          1           0       -0.924716    0.000000   -1.893841
      7          1           0        0.924716   -0.000000   -1.893841
 ---------------------------------------------------------------------
 Rotational constants (GHZ):         146.6071566           8.3866419           8.3866419
 Leave Link  202 at Wed Nov 19 18:14:01 2025, MaxMem=  7381975040 cpu:               0.0 elap:               0.1
 (Enter /gaussian/g16.c01/intel64-sandybridge/g16/l301.exe)
 Standard basis: STO-3G (5D, 7F)
 Ernie: Thresh=  0.10000D-02 Tol=  0.10000D-05 Strict=F.
 There are    11 symmetry adapted cartesian basis functions of A1  symmetry.
 There are     0 symmetry adapted cartesian basis functions of A2  symmetry.
 There are     4 symmetry adapted cartesian basis functions of B1  symmetry.
 There are     4 symmetry adapted cartesian basis functions of B2  symmetry.
 There are    11 symmetry adapted basis functions of A1  symmetry.
 There are     0 symmetry adapted basis functions of A2  symmetry.
 There are     4 symmetry adapted basis functions of B1  symmetry.
 There are     4 symmetry adapted basis functions of B2  symmetry.
    19 basis functions,    57 primitive gaussians,    19 cartesian basis functions
    11 alpha electrons       11 beta electrons
       nuclear repulsion energy        57.8969878086 Hartrees.
 IExCor=    0 DFT=F Ex=HF Corr=None ExCW=0 ScaHFX=  1.000000
 ScaDFX=  1.000000  1.000000  1.000000  1.000000 ScalE2=  1.000000  1.000000
 IRadAn=      5 IRanWt=     -1 IRanGd=            0 ICorTp=0 IEmpDi=  4
 NAtoms=    7 NActive=    7 NUniq=    3 SFac= 4.00D+00 NAtFMM=   60 NAOKFM=F Big=F
 Integral buffers will be    131072 words long.
 Raffenetti 1 integral format.
 Two-electron integral symmetry is turned on.
 Leave Link  301 at Wed Nov 19 18:14:02 2025, MaxMem=  7381975040 cpu:               0.0 elap:               0.1
 (Enter /gaussian/g16.c01/intel64-sandybridge/g16/l302.exe)
 NPDir=0 NMtPBC=     1 NCelOv=     1 NCel=       1 NClECP=     1 NCelD=      1
         NCelK=      1 NCelE2=     1 NClLst=     1 CellRange=     0.0.
 One-electron integrals computed using PRISM.
 One-electron integral symmetry used in STVInt
 NBasis=    19 RedAO= T EigKep=  1.91D-01  NBF=    11     0     4     4
 NBsUse=    19 1.00D-06 EigRej= -1.00D+00 NBFU=    11     0     4     4
 Leave Link  302 at Wed Nov 19 18:14:02 2025, MaxMem=  7381975040 cpu:               0.2 elap:               0.1
 (Enter /gaussian/g16.c01/intel64-sandybridge/g16/l303.exe)
 DipDrv:  MaxL=1.
 Leave Link  303 at Wed Nov 19 18:14:02 2025, MaxMem=  7381975040 cpu:               0.0 elap:               0.1
 (Enter /gaussian/g16.c01/intel64-sandybridge/g16/l401.exe)
 ExpMin= 1.69D-01 ExpMax= 7.16D+01 ExpMxC= 7.16D+01 IAcc=3 IRadAn=         5 AccDes= 0.00D+00
 Harris functional with IExCor=  205 and IRadAn=       5 diagonalized for initial guess.
 HarFok:  IExCor=  205 AccDes= 0.00D+00 IRadAn=         5 IDoV= 1 UseB2=F ITyADJ=14
 ICtDFT=  3500011 ScaDFX=  1.000000  1.000000  1.000000  1.000000
 FoFCou: FMM=F IPFlag=           0 FMFlag=      100000 FMFlg1=           0
         NFxFlg=           0 DoJE=T BraDBF=F KetDBF=T FulRan=T
         wScrn=  0.000000 ICntrl=       500 IOpCl=  0 I1Cent=   200000004 NGrid=           0
         NMat0=    1 NMatS0=      1 NMatT0=    0 NMatD0=    1 NMtDS0=    0 NMtDT0=    0
 Petite list used in FoFCou.
 Harris En= -114.604915095331    
 JPrj=0 DoOrth=F DoCkMO=F.
 Initial guess orbital symmetries:
       Occupied  (A1) (B2) (A1) (A1) (B2) (A1) (B2) (E) (E) (E)
                 (E)
       Virtual   (E) (E) (A1) (B2) (A1) (E) (E) (B2)
 The electronic state of the initial guess is 1-A1.
 Leave Link  401 at Wed Nov 19 18:14:02 2025, MaxMem=  7381975040 cpu:               0.4 elap:               0.1
 (Enter /gaussian/g16.c01/intel64-sandybridge/g16/l502.exe)
 Keep R1 ints in memory in symmetry-blocked form, NReq=828043.
 FoFCou: FMM=F IPFlag=           0 FMFlag=           0 FMFlg1=           0
         NFxFlg=           0 DoJE=F BraDBF=F KetDBF=F FulRan=T
         wScrn=  0.000000 ICntrl=       600 IOpCl=  0 I1Cent=           0 NGrid=           0
         NMat0=    1 NMatS0=    190 NMatT0=    0 NMatD0=    1 NMtDS0=    0 NMtDT0=    0
 Petite list used in FoFCou.
 Closed shell SCF:
 Using DIIS extrapolation, IDIIS=  1040.
 NGot=  7381975040 LenX=  7381966296 LenY=  7381965414
 Requested convergence on RMS density matrix=1.00D-08 within  32 cycles.
 Requested convergence on MAX density matrix=1.00D-06.
 Requested convergence on             energy=1.00D-06.
 No special actions if energy rises.

 Cycle   1  Pass 1  IDiag  1:
 E= -114.350935682677    
 DIIS: error= 4.88D-02 at cycle   1 NSaved=   1.
 NSaved= 1 IEnMin= 1 EnMin= -114.350935682677     IErMin= 1 ErrMin= 4.88D-02
 ErrMax= 4.88D-02  0.00D+00 EMaxC= 1.00D-01 BMatC= 5.74D-02 BMatP= 5.74D-02
 IDIUse=3 WtCom= 5.12D-01 WtEn= 4.88D-01
 Coeff-Com:  0.100D+01
 Coeff-En:   0.100D+01
 Coeff:      0.100D+01
 Gap=     0.599 Goal=   None    Shift=    0.000
 GapD=    0.599 DampG=2.000 DampE=0.500 DampFc=1.0000 IDamp=-1.
 RMSDP=1.60D-02 MaxDP=9.14D-02              OVMax= 0.00D+00

 Cycle   2  Pass 1  IDiag  1:
 E= -114.404185962191     Delta-E=       -0.053250279514 Rises=F Damp=F
 DIIS: error= 1.03D-02 at cycle   2 NSaved=   2.
 NSaved= 2 IEnMin= 2 EnMin= -114.404185962191     IErMin= 2 ErrMin= 1.03D-02
 ErrMax= 1.03D-02  0.00D+00 EMaxC= 1.00D-01 BMatC= 2.93D-03 BMatP= 5.74D-02
 IDIUse=3 WtCom= 8.97D-01 WtEn= 1.03D-01
 Coeff-Com:  0.780D-01 0.922D+00
 Coeff-En:   0.000D+00 0.100D+01
 Coeff:      0.700D-01 0.930D+00
 Gap=     0.608 Goal=   None    Shift=    0.000
 RMSDP=4.43D-03 MaxDP=3.16D-02 DE=-5.33D-02 OVMax= 0.00D+00

 Cycle   3  Pass 1  IDiag  1:
 E= -114.406745589096     Delta-E=       -0.002559626905 Rises=F Damp=F
 DIIS: error= 5.81D-03 at cycle   3 NSaved=   3.
 NSaved= 3 IEnMin= 3 EnMin= -114.406745589096     IErMin= 3 ErrMin= 5.81D-03
 ErrMax= 5.81D-03  0.00D+00 EMaxC= 1.00D-01 BMatC= 7.01D-04 BMatP= 2.93D-03
 IDIUse=3 WtCom= 9.42D-01 WtEn= 5.81D-02
 Coeff-Com: -0.223D-01 0.309D+00 0.713D+00
 Coeff-En:   0.000D+00 0.000D+00 0.100D+01
 Coeff:     -0.210D-01 0.291D+00 0.730D+00
 Gap=     0.608 Goal=   None    Shift=    0.000
 RMSDP=1.64D-03 MaxDP=1.09D-02 DE=-2.56D-03 OVMax= 0.00D+00

 Cycle   4  Pass 1  IDiag  1:
 E= -114.407527247925     Delta-E=       -0.000781658829 Rises=F Damp=F
 DIIS: error= 5.14D-04 at cycle   4 NSaved=   4.
 NSaved= 4 IEnMin= 4 EnMin= -114.407527247925     IErMin= 4 ErrMin= 5.14D-04
 ErrMax= 5.14D-04  0.00D+00 EMaxC= 1.00D-01 BMatC= 3.49D-06 BMatP= 7.01D-04
 IDIUse=3 WtCom= 9.95D-01 WtEn= 5.14D-03
 Coeff-Com:  0.434D-02-0.791D-01-0.119D+00 0.119D+01
 Coeff-En:   0.000D+00 0.000D+00 0.000D+00 0.100D+01
 Coeff:      0.432D-02-0.787D-01-0.118D+00 0.119D+01
 Gap=     0.609 Goal=   None    Shift=    0.000
 RMSDP=1.66D-04 MaxDP=7.85D-04 DE=-7.82D-04 OVMax= 0.00D+00

 Cycle   5  Pass 1  IDiag  1:
 E= -114.407534824309     Delta-E=       -0.000007576384 Rises=F Damp=F
 DIIS: error= 6.40D-05 at cycle   5 NSaved=   5.
 NSaved= 5 IEnMin= 5 EnMin= -114.407534824309     IErMin= 5 ErrMin= 6.40D-05
 ErrMax= 6.40D-05  0.00D+00 EMaxC= 1.00D-01 BMatC= 7.01D-08 BMatP= 3.49D-06
 IDIUse=1 WtCom= 1.00D+00 WtEn= 0.00D+00
 Coeff-Com: -0.156D-03 0.460D-02-0.488D-02-0.162D+00 0.116D+01
 Coeff:     -0.156D-03 0.460D-02-0.488D-02-0.162D+00 0.116D+01
 Gap=     0.609 Goal=   None    Shift=    0.000
 RMSDP=2.67D-05 MaxDP=2.11D-04 DE=-7.58D-06 OVMax= 0.00D+00

 Cycle   6  Pass 1  IDiag  1:
 E= -114.407534956643     Delta-E=       -0.000000132333 Rises=F Damp=F
 DIIS: error= 1.61D-05 at cycle   6 NSaved=   6.
 NSaved= 6 IEnMin= 6 EnMin= -114.407534956643     IErMin= 6 ErrMin= 1.61D-05
 ErrMax= 1.61D-05  0.00D+00 EMaxC= 1.00D-01 BMatC= 3.27D-09 BMatP= 7.01D-08
 IDIUse=1 WtCom= 1.00D+00 WtEn= 0.00D+00
 Coeff-Com:  0.495D-04-0.163D-02 0.239D-02 0.864D-01-0.697D+00 0.161D+01
 Coeff:      0.495D-04-0.163D-02 0.239D-02 0.864D-01-0.697D+00 0.161D+01
 Gap=     0.609 Goal=   None    Shift=    0.000
 RMSDP=7.08D-06 MaxDP=6.18D-05 DE=-1.32D-07 OVMax= 0.00D+00

 Cycle   7  Pass 1  IDiag  1:
 E= -114.407534963339     Delta-E=       -0.000000006696 Rises=F Damp=F
 DIIS: error= 2.38D-06 at cycle   7 NSaved=   7.
 NSaved= 7 IEnMin= 7 EnMin= -114.407534963339     IErMin= 7 ErrMin= 2.38D-06
 ErrMax= 2.38D-06  0.00D+00 EMaxC= 1.00D-01 BMatC= 8.74D-11 BMatP= 3.27D-09
 IDIUse=1 WtCom= 1.00D+00 WtEn= 0.00D+00
 Coeff-Com: -0.221D-04 0.651D-03-0.102D-02-0.324D-01 0.263D+00-0.720D+00
 Coeff-Com:  0.149D+01
 Coeff:     -0.221D-04 0.651D-03-0.102D-02-0.324D-01 0.263D+00-0.720D+00
 Coeff:      0.149D+01
 Gap=     0.609 Goal=   None    Shift=    0.000
 RMSDP=1.34D-06 MaxDP=8.76D-06 DE=-6.70D-09 OVMax= 0.00D+00

 Cycle   8  Pass 1  IDiag  1:
 E= -114.407534963541     Delta-E=       -0.000000000203 Rises=F Damp=F
 DIIS: error= 6.58D-08 at cycle   8 NSaved=   8.
 NSaved= 8 IEnMin= 8 EnMin= -114.407534963541     IErMin= 8 ErrMin= 6.58D-08
 ErrMax= 6.58D-08  0.00D+00 EMaxC= 1.00D-01 BMatC= 5.14D-14 BMatP= 8.74D-11
 IDIUse=1 WtCom= 1.00D+00 WtEn= 0.00D+00
 Coeff-Com:  0.245D-05-0.737D-04 0.120D-03 0.373D-02-0.302D-01 0.846D-01
 Coeff-Com: -0.201D+00 0.114D+01
 Coeff:      0.245D-05-0.737D-04 0.120D-03 0.373D-02-0.302D-01 0.846D-01
 Coeff:     -0.201D+00 0.114D+01
 Gap=     0.609 Goal=   None    Shift=    0.000
 RMSDP=3.03D-08 MaxDP=1.52D-07 DE=-2.03D-10 OVMax= 0.00D+00

 Cycle   9  Pass 1  IDiag  1:
 E= -114.407534963542     Delta-E=       -0.000000000000 Rises=F Damp=F
 DIIS: error= 3.91D-09 at cycle   9 NSaved=   9.
 NSaved= 9 IEnMin= 9 EnMin= -114.407534963542     IErMin= 9 ErrMin= 3.91D-09
 ErrMax= 3.91D-09  0.00D+00 EMaxC= 1.00D-01 BMatC= 2.30D-16 BMatP= 5.14D-14
 IDIUse=1 WtCom= 1.00D+00 WtEn= 0.00D+00
 Coeff-Com: -0.241D-06 0.748D-05-0.129D-04-0.387D-03 0.311D-02-0.893D-02
 Coeff-Com:  0.235D-01-0.159D+00 0.114D+01
 Coeff:     -0.241D-06 0.748D-05-0.129D-04-0.387D-03 0.311D-02-0.893D-02
 Coeff:      0.235D-01-0.159D+00 0.114D+01
 Gap=     0.609 Goal=   None    Shift=    0.000
 RMSDP=1.71D-09 MaxDP=6.84D-09 DE=-5.68D-14 OVMax= 0.00D+00

 SCF Done:  E(RHF) =  -114.407534964     A.U. after    9 cycles
            NFock=  9  Conv=0.17D-08     -V/T= 2.0072
 KE= 1.135930117116D+02 PE=-3.823914700072D+02 EE= 9.649393552345D+01
 Leave Link  502 at Wed Nov 19 18:14:03 2025, MaxMem=  7381975040 cpu:               0.5 elap:               0.4
 (Enter /gaussian/g16.c01/intel64-sandybridge/g16/l508.exe)
 QCSCF skips out because SCF is already converged.
 Leave Link  508 at Wed Nov 19 18:14:03 2025, MaxMem=  7381975040 cpu:               0.0 elap:               0.0
 (Enter /gaussian/g16.c01/intel64-sandybridge/g16/l601.exe)
 Copying SCF densities to generalized density rwf, IOpCl= 0 IROHF=0.

 **********************************************************************

            Population analysis using the SCF Density.

 **********************************************************************

 Orbital symmetries:
       Occupied  (A1) (A1) (B2) (A1) (B2) (A1) (E) (E) (B2) (E)
                 (E)
       Virtual   (E) (E) (A1) (B2) (A1) (E) (E) (B2)
 The electronic state is 1-A1.
 Alpha  occ. eigenvalues --  -11.03092 -11.02125 -11.02120  -0.99220  -0.88881
 Alpha  occ. eigenvalues --   -0.66076  -0.56501  -0.56501  -0.54638  -0.30689
 Alpha  occ. eigenvalues --   -0.30689
 Alpha virt. eigenvalues --    0.30164   0.30164   0.63311   0.70395   0.75059
 Alpha virt. eigenvalues --    0.83510   0.83510   1.19807
          Condensed to atoms (all electrons):
               1          2          3          4          5          6
     1  C    4.866999   0.601312  -0.026289  -0.026289   0.601312  -0.026289
     2  C    0.601312   4.800967   0.392874   0.392874  -0.014781  -0.000085
     3  H   -0.026289   0.392874   0.577496  -0.021626  -0.000085  -0.000012
     4  H   -0.026289   0.392874  -0.021626   0.577496  -0.000085  -0.000012
     5  C    0.601312  -0.014781  -0.000085  -0.000085   4.800967   0.392874
     6  H   -0.026289  -0.000085  -0.000012  -0.000012   0.392874   0.577496
     7  H   -0.026289  -0.000085  -0.000012  -0.000012   0.392874  -0.021626
               7
     1  C   -0.026289
     2  C   -0.000085
     3  H   -0.000012
     4  H   -0.000012
     5  C    0.392874
     6  H   -0.021626
     7  H    0.577496
 Mulliken charges:
               1
     1  C    0.035535
     2  C   -0.173076
     3  H    0.077655
     4  H    0.077655
     5  C   -0.173076
     6  H    0.077655
     7  H    0.077655
 Sum of Mulliken charges =   0.00000
 Mulliken charges with hydrogens summed into heavy atoms:
               1
     1  C    0.035535
     2  C   -0.017767
     5  C   -0.017767
 Electronic spatial extent (au):  <R**2>=            180.1871
 Charge=              0.0000 electrons
 Dipole moment (field-independent basis, Debye):
    X=              0.0000    Y=             -0.0000    Z=              0.0000  Tot=              0.0000
 Quadrupole moment (field-independent basis, Debye-Ang):
   XX=            -17.5463   YY=            -17.5463   ZZ=            -16.0701
   XY=             -0.0000   XZ=             -0.0000   YZ=              0.0000
 Traceless Quadrupole moment (field-independent basis, Debye-Ang):
   XX=             -0.4920   YY=             -0.4920   ZZ=              0.9841
   XY=             -0.0000   XZ=             -0.0000   YZ=              0.0000
 Octapole moment (field-independent basis, Debye-Ang**2):
  XXX=             -0.0000  YYY=             -0.0000  ZZZ=             -0.0000  XYY=             -0.0000
  XXY=             -0.0000  XXZ=             -2.1360  XZZ=             -0.0000  YZZ=             -0.0000
  YYZ=              2.1360  XYZ=              0.0000
 Hexadecapole moment (field-independent basis, Debye-Ang**3):
 XXXX=            -21.3380 YYYY=            -21.3380 ZZZZ=           -180.1632 XXXY=              0.0000
 XXXZ=              0.0000 YYYX=              0.0000 YYYZ=              0.0000 ZZZX=              0.0000
 ZZZY=              0.0000 XXYY=             -7.6644 XXZZ=            -32.8130 YYZZ=            -32.8130
 XXYZ=              0.0000 YYXZ=              0.0000 ZZXY=             -0.0000
 N-N= 5.789698780863D+01 E-N=-3.823914700245D+02  KE= 1.135930117116D+02
 Symmetry A1   KE= 1.046490376695D+02
 Symmetry A2   KE= 0.000000000000D+00
 Symmetry B1   KE= 4.471987021039D+00
 Symmetry B2   KE= 4.471987021039D+00
 No NMR shielding tensors so no spin-rotation constants.
 Leave Link  601 at Wed Nov 19 18:14:03 2025, MaxMem=  7381975040 cpu:               0.3 elap:               0.1
 (Enter /gaussian/g16.c01/intel64-sandybridge/g16/l9999.exe)
 Unable to Open any file for archive entry.
 1\1\GINC-THIOTIMOLINE-LARGE01\SP\RHF\STO-3G\C3H4\LCRISCI_VB\19-Nov-202
 5\0\\#P hf/sto-3g scf=xqc\\External Calculation\\0,1\C,0,0.,0.,0.\C,0,
 0.,0.,1.3551999999\H,0,0.,0.9247161599,1.8938414899\H,0,0.,-0.92471615
 99,1.8938414899\C,0,0.,0.,-1.3551999999\H,0,-0.9247161599,0.,-1.893841
 4899\H,0,0.9247161599,0.,-1.8938414899\\Version=ES64L-G16RevC.01\State
 =1-A1\HF=-114.407535\RMSD=1.713e-09\Dipole=0.,0.,0.\Quadrupole=-0.3658
 206,-0.3658206,0.7316411,0.,0.,0.\PG=D02D [O(C1),C2(C1.C1),2SGD(H2)]\\
 @
 The archive entry for this job was punched.


 HERE WE GO......
 SLIDING DOWN THE RAZOR BLADE OF LIFE......
                                 TOM LEHRER
 Job cpu time:       0 days  0 hours  0 minutes  1.8 seconds.
 Elapsed time:       0 days  0 hours  0 minutes  1.5 seconds.
 File lengths (MBytes):  RWF=      5 Int=      0 D2E=      0 Chk=      1 Scr=      1
 Normal termination of Gaussian 16 at Wed Nov 19 18:14:03 2025.
