External Calculation                                                    
SP        RHF                                                         STO-3G              
Number of atoms                            I               12
Info1-9                                    I   N=           9
          25          21           0           0           0         110
           1           1           2
Full Title                                 C   N=           2
External Calculation    
Route                                      C   N=           1
#P hf/sto-3g
Point Group                                C   N=           2
D06H                    
Point Group NOp                            I               24
Point Group Abelian NOp                    I                8
Point Group NClass                         I               12
Point Group NIrrep                         I               12
Point Group NGen                           I                3
Point Group NOp symm assign                I                3
Point Group Irrep Names                    H   N=          12
A1G     A1U     A2G     A2U     B1G     B1U     B2G     B2U     E1G     
E1U     E2G     E2U     
Point Group Class Names                    H   N=          12
E       2C6     2C3     C2      3C2'    3C2"    3Sgm    3Sgm'   SgmH    
2S6     2S3     i       
Point Group Generators                     I   N=           3
           9          21           3
Point Group Class of Operators             I   N=          24
           1           4           5           6           7           8
           9          12           2           3           3           2
           6           5           5           6           8           7
           7           8          10          11          11          10
Point Group Rotations                      R   N=         288
  1.00000000E+00  1.40663491E-17  0.00000000E+00  1.40663491E-17  1.00000000E+00
  0.00000000E+00  0.00000000E+00  0.00000000E+00  1.00000000E+00  0.00000000E+00
  0.00000000E+00  0.00000000E+00 -1.00000000E+00 -1.36531029E-16  0.00000000E+00
  1.08398331E-16 -1.00000000E+00  0.00000000E+00  0.00000000E+00  0.00000000E+00
  1.00000000E+00  0.00000000E+00  0.00000000E+00  0.00000000E+00 -1.00000000E+00
  5.04870979E-29  1.22464680E-16  5.04870979E-29  1.00000000E+00  8.61315472E-34
 -1.22464680E-16 -8.61315472E-34 -1.00000000E+00  0.00000000E+00  0.00000000E+00
  0.00000000E+00  1.00000000E+00 -1.22464680E-16  8.36011439E-33 -1.22464680E-16
 -1.00000000E+00  1.22464680E-16 -8.36011439E-33 -1.22464680E-16 -1.00000000E+00
  0.00000000E+00  0.00000000E+00  0.00000000E+00 -1.00000000E+00  5.04870979E-29
  0.00000000E+00  5.04870979E-29  1.00000000E+00  0.00000000E+00  0.00000000E+00
  0.00000000E+00  1.00000000E+00  0.00000000E+00  0.00000000E+00  0.00000000E+00
  1.00000000E+00 -1.22464680E-16  0.00000000E+00 -1.22464680E-16 -1.00000000E+00
  0.00000000E+00  0.00000000E+00  0.00000000E+00  1.00000000E+00  0.00000000E+00
  0.00000000E+00  0.00000000E+00  1.00000000E+00  1.40663491E-17  0.00000000E+00
  1.40663491E-17  1.00000000E+00  0.00000000E+00  0.00000000E+00  0.00000000E+00
 -1.00000000E+00  0.00000000E+00  0.00000000E+00  0.00000000E+00 -1.00000000E+00
 -1.36531029E-16  0.00000000E+00  1.08398331E-16 -1.00000000E+00  0.00000000E+00
  0.00000000E+00  0.00000000E+00 -1.00000000E+00  0.00000000E+00  0.00000000E+00
  0.00000000E+00  5.00000000E-01 -8.66025404E-01  0.00000000E+00  8.66025404E-01
  5.00000000E-01  0.00000000E+00  0.00000000E+00  0.00000000E+00  1.00000000E+00
  0.00000000E+00  0.00000000E+00  0.00000000E+00 -5.00000000E-01 -8.66025404E-01
  0.00000000E+00  8.66025404E-01 -5.00000000E-01  0.00000000E+00  0.00000000E+00
  0.00000000E+00  1.00000000E+00  0.00000000E+00  0.00000000E+00  0.00000000E+00
 -5.00000000E-01  8.66025404E-01  0.00000000E+00 -8.66025404E-01 -5.00000000E-01
  0.00000000E+00  0.00000000E+00  0.00000000E+00  1.00000000E+00  0.00000000E+00
  0.00000000E+00  0.00000000E+00  5.00000000E-01  8.66025404E-01  0.00000000E+00
 -8.66025404E-01  5.00000000E-01  0.00000000E+00  0.00000000E+00  0.00000000E+00
  1.00000000E+00  0.00000000E+00  0.00000000E+00  0.00000000E+00 -5.00000000E-01
 -8.66025404E-01  1.06057524E-16 -8.66025404E-01  5.00000000E-01  6.12323400E-17
 -1.06057524E-16 -6.12323400E-17 -1.00000000E+00  0.00000000E+00  0.00000000E+00
  0.00000000E+00  5.00000000E-01 -8.66025404E-01  6.12323400E-17 -8.66025404E-01
 -5.00000000E-01  1.06057524E-16 -6.12323400E-17 -1.06057524E-16 -1.00000000E+00
  0.00000000E+00  0.00000000E+00  0.00000000E+00  5.00000000E-01  8.66025404E-01
 -6.12323400E-17  8.66025404E-01 -5.00000000E-01  1.06057524E-16  6.12323400E-17
 -1.06057524E-16 -1.00000000E+00  0.00000000E+00  0.00000000E+00  0.00000000E+00
 -5.00000000E-01  8.66025404E-01 -1.06057524E-16  8.66025404E-01  5.00000000E-01
  6.12323400E-17  1.06057524E-16 -6.12323400E-17 -1.00000000E+00  0.00000000E+00
  0.00000000E+00  0.00000000E+00 -5.00000000E-01 -8.66025404E-01  0.00000000E+00
 -8.66025404E-01  5.00000000E-01  0.00000000E+00  0.00000000E+00  0.00000000E+00
  1.00000000E+00  0.00000000E+00  0.00000000E+00  0.00000000E+00  5.00000000E-01
 -8.66025404E-01  0.00000000E+00 -8.66025404E-01 -5.00000000E-01  0.00000000E+00
  0.00000000E+00  0.00000000E+00  1.00000000E+00  0.00000000E+00  0.00000000E+00
  0.00000000E+00  5.00000000E-01  8.66025404E-01  0.00000000E+00  8.66025404E-01
 -5.00000000E-01  0.00000000E+00  0.00000000E+00  0.00000000E+00  1.00000000E+00
  0.00000000E+00  0.00000000E+00  0.00000000E+00 -5.00000000E-01  8.66025404E-01
  0.00000000E+00  8.66025404E-01  5.00000000E-01  0.00000000E+00  0.00000000E+00
  0.00000000E+00  1.00000000E+00  0.00000000E+00  0.00000000E+00  0.00000000E+00
  5.00000000E-01 -8.66025404E-01  0.00000000E+00  8.66025404E-01  5.00000000E-01
  0.00000000E+00  0.00000000E+00  0.00000000E+00 -1.00000000E+00  0.00000000E+00
  0.00000000E+00  0.00000000E+00 -5.00000000E-01 -8.66025404E-01  0.00000000E+00
  8.66025404E-01 -5.00000000E-01  0.00000000E+00  0.00000000E+00  0.00000000E+00
 -1.00000000E+00  0.00000000E+00  0.00000000E+00  0.00000000E+00 -5.00000000E-01
  8.66025404E-01  0.00000000E+00 -8.66025404E-01 -5.00000000E-01  0.00000000E+00
  0.00000000E+00  0.00000000E+00 -1.00000000E+00  0.00000000E+00  0.00000000E+00
  0.00000000E+00  5.00000000E-01  8.66025404E-01  0.00000000E+00 -8.66025404E-01
  5.00000000E-01  0.00000000E+00  0.00000000E+00  0.00000000E+00 -1.00000000E+00
  0.00000000E+00  0.00000000E+00  0.00000000E+00
Point Group Cell Trans                     I   N=          72
           0           0           0           0           0           0
           0           0           0           0           0           0
           0           0           0           0           0           0
           0           0           0           0           0           0
           0           0           0           0           0           0
           0           0           0           0           0           0
           0           0           0           0           0           0
           0           0           0           0           0           0
           0           0           0           0           0           0
           0           0           0           0           0           0
           0           0           0           0           0           0
           0           0           0           0           0           0
Point Group Char Table                     R   N=         144
  1.00000000E+00  1.00000000E+00  1.00000000E+00  1.00000000E+00  1.00000000E+00
  1.00000000E+00  1.00000000E+00  1.00000000E+00  1.00000000E+00  1.00000000E+00
  1.00000000E+00  1.00000000E+00  1.00000000E+00  1.00000000E+00  1.00000000E+00
  1.00000000E+00  1.00000000E+00  1.00000000E+00 -1.00000000E+00 -1.00000000E+00
 -1.00000000E+00 -1.00000000E+00 -1.00000000E+00 -1.00000000E+00  1.00000000E+00
  1.00000000E+00  1.00000000E+00  1.00000000E+00 -1.00000000E+00 -1.00000000E+00
 -1.00000000E+00 -1.00000000E+00  1.00000000E+00  1.00000000E+00  1.00000000E+00
  1.00000000E+00  1.00000000E+00  1.00000000E+00  1.00000000E+00  1.00000000E+00
 -1.00000000E+00 -1.00000000E+00  1.00000000E+00  1.00000000E+00 -1.00000000E+00
 -1.00000000E+00 -1.00000000E+00 -1.00000000E+00  1.00000000E+00 -1.00000000E+00
  1.00000000E+00 -1.00000000E+00  1.00000000E+00 -1.00000000E+00 -1.00000000E+00
  1.00000000E+00 -1.00000000E+00  1.00000000E+00 -1.00000000E+00  1.00000000E+00
  1.00000000E+00 -1.00000000E+00  1.00000000E+00 -1.00000000E+00  1.00000000E+00
 -1.00000000E+00  1.00000000E+00 -1.00000000E+00  1.00000000E+00 -1.00000000E+00
  1.00000000E+00 -1.00000000E+00  1.00000000E+00 -1.00000000E+00  1.00000000E+00
 -1.00000000E+00 -1.00000000E+00  1.00000000E+00  1.00000000E+00 -1.00000000E+00
 -1.00000000E+00  1.00000000E+00 -1.00000000E+00  1.00000000E+00  1.00000000E+00
 -1.00000000E+00  1.00000000E+00 -1.00000000E+00 -1.00000000E+00  1.00000000E+00
 -1.00000000E+00  1.00000000E+00  1.00000000E+00 -1.00000000E+00  1.00000000E+00
 -1.00000000E+00  2.00000000E+00  1.00000000E+00 -1.00000000E+00 -2.00000000E+00
  0.00000000E+00  0.00000000E+00  0.00000000E+00  0.00000000E+00 -2.00000000E+00
 -1.00000000E+00  1.00000000E+00  2.00000000E+00  2.00000000E+00  1.00000000E+00
 -1.00000000E+00 -2.00000000E+00  0.00000000E+00  0.00000000E+00 -0.00000000E+00
 -0.00000000E+00  2.00000000E+00  1.00000000E+00 -1.00000000E+00 -2.00000000E+00
  2.00000000E+00 -1.00000000E+00 -1.00000000E+00  2.00000000E+00  0.00000000E+00
  0.00000000E+00  0.00000000E+00  0.00000000E+00  2.00000000E+00 -1.00000000E+00
 -1.00000000E+00  2.00000000E+00  2.00000000E+00 -1.00000000E+00 -1.00000000E+00
  2.00000000E+00  0.00000000E+00  0.00000000E+00 -0.00000000E+00 -0.00000000E+00
 -2.00000000E+00  1.00000000E+00  1.00000000E+00 -2.00000000E+00
Point Group Atom Permutations              I   N=         288
           1           2           3           4           5           6
           7           8           9          10          11          12
           4           5           6           1           2           3
          10          11          12           7           8           9
           1           6           5           4           3           2
           7          12          11          10           9           8
           4           3           2           1           6           5
          10           9           8           7          12          11
           1           6           5           4           3           2
           7          12          11          10           9           8
           4           3           2           1           6           5
          10           9           8           7          12          11
           1           2           3           4           5           6
           7           8           9          10          11          12
           4           5           6           1           2           3
          10          11          12           7           8           9
           2           3           4           5           6           1
           8           9          10          11          12           7
           3           4           5           6           1           2
           9          10          11          12           7           8
           5           6           1           2           3           4
          11          12           7           8           9          10
           6           1           2           3           4           5
          12           7           8           9          10          11
           6           5           4           3           2           1
          12          11          10           9           8           7
           5           4           3           2           1           6
          11          10           9           8           7          12
           3           2           1           6           5           4
           9           8           7          12          11          10
           2           1           6           5           4           3
           8           7          12          11          10           9
           6           5           4           3           2           1
          12          11          10           9           8           7
           5           4           3           2           1           6
          11          10           9           8           7          12
           3           2           1           6           5           4
           9           8           7          12          11          10
           2           1           6           5           4           3
           8           7          12          11          10           9
           2           3           4           5           6           1
           8           9          10          11          12           7
           3           4           5           6           1           2
           9          10          11          12           7           8
           5           6           1           2           3           4
          11          12           7           8           9          10
           6           1           2           3           4           5
          12           7           8           9          10          11
Charge                                     I                0
Multiplicity                               I                1
Number of electrons                        I               42
Number of alpha electrons                  I               21
Number of beta electrons                   I               21
Number of basis functions                  I               36
Number of independent functions            I               36
Number of point charges in /Mol/           I                0
Number of translation vectors              I                0
Atomic numbers                             I   N=          12
           6           6           6           6           6           6
           1           1           1           1           1           1
Nuclear charges                            R   N=          12
  6.00000000E+00  6.00000000E+00  6.00000000E+00  6.00000000E+00  6.00000000E+00
  6.00000000E+00  1.00000000E+00  1.00000000E+00  1.00000000E+00  1.00000000E+00
  1.00000000E+00  1.00000000E+00
Current cartesian coordinates              R   N=          36
  6.16905513E-13  2.63615033E+00  2.09995204E-29  2.28297316E+00  1.31807517E+00
  2.09995204E-29  2.28297316E+00 -1.31807517E+00  2.09995204E-29 -6.17392312E-13
 -2.63615033E+00  2.09995204E-29 -2.28297316E+00 -1.31807517E+00  2.09995204E-29
 -2.28297316E+00  1.31807517E+00  2.09995204E-29  1.10323523E-12  4.71411264E+00
  2.09990729E-29  4.08254130E+00  2.35705632E+00  2.09990729E-29  4.08254130E+00
 -2.35705632E+00  2.09990729E-29 -1.10400573E-12 -4.71411264E+00  2.09990729E-29
 -4.08254130E+00 -2.35705632E+00  2.09990729E-29 -4.08254130E+00  2.35705632E+00
  2.09990729E-29
Number of symbols in /Mol/                 I                0
Int Atom Types                             I   N=          12
           0           0           0           0           0           0
           0           0           0           0           0           0
Force Field                                I                0
Atom Types                                 C   N=          12
                                                            
                                                            
                        
MM charges                                 R   N=          12
  0.00000000E+00  0.00000000E+00  0.00000000E+00  0.00000000E+00  0.00000000E+00
  0.00000000E+00  0.00000000E+00  0.00000000E+00  0.00000000E+00  0.00000000E+00
  0.00000000E+00  0.00000000E+00
Integer atomic weights                     I   N=          12
          12          12          12          12          12          12
           1           1           1           1           1           1
Real atomic weights                        R   N=          12
  1.20000000E+01  1.20000000E+01  1.20000000E+01  1.20000000E+01  1.20000000E+01
  1.20000000E+01  1.00782504E+00  1.00782504E+00  1.00782504E+00  1.00782504E+00
  1.00782504E+00  1.00782504E+00
Atom fragment info                         I   N=          12
           0           0           0           0           0           0
           0           0           0           0           0           0
Atom residue num                           I   N=          12
           0           0           0           0           0           0
           0           0           0           0           0           0
Nuclear spins                              I   N=          12
           0           0           0           0           0           0
           1           1           1           1           1           1
Nuclear ZEff                               R   N=          12
 -3.60000000E+00 -3.60000000E+00 -3.60000000E+00 -3.60000000E+00 -3.60000000E+00
 -3.60000000E+00 -1.00000000E+00 -1.00000000E+00 -1.00000000E+00 -1.00000000E+00
 -1.00000000E+00 -1.00000000E+00
Nuclear ZNuc                               R   N=          12
  6.00000000E+00  6.00000000E+00  6.00000000E+00  6.00000000E+00  6.00000000E+00
  6.00000000E+00  1.00000000E+00  1.00000000E+00  1.00000000E+00  1.00000000E+00
  1.00000000E+00  1.00000000E+00
Nuclear QMom                               R   N=          12
  0.00000000E+00  0.00000000E+00  0.00000000E+00  0.00000000E+00  0.00000000E+00
  0.00000000E+00  0.00000000E+00  0.00000000E+00  0.00000000E+00  0.00000000E+00
  0.00000000E+00  0.00000000E+00
Nuclear GFac                               R   N=          12
  0.00000000E+00  0.00000000E+00  0.00000000E+00  0.00000000E+00  0.00000000E+00
  0.00000000E+00  2.79284600E+00  2.79284600E+00  2.79284600E+00  2.79284600E+00
  2.79284600E+00  2.79284600E+00
MicOpt                                     I   N=          12
          -1          -1          -1          -1          -1          -1
          -1          -1          -1          -1          -1          -1
Number of residues                         I                0
Number of secondary structures             I                0
SymInf integers                            I   N=          26
           4           8           1           1           1          -1
          -1           1          -1           1          -1           1
          -1          -1          -1           1           1           1
          -1           1           1           1          -1          -1
          -1          -1
RotTr to input orientation                 R   N=          12
  1.00000000E+00 -2.34027577E-13  0.00000000E+00  2.34034610E-13  1.00000000E+00
  0.00000000E+00  0.00000000E+00  0.00000000E+00  1.00000000E+00 -6.34413157E-17
 -3.38353684E-16  2.10000880E-29
Number of contracted shells                I               18
Number of primitive shells                 I               54
Pure/Cartesian d shells                    I                0
Pure/Cartesian f shells                    I                0
Highest angular momentum                   I                1
Largest degree of contraction              I                3
Shell types                                I   N=          18
           0          -1           0          -1           0          -1
           0          -1           0          -1           0          -1
           0           0           0           0           0           0
Number of primitives per shell             I   N=          18
           3           3           3           3           3           3
           3           3           3           3           3           3
           3           3           3           3           3           3
Shell to atom map                          I   N=          18
           1           1           2           2           3           3
           4           4           5           5           6           6
           7           8           9          10          11          12
Primitive exponents                        R   N=          54
  7.16168373E+01  1.30450963E+01  3.53051216E+00  2.94124936E+00  6.83483096E-01
  2.22289916E-01  7.16168373E+01  1.30450963E+01  3.53051216E+00  2.94124936E+00
  6.83483096E-01  2.22289916E-01  7.16168373E+01  1.30450963E+01  3.53051216E+00
  2.94124936E+00  6.83483096E-01  2.22289916E-01  7.16168373E+01  1.30450963E+01
  3.53051216E+00  2.94124936E+00  6.83483096E-01  2.22289916E-01  7.16168373E+01
  1.30450963E+01  3.53051216E+00  2.94124936E+00  6.83483096E-01  2.22289916E-01
  7.16168373E+01  1.30450963E+01  3.53051216E+00  2.94124936E+00  6.83483096E-01
  2.22289916E-01  3.42525091E+00  6.23913730E-01  1.68855404E-01  3.42525091E+00
  6.23913730E-01  1.68855404E-01  3.42525091E+00  6.23913730E-01  1.68855404E-01
  3.42525091E+00  6.23913730E-01  1.68855404E-01  3.42525091E+00  6.23913730E-01
  1.68855404E-01  3.42525091E+00  6.23913730E-01  1.68855404E-01
Contraction coefficients                   R   N=          54
  1.54328967E-01  5.35328142E-01  4.44634542E-01 -9.99672292E-02  3.99512826E-01
  7.00115469E-01  1.54328967E-01  5.35328142E-01  4.44634542E-01 -9.99672292E-02
  3.99512826E-01  7.00115469E-01  1.54328967E-01  5.35328142E-01  4.44634542E-01
 -9.99672292E-02  3.99512826E-01  7.00115469E-01  1.54328967E-01  5.35328142E-01
  4.44634542E-01 -9.99672292E-02  3.99512826E-01  7.00115469E-01  1.54328967E-01
  5.35328142E-01  4.44634542E-01 -9.99672292E-02  3.99512826E-01  7.00115469E-01
  1.54328967E-01  5.35328142E-01  4.44634542E-01 -9.99672292E-02  3.99512826E-01
  7.00115469E-01  1.54328967E-01  5.35328142E-01  4.44634542E-01  1.54328967E-01
  5.35328142E-01  4.44634542E-01  1.54328967E-01  5.35328142E-01  4.44634542E-01
  1.54328967E-01  5.35328142E-01  4.44634542E-01  1.54328967E-01  5.35328142E-01
  4.44634542E-01  1.54328967E-01  5.35328142E-01  4.44634542E-01
P(S=P) Contraction coefficients            R   N=          54
  0.00000000E+00  0.00000000E+00  0.00000000E+00  1.55916275E-01  6.07683719E-01
  3.91957393E-01  0.00000000E+00  0.00000000E+00  0.00000000E+00  1.55916275E-01
  6.07683719E-01  3.91957393E-01  0.00000000E+00  0.00000000E+00  0.00000000E+00
  1.55916275E-01  6.07683719E-01  3.91957393E-01  0.00000000E+00  0.00000000E+00
  0.00000000E+00  1.55916275E-01  6.07683719E-01  3.91957393E-01  0.00000000E+00
  0.00000000E+00  0.00000000E+00  1.55916275E-01  6.07683719E-01  3.91957393E-01
  0.00000000E+00  0.00000000E+00  0.00000000E+00  1.55916275E-01  6.07683719E-01
  3.91957393E-01  0.00000000E+00  0.00000000E+00  0.00000000E+00  0.00000000E+00
  0.00000000E+00  0.00000000E+00  0.00000000E+00  0.00000000E+00  0.00000000E+00
  0.00000000E+00  0.00000000E+00  0.00000000E+00  0.00000000E+00  0.00000000E+00
  0.00000000E+00  0.00000000E+00  0.00000000E+00  0.00000000E+00
Coordinates of each shell                  R   N=          54
  1.85405055E-17  2.63615033E+00 -5.67639267E-34  1.85405055E-17  2.63615033E+00
 -5.67639267E-34  2.28297316E+00  1.31807517E+00 -5.67639267E-34  2.28297316E+00
  1.31807517E+00 -5.67639267E-34  2.28297316E+00 -1.31807517E+00 -5.67639267E-34
  2.28297316E+00 -1.31807517E+00 -5.67639267E-34 -3.78456823E-16 -2.63615033E+00
 -5.67639267E-34 -3.78456823E-16 -2.63615033E+00 -5.67639267E-34 -2.28297316E+00
 -1.31807517E+00 -5.67639267E-34 -2.28297316E+00 -1.31807517E+00 -5.67639267E-34
 -2.28297316E+00  1.31807517E+00 -5.67639267E-34 -2.28297316E+00  1.31807517E+00
 -5.67639267E-34  3.31551771E-17  4.71411264E+00 -1.01508454E-33  4.08254130E+00
  2.35705632E+00 -1.01508454E-33  4.08254130E+00 -2.35705632E+00 -1.01508454E-33
 -6.76777827E-16 -4.71411264E+00 -1.01508454E-33 -4.08254130E+00 -2.35705632E+00
 -1.01508454E-33 -4.08254130E+00  2.35705632E+00 -1.01508454E-33
Constraint Structure                       R   N=          36
 -6.16868432E-13  2.63615033E+00 -2.10000880E-29  2.28297316E+00  1.31807517E+00
 -2.10000880E-29  2.28297316E+00 -1.31807517E+00 -2.10000880E-29  6.16995315E-13
 -2.63615033E+00 -2.10000880E-29 -2.28297316E+00 -1.31807517E+00 -2.10000880E-29
 -2.28297316E+00  1.31807517E+00 -2.10000880E-29 -1.10316892E-12  4.71411264E+00
 -2.10000880E-29  4.08254130E+00  2.35705632E+00 -2.10000880E-29  4.08254130E+00
 -2.35705632E+00 -2.10000880E-29  1.10329580E-12 -4.71411264E+00 -2.10000880E-29
 -4.08254130E+00 -2.35705632E+00 -2.10000880E-29 -4.08254130E+00  2.35705632E+00
 -2.10000880E-29
Constraint Force Constants                 R   N=          36
  0.00000000E+00  0.00000000E+00  0.00000000E+00  0.00000000E+00  0.00000000E+00
  0.00000000E+00  0.00000000E+00  0.00000000E+00  0.00000000E+00  0.00000000E+00
  0.00000000E+00  0.00000000E+00  0.00000000E+00  0.00000000E+00  0.00000000E+00
  0.00000000E+00  0.00000000E+00  0.00000000E+00  0.00000000E+00  0.00000000E+00
  0.00000000E+00  0.00000000E+00  0.00000000E+00  0.00000000E+00  0.00000000E+00
  0.00000000E+00  0.00000000E+00  0.00000000E+00  0.00000000E+00  0.00000000E+00
  0.00000000E+00  0.00000000E+00  0.00000000E+00  0.00000000E+00  0.00000000E+00
  0.00000000E+00
Num ILSW                                   I              100
ILSW                                       I   N=         100
           0           0           0           0           2           0
           0           0           0           0           0          -1
           5           0           0           0           0          -1
           0           0           0           0           0           0
           1           0           0           0           0           0
           0           0      100000           0          -1           0
           0           0           0           0           0           0
           0           0           0           1           0           0
           0 -2000000000           1           0           0           0
           0           0        2004          68           0           0
           0           0           0           0           0           0
           0           0           0          12           0           1
           0           0           0           0           0           0
           0           0           0           0           0           0
           0           0           0           0           0           0
           0           0           0           0           0           0
           0           0           0           0
Num RLSW                                   I               68
RLSW                                       R   N=          68
  1.00000000E+00  1.00000000E+00  1.00000000E+00  1.00000000E+00  1.00000000E+00
  0.00000000E+00  0.00000000E+00  1.00000000E+00  0.00000000E+00  0.00000000E+00
  0.00000000E+00  0.00000000E+00  1.00000000E+00  0.00000000E+00  0.00000000E+00
  0.00000000E+00  0.00000000E+00  1.00000000E+00  0.00000000E+00  0.00000000E+00
  0.00000000E+00  0.00000000E+00  1.00000000E+00  0.00000000E+00  0.00000000E+00
  0.00000000E+00  0.00000000E+00  1.00000000E+00  0.00000000E+00  0.00000000E+00
  0.00000000E+00  0.00000000E+00  1.00000000E+00  0.00000000E+00  0.00000000E+00
  0.00000000E+00  0.00000000E+00  0.00000000E+00  1.00000000E+00  1.00000000E+00
  0.00000000E+00  1.00000000E+00  0.00000000E+00  0.00000000E+00  0.00000000E+00
  0.00000000E+00  0.00000000E+00  0.00000000E+00  0.00000000E+00  0.00000000E+00
  0.00000000E+00  0.00000000E+00  1.00000000E+00  1.00000000E+00  1.00000000E+00
  1.00000000E+00  1.00000000E+00  1.00000000E+00  0.00000000E+00  0.00000000E+00
  0.00000000E+00  0.00000000E+00  0.00000000E+00  0.00000000E+00  0.00000000E+00
  0.00000000E+00  2.00000000E-10  1.00000000E-02
MxBond                                     I                3
NBond                                      I   N=          12
           3           3           3           3           3           3
           1           1           1           1           1           1
IBond                                      I   N=          36
           2           6           7           1           3           8
           2           4           9           3           5          10
           4           6          11           1           5          12
           1           0           0           2           0           0
           3           0           0           4           0           0
           5           0           0           6           0           0
RBond                                      R   N=          36
  1.50000000E+00  1.50000000E+00  1.00000000E+00  1.50000000E+00  1.50000000E+00
  1.00000000E+00  1.50000000E+00  1.50000000E+00  1.00000000E+00  1.50000000E+00
  1.50000000E+00  1.00000000E+00  1.50000000E+00  1.50000000E+00  1.00000000E+00
  1.50000000E+00  1.50000000E+00  1.00000000E+00  1.00000000E+00  0.00000000E+00
  0.00000000E+00  1.00000000E+00  0.00000000E+00  0.00000000E+00  1.00000000E+00
  0.00000000E+00  0.00000000E+00  1.00000000E+00  0.00000000E+00  0.00000000E+00
  1.00000000E+00  0.00000000E+00  0.00000000E+00  1.00000000E+00  0.00000000E+00
  0.00000000E+00
Virial Ratio                               R      2.008776698332776E+00
SCF Energy                                 R     -2.278894223742390E+02
Total Energy                               R     -2.278894223742390E+02
RMS Density                                R      4.239939058452629E-09
Job Status                                 I                1
Nuclear derivative order                   I                0
External E-field                           R   N=         105
  0.00000000E+00  0.00000000E+00  0.00000000E+00  0.00000000E+00  0.00000000E+00
  0.00000000E+00  0.00000000E+00  0.00000000E+00  0.00000000E+00  0.00000000E+00
  0.00000000E+00  0.00000000E+00  0.00000000E+00  0.00000000E+00  0.00000000E+00
  0.00000000E+00  0.00000000E+00  0.00000000E+00  0.00000000E+00  0.00000000E+00
  0.00000000E+00  0.00000000E+00  0.00000000E+00  0.00000000E+00  0.00000000E+00
  0.00000000E+00  0.00000000E+00  0.00000000E+00  0.00000000E+00  0.00000000E+00
  0.00000000E+00  0.00000000E+00  0.00000000E+00  0.00000000E+00  0.00000000E+00
  0.00000000E+00  0.00000000E+00  0.00000000E+00  0.00000000E+00  0.00000000E+00
  0.00000000E+00  0.00000000E+00  0.00000000E+00  0.00000000E+00  0.00000000E+00
  0.00000000E+00  0.00000000E+00  0.00000000E+00  0.00000000E+00  0.00000000E+00
  0.00000000E+00  0.00000000E+00  0.00000000E+00  0.00000000E+00  0.00000000E+00
  0.00000000E+00  0.00000000E+00  0.00000000E+00  0.00000000E+00  0.00000000E+00
  0.00000000E+00  0.00000000E+00  0.00000000E+00  0.00000000E+00  0.00000000E+00
  0.00000000E+00  0.00000000E+00  0.00000000E+00  0.00000000E+00  0.00000000E+00
  0.00000000E+00  0.00000000E+00  0.00000000E+00  0.00000000E+00  0.00000000E+00
  0.00000000E+00  0.00000000E+00  0.00000000E+00  0.00000000E+00  0.00000000E+00
  0.00000000E+00  0.00000000E+00  0.00000000E+00  0.00000000E+00  0.00000000E+00
  0.00000000E+00  0.00000000E+00  0.00000000E+00  0.00000000E+00  0.00000000E+00
  0.00000000E+00  0.00000000E+00  0.00000000E+00  0.00000000E+00  0.00000000E+00
  0.00000000E+00  0.00000000E+00  0.00000000E+00  0.00000000E+00  0.00000000E+00
  0.00000000E+00  0.00000000E+00  0.00000000E+00  0.00000000E+00  0.00000000E+00
IOpCl                                      I                0
IROHF                                      I                0
Alpha Orbital Energies                     R   N=          36
 -1.10292961E+01 -1.10292961E+01 -1.10292697E+01 -1.10289401E+01 -1.10289401E+01
 -1.10287956E+01 -1.08913595E+00 -9.52614496E-01 -9.52614496E-01 -7.63167975E-01
 -7.63167975E-01 -6.57268881E-01 -5.87617132E-01 -5.52440568E-01 -5.30415071E-01
 -5.30415071E-01 -4.55738512E-01 -4.29923508E-01 -4.29923508E-01 -2.79380964E-01
 -2.79380964E-01  2.69297521E-01  2.69297521E-01  5.04296577E-01  5.64778234E-01
  6.36577397E-01  6.36577397E-01  7.06812279E-01  7.26090552E-01  7.26090552E-01
  8.75043648E-01  8.75043648E-01  8.94120483E-01  8.94120483E-01  1.08781079E+00
  1.14442687E+00
Alpha MO coefficients                      R   N=        1296
  0.00000000E+00  0.00000000E+00 -3.76617893E-03  0.00000000E+00  0.00000000E+00
  4.96266239E-01  1.44867588E-02 -5.94842863E-04  1.83097173E-03  0.00000000E+00
  4.96266239E-01  1.44867588E-02 -5.94842863E-04 -1.83097173E-03  0.00000000E+00
  0.00000000E+00  0.00000000E+00 -3.76617893E-03  0.00000000E+00  0.00000000E+00
 -4.96266239E-01 -1.44867588E-02 -5.94842863E-04  1.83097173E-03  0.00000000E+00
 -4.96266239E-01 -1.44867588E-02 -5.94842863E-04 -1.83097173E-03  0.00000000E+00
  0.00000000E+00 -3.22261636E-03 -3.22261636E-03  0.00000000E+00  3.22261636E-03
  3.22261636E-03  5.73038893E-01  1.67278682E-02  0.00000000E+00  4.62269160E-04
  0.00000000E+00  2.86519447E-01  8.36393409E-03  1.83097173E-03 -2.70906691E-03
  0.00000000E+00 -2.86519447E-01 -8.36393409E-03 -1.83097173E-03 -2.70906691E-03
  0.00000000E+00 -5.73038893E-01 -1.67278682E-02  0.00000000E+00  4.62269160E-04
  0.00000000E+00 -2.86519447E-01 -8.36393409E-03  1.83097173E-03 -2.70906691E-03
  0.00000000E+00  2.86519447E-01  8.36393409E-03 -1.83097173E-03 -2.70906691E-03
  0.00000000E+00 -3.72115685E-03 -1.86057842E-03  1.86057842E-03  3.72115685E-03
  1.86057842E-03 -1.86057842E-03  4.05420218E-01  9.13379555E-03  0.00000000E+00
  1.49259699E-03  0.00000000E+00  4.05420218E-01  9.13379554E-03  1.29262692E-03
  7.46298497E-04  0.00000000E+00  4.05420218E-01  9.13379554E-03  1.29262692E-03
 -7.46298497E-04  0.00000000E+00  4.05420218E-01  9.13379555E-03  0.00000000E+00
 -1.49259699E-03  0.00000000E+00  4.05420218E-01  9.13379554E-03 -1.29262692E-03
 -7.46298497E-04  0.00000000E+00  4.05420218E-01  9.13379554E-03 -1.29262692E-03
  7.46298497E-04  0.00000000E+00 -2.75224463E-03 -2.75224463E-03 -2.75224463E-03
 -2.75224463E-03 -2.75224463E-03 -2.75224463E-03  0.00000000E+00  0.00000000E+00
 -3.90262980E-03  0.00000000E+00  0.00000000E+00  4.95901170E-01  2.15281230E-02
 -5.36510570E-04 -2.56293889E-03  0.00000000E+00 -4.95901170E-01 -2.15281230E-02
  5.36510570E-04 -2.56293889E-03  0.00000000E+00  0.00000000E+00  0.00000000E+00
  3.90262980E-03  0.00000000E+00  0.00000000E+00  4.95901170E-01  2.15281230E-02
  5.36510570E-04  2.56293889E-03  0.00000000E+00 -4.95901170E-01 -2.15281230E-02
 -5.36510570E-04  2.56293889E-03  0.00000000E+00  0.00000000E+00 -3.36474862E-03
  3.36474862E-03  0.00000000E+00 -3.36474862E-03  3.36474862E-03  5.72617349E-01
  2.48585352E-02  0.00000000E+00 -2.01622403E-03  0.00000000E+00 -2.86308674E-01
 -1.24292676E-02  2.56293889E-03 -2.42291634E-03  0.00000000E+00 -2.86308674E-01
 -1.24292676E-02  2.56293889E-03  2.42291634E-03  0.00000000E+00  5.72617349E-01
  2.48585352E-02  0.00000000E+00  2.01622403E-03  0.00000000E+00 -2.86308674E-01
 -1.24292676E-02 -2.56293889E-03  2.42291634E-03  0.00000000E+00 -2.86308674E-01
 -1.24292676E-02 -2.56293889E-03 -2.42291634E-03  0.00000000E+00 -3.88527705E-03
  1.94263852E-03  1.94263852E-03 -3.88527705E-03  1.94263852E-03  1.94263852E-03
  4.04744915E-01  2.08817299E-02  0.00000000E+00 -2.52602893E-03  0.00000000E+00
 -4.04744915E-01 -2.08817299E-02  2.18760523E-03  1.26301447E-03  0.00000000E+00
  4.04744915E-01  2.08817299E-02 -2.18760523E-03  1.26301447E-03  0.00000000E+00
 -4.04744915E-01 -2.08817299E-02  0.00000000E+00 -2.52602893E-03  0.00000000E+00
  4.04744915E-01  2.08817299E-02  2.18760523E-03  1.26301447E-03  0.00000000E+00
 -4.04744915E-01 -2.08817299E-02 -2.18760523E-03  1.26301447E-03  0.00000000E+00
 -2.83884079E-03  2.83884079E-03 -2.83884079E-03  2.83884079E-03 -2.83884079E-03
  2.83884079E-03 -1.04632484E-01  2.65102169E-01  0.00000000E+00 -6.30184862E-02
  0.00000000E+00 -1.04632484E-01  2.65102169E-01 -5.45756099E-02 -3.15092431E-02
  0.00000000E+00 -1.04632484E-01  2.65102169E-01 -5.45756099E-02  3.15092431E-02
  0.00000000E+00 -1.04632484E-01  2.65102169E-01  0.00000000E+00  6.30184862E-02
  0.00000000E+00 -1.04632484E-01  2.65102169E-01  5.45756099E-02  3.15092431E-02
  0.00000000E+00 -1.04632484E-01  2.65102169E-01  5.45756099E-02 -3.15092431E-02
  0.00000000E+00  4.58144455E-02  4.58144455E-02  4.58144455E-02  4.58144455E-02
  4.58144455E-02  4.58144455E-02 -1.46631716E-01  3.96687373E-01  0.00000000E+00
 -3.00596588E-02  0.00000000E+00 -7.33158582E-02  1.98343687E-01 -6.97707127E-02
  9.07867605E-02  0.00000000E+00  7.33158582E-02 -1.98343687E-01  6.97707127E-02
  9.07867605E-02  0.00000000E+00  1.46631716E-01 -3.96687373E-01  0.00000000E+00
 -3.00596588E-02  0.00000000E+00  7.33158582E-02 -1.98343687E-01 -6.97707127E-02
  9.07867605E-02  0.00000000E+00 -7.33158582E-02  1.98343687E-01  6.97707127E-02
  9.07867605E-02  0.00000000E+00  1.06629153E-01  5.33145764E-02 -5.33145764E-02
 -1.06629153E-01 -5.33145764E-02  5.33145764E-02  0.00000000E+00  0.00000000E+00
  1.31068900E-01  0.00000000E+00  0.00000000E+00 -1.26986791E-01  3.43541343E-01
  1.02224810E-02 -6.97707127E-02  0.00000000E+00 -1.26986791E-01  3.43541343E-01
  1.02224810E-02  6.97707127E-02  0.00000000E+00  0.00000000E+00  0.00000000E+00
  1.31068900E-01  0.00000000E+00  0.00000000E+00  1.26986791E-01 -3.43541343E-01
  1.02224810E-02 -6.97707127E-02  0.00000000E+00  1.26986791E-01 -3.43541343E-01
  1.02224810E-02  6.97707127E-02  0.00000000E+00  0.00000000E+00  9.23435551E-02
  9.23435551E-02  0.00000000E+00 -9.23435551E-02 -9.23435551E-02  0.00000000E+00
  0.00000000E+00  2.33879161E-01  0.00000000E+00  0.00000000E+00 -9.89908326E-02
  2.92950758E-01  2.62049524E-03  1.36543140E-01  0.00000000E+00  9.89908326E-02
 -2.92950758E-01 -2.62049524E-03  1.36543140E-01  0.00000000E+00  0.00000000E+00
  0.00000000E+00 -2.33879161E-01  0.00000000E+00  0.00000000E+00 -9.89908326E-02
  2.92950758E-01 -2.62049524E-03 -1.36543140E-01  0.00000000E+00  9.89908326E-02
 -2.92950758E-01  2.62049524E-03 -1.36543140E-01  0.00000000E+00  0.00000000E+00
  1.52183206E-01 -1.52183206E-01  0.00000000E+00  1.52183206E-01 -1.52183206E-01
 -1.14304768E-01  3.38270398E-01  0.00000000E+00  8.14537141E-02  0.00000000E+00
  5.71523838E-02 -1.69135199E-01 -1.36543140E-01  1.55045942E-01  0.00000000E+00
  5.71523838E-02 -1.69135199E-01 -1.36543140E-01 -1.55045942E-01  0.00000000E+00
 -1.14304768E-01  3.38270398E-01  0.00000000E+00 -8.14537141E-02  0.00000000E+00
  5.71523838E-02 -1.69135199E-01  1.36543140E-01 -1.55045942E-01  0.00000000E+00
  5.71523838E-02 -1.69135199E-01  1.36543140E-01  1.55045942E-01  0.00000000E+00
  1.75726030E-01 -8.78630149E-02 -8.78630149E-02  1.75726030E-01 -8.78630149E-02
 -8.78630149E-02 -9.37306351E-03  3.86766019E-02  0.00000000E+00  2.34083356E-01
  0.00000000E+00 -9.37306351E-03  3.86766019E-02  2.02722133E-01  1.17041678E-01
  0.00000000E+00 -9.37306351E-03  3.86766019E-02  2.02722133E-01 -1.17041678E-01
  0.00000000E+00 -9.37306351E-03  3.86766019E-02  0.00000000E+00 -2.34083356E-01
  0.00000000E+00 -9.37306351E-03  3.86766019E-02 -2.02722133E-01 -1.17041678E-01
  0.00000000E+00 -9.37306351E-03  3.86766019E-02 -2.02722133E-01  1.17041678E-01
  0.00000000E+00  1.76454134E-01  1.76454134E-01  1.76454134E-01  1.76454134E-01
  1.76454134E-01  1.76454134E-01 -6.50636723E-02  2.20179269E-01  0.00000000E+00
  1.63587558E-01  0.00000000E+00  6.50636723E-02 -2.20179269E-01 -1.41670981E-01
 -8.17937791E-02  0.00000000E+00 -6.50636723E-02  2.20179269E-01  1.41670981E-01
 -8.17937791E-02  0.00000000E+00  6.50636723E-02 -2.20179269E-01  0.00000000E+00
  1.63587558E-01  0.00000000E+00 -6.50636723E-02  2.20179269E-01 -1.41670981E-01
 -8.17937791E-02  0.00000000E+00  6.50636723E-02 -2.20179269E-01  1.41670981E-01
 -8.17937791E-02  0.00000000E+00  2.32512987E-01 -2.32512987E-01  2.32512987E-01
 -2.32512987E-01  2.32512987E-01 -2.32512987E-01  0.00000000E+00  0.00000000E+00
  3.32124345E-01  0.00000000E+00  0.00000000E+00  6.97165010E-16 -3.25567165E-15
 -1.66062173E-01  2.87628120E-01  0.00000000E+00  6.97165010E-16 -3.25567165E-15
 -1.66062173E-01 -2.87628120E-01  0.00000000E+00  0.00000000E+00  0.00000000E+00
  3.32124345E-01  0.00000000E+00  0.00000000E+00 -6.97165010E-16  3.25567165E-15
 -1.66062173E-01  2.87628120E-01  0.00000000E+00 -6.97165010E-16  3.25567165E-15
 -1.66062173E-01 -2.87628120E-01  0.00000000E+00  0.00000000E+00 -2.42198466E-16
 -2.42198466E-16  0.00000000E+00  2.42198466E-16  2.42198466E-16  2.58318978E-02
 -8.04599945E-02  0.00000000E+00  3.68456974E-01  0.00000000E+00  1.29159489E-02
 -4.02299972E-02  2.02963402E-01  1.69140497E-02  0.00000000E+00 -1.29159489E-02
  4.02299972E-02 -2.02963402E-01  1.69140497E-02  0.00000000E+00 -2.58318978E-02
  8.04599945E-02  0.00000000E+00  3.68456974E-01  0.00000000E+00 -1.29159489E-02
  4.02299972E-02  2.02963402E-01  1.69140497E-02  0.00000000E+00  1.29159489E-02
 -4.02299972E-02 -2.02963402E-01  1.69140497E-02  0.00000000E+00  2.85126143E-01
  1.42563071E-01 -1.42563071E-01 -2.85126143E-01 -1.42563071E-01  1.42563071E-01
  0.00000000E+00  0.00000000E+00 -1.00266925E-01  0.00000000E+00  0.00000000E+00
  2.23710797E-02 -6.96803992E-02  2.51275999E-01  2.02963402E-01  0.00000000E+00
  2.23710797E-02 -6.96803992E-02  2.51275999E-01 -2.02963402E-01  0.00000000E+00
  0.00000000E+00  0.00000000E+00 -1.00266925E-01  0.00000000E+00  0.00000000E+00
 -2.23710797E-02  6.96803992E-02  2.51275999E-01  2.02963402E-01  0.00000000E+00
 -2.23710797E-02  6.96803992E-02  2.51275999E-01 -2.02963402E-01  0.00000000E+00
  0.00000000E+00  2.46926483E-01  2.46926483E-01  0.00000000E+00 -2.46926483E-01
 -2.46926483E-01  0.00000000E+00  0.00000000E+00  0.00000000E+00  0.00000000E+00
  3.34287600E-01  0.00000000E+00  0.00000000E+00  0.00000000E+00  0.00000000E+00
  3.34287600E-01  0.00000000E+00  0.00000000E+00  0.00000000E+00  0.00000000E+00
  3.34287600E-01  0.00000000E+00  0.00000000E+00  0.00000000E+00  0.00000000E+00
  3.34287600E-01  0.00000000E+00  0.00000000E+00  0.00000000E+00  0.00000000E+00
  3.34287600E-01  0.00000000E+00  0.00000000E+00  0.00000000E+00  0.00000000E+00
  3.34287600E-01  0.00000000E+00  0.00000000E+00  0.00000000E+00  0.00000000E+00
  0.00000000E+00  0.00000000E+00  0.00000000E+00  0.00000000E+00  3.30821708E-01
  0.00000000E+00  0.00000000E+00 -6.33531879E-03  1.23350061E-02 -2.94441807E-01
  2.10039460E-02  0.00000000E+00  6.33531879E-03 -1.23350061E-02  2.94441807E-01
  2.10039460E-02  0.00000000E+00  0.00000000E+00  0.00000000E+00 -3.30821708E-01
  0.00000000E+00  0.00000000E+00 -6.33531879E-03  1.23350061E-02  2.94441807E-01
 -2.10039460E-02  0.00000000E+00  6.33531879E-03 -1.23350061E-02 -2.94441807E-01
 -2.10039460E-02  0.00000000E+00  0.00000000E+00 -2.60679582E-01  2.60679582E-01
  0.00000000E+00 -2.60679582E-01  2.60679582E-01 -7.31539601E-03  1.42432382E-02
  0.00000000E+00 -2.82315173E-01  0.00000000E+00  3.65769801E-03 -7.12161909E-03
 -2.10039460E-02  3.18695075E-01  0.00000000E+00  3.65769801E-03 -7.12161909E-03
 -2.10039460E-02 -3.18695075E-01  0.00000000E+00 -7.31539601E-03  1.42432382E-02
  0.00000000E+00  2.82315173E-01  0.00000000E+00  3.65769801E-03 -7.12161909E-03
  2.10039460E-02 -3.18695075E-01  0.00000000E+00  3.65769801E-03 -7.12161909E-03
  2.10039460E-02  3.18695075E-01  0.00000000E+00 -3.01006853E-01  1.50503427E-01
  1.50503427E-01 -3.01006853E-01  1.50503427E-01  1.50503427E-01  0.00000000E+00
  0.00000000E+00  0.00000000E+00  0.00000000E+00  5.31692040E-01  0.00000000E+00
  0.00000000E+00  0.00000000E+00  0.00000000E+00  2.65846020E-01  0.00000000E+00
  0.00000000E+00  0.00000000E+00  0.00000000E+00 -2.65846020E-01  0.00000000E+00
  0.00000000E+00  0.00000000E+00  0.00000000E+00 -5.31692040E-01  0.00000000E+00
  0.00000000E+00  0.00000000E+00  0.00000000E+00 -2.65846020E-01  0.00000000E+00
  0.00000000E+00  0.00000000E+00  0.00000000E+00  2.65846020E-01  0.00000000E+00
  0.00000000E+00  0.00000000E+00  0.00000000E+00  0.00000000E+00  0.00000000E+00
  0.00000000E+00  0.00000000E+00  0.00000000E+00  0.00000000E+00  0.00000000E+00
  0.00000000E+00  0.00000000E+00  0.00000000E+00  0.00000000E+00  4.60458814E-01
  0.00000000E+00  0.00000000E+00  0.00000000E+00  0.00000000E+00  4.60458814E-01
  0.00000000E+00  0.00000000E+00  0.00000000E+00  0.00000000E+00  0.00000000E+00
  0.00000000E+00  0.00000000E+00  0.00000000E+00  0.00000000E+00 -4.60458814E-01
  0.00000000E+00  0.00000000E+00  0.00000000E+00  0.00000000E+00 -4.60458814E-01
  0.00000000E+00  0.00000000E+00  0.00000000E+00  0.00000000E+00  0.00000000E+00
  0.00000000E+00  0.00000000E+00  0.00000000E+00  0.00000000E+00  0.00000000E+00
  6.58142254E-01  0.00000000E+00  0.00000000E+00  0.00000000E+00  0.00000000E+00
 -3.29071127E-01  0.00000000E+00  0.00000000E+00  0.00000000E+00  0.00000000E+00
 -3.29071127E-01  0.00000000E+00  0.00000000E+00  0.00000000E+00  0.00000000E+00
  6.58142254E-01  0.00000000E+00  0.00000000E+00  0.00000000E+00  0.00000000E+00
 -3.29071127E-01  0.00000000E+00  0.00000000E+00  0.00000000E+00  0.00000000E+00
 -3.29071127E-01  0.00000000E+00  0.00000000E+00  0.00000000E+00  0.00000000E+00
  0.00000000E+00  0.00000000E+00  0.00000000E+00  0.00000000E+00  0.00000000E+00
  0.00000000E+00  0.00000000E+00  0.00000000E+00  0.00000000E+00  0.00000000E+00
  0.00000000E+00  5.69967912E-01  0.00000000E+00  0.00000000E+00  0.00000000E+00
  0.00000000E+00 -5.69967912E-01  0.00000000E+00  0.00000000E+00  0.00000000E+00
  0.00000000E+00  0.00000000E+00  0.00000000E+00  0.00000000E+00  0.00000000E+00
  0.00000000E+00  5.69967912E-01  0.00000000E+00  0.00000000E+00  0.00000000E+00
  0.00000000E+00 -5.69967912E-01  0.00000000E+00  0.00000000E+00  0.00000000E+00
  0.00000000E+00  0.00000000E+00  0.00000000E+00  0.00000000E+00  0.00000000E+00
  0.00000000E+00  0.00000000E+00  5.22194552E-01  0.00000000E+00  0.00000000E+00
  0.00000000E+00  0.00000000E+00 -5.22194552E-01  0.00000000E+00  0.00000000E+00
  0.00000000E+00  0.00000000E+00  5.22194552E-01  0.00000000E+00  0.00000000E+00
  0.00000000E+00  0.00000000E+00 -5.22194552E-01  0.00000000E+00  0.00000000E+00
  0.00000000E+00  0.00000000E+00  5.22194552E-01  0.00000000E+00  0.00000000E+00
  0.00000000E+00  0.00000000E+00 -5.22194552E-01  0.00000000E+00  0.00000000E+00
  0.00000000E+00  0.00000000E+00  0.00000000E+00  0.00000000E+00  5.23509332E-02
 -3.27135448E-01  0.00000000E+00 -3.12065371E-01  0.00000000E+00  5.23509332E-02
 -3.27135448E-01 -2.70256539E-01 -1.56032685E-01  0.00000000E+00  5.23509332E-02
 -3.27135448E-01 -2.70256539E-01  1.56032685E-01  0.00000000E+00  5.23509332E-02
 -3.27135448E-01  0.00000000E+00  3.12065371E-01  0.00000000E+00  5.23509332E-02
 -3.27135448E-01  2.70256539E-01  1.56032685E-01  0.00000000E+00  5.23509332E-02
 -3.27135448E-01  2.70256539E-01 -1.56032685E-01  0.00000000E+00  5.04654921E-01
  5.04654921E-01  5.04654921E-01  5.04654921E-01  5.04654921E-01  5.04654921E-01
  3.25267228E-02 -2.07664682E-01  0.00000000E+00 -5.52214257E-01  0.00000000E+00
  1.62633614E-02 -1.03832341E-01 -1.09607808E-01 -3.62367965E-01  0.00000000E+00
 -1.62633614E-02  1.03832341E-01  1.09607808E-01 -3.62367965E-01  0.00000000E+00
 -3.25267228E-02  2.07664682E-01  0.00000000E+00 -5.52214257E-01  0.00000000E+00
 -1.62633614E-02  1.03832341E-01 -1.09607808E-01 -3.62367965E-01  0.00000000E+00
  1.62633614E-02 -1.03832341E-01  1.09607808E-01 -3.62367965E-01  0.00000000E+00
  6.52969618E-01  3.26484809E-01 -3.26484809E-01 -6.52969618E-01 -3.26484809E-01
  3.26484809E-01  0.00000000E+00  0.00000000E+00 -2.99085867E-01  0.00000000E+00
  0.00000000E+00  2.81689682E-02 -1.79842890E-01 -4.88932160E-01 -1.09607808E-01
  0.00000000E+00  2.81689682E-02 -1.79842890E-01 -4.88932160E-01  1.09607808E-01
  0.00000000E+00  0.00000000E+00  0.00000000E+00 -2.99085867E-01  0.00000000E+00
  0.00000000E+00 -2.81689682E-02  1.79842890E-01 -4.88932160E-01 -1.09607808E-01
  0.00000000E+00 -2.81689682E-02  1.79842890E-01 -4.88932160E-01  1.09607808E-01
  0.00000000E+00  0.00000000E+00  5.65488277E-01  5.65488277E-01  0.00000000E+00
 -5.65488277E-01 -5.65488277E-01 -1.18873245E-01  7.38582906E-01  0.00000000E+00
  7.35918773E-02  0.00000000E+00  1.18873245E-01 -7.38582906E-01 -6.37324352E-02
 -3.67959386E-02  0.00000000E+00 -1.18873245E-01  7.38582906E-01  6.37324352E-02
 -3.67959386E-02  0.00000000E+00  1.18873245E-01 -7.38582906E-01  0.00000000E+00
  7.35918773E-02  0.00000000E+00 -1.18873245E-01  7.38582906E-01 -6.37324352E-02
 -3.67959386E-02  0.00000000E+00  1.18873245E-01 -7.38582906E-01  6.37324352E-02
 -3.67959386E-02  0.00000000E+00 -4.47856110E-01  4.47856110E-01 -4.47856110E-01
  4.47856110E-01 -4.47856110E-01  4.47856110E-01  0.00000000E+00  0.00000000E+00
 -4.15826398E-01  0.00000000E+00  0.00000000E+00 -1.38897861E-01  8.92272854E-01
  1.10932723E-01 -1.76030446E-01  0.00000000E+00  1.38897861E-01 -8.92272854E-01
 -1.10932723E-01 -1.76030446E-01  0.00000000E+00  0.00000000E+00  0.00000000E+00
  4.15826398E-01  0.00000000E+00  0.00000000E+00 -1.38897861E-01  8.92272854E-01
 -1.10932723E-01  1.76030446E-01  0.00000000E+00  1.38897861E-01 -8.92272854E-01
  1.10932723E-01  1.76030446E-01  0.00000000E+00  0.00000000E+00 -4.29807730E-01
  4.29807730E-01  0.00000000E+00 -4.29807730E-01  4.29807730E-01 -1.60385435E-01
  1.03030795E+00  0.00000000E+00  9.30149739E-03  0.00000000E+00  8.01927174E-02
 -5.15153973E-01  1.76030446E-01 -3.14195173E-01  0.00000000E+00  8.01927174E-02
 -5.15153973E-01  1.76030446E-01  3.14195173E-01  0.00000000E+00 -1.60385435E-01
  1.03030795E+00  0.00000000E+00 -9.30149739E-03  0.00000000E+00  8.01927174E-02
 -5.15153973E-01 -1.76030446E-01  3.14195173E-01  0.00000000E+00  8.01927174E-02
 -5.15153973E-01 -1.76030446E-01 -3.14195173E-01  0.00000000E+00 -4.96299217E-01
  2.48149609E-01  2.48149609E-01 -4.96299217E-01  2.48149609E-01  2.48149609E-01
  3.89391290E-02 -2.80190024E-01  0.00000000E+00  8.05262670E-01  0.00000000E+00
 -1.94695645E-02  1.40095012E-01 -4.59027672E-01 -1.02034192E-02  0.00000000E+00
 -1.94695645E-02  1.40095012E-01 -4.59027672E-01  1.02034192E-02  0.00000000E+00
  3.89391290E-02 -2.80190024E-01  0.00000000E+00 -8.05262670E-01  0.00000000E+00
 -1.94695645E-02  1.40095012E-01  4.59027672E-01  1.02034192E-02  0.00000000E+00
 -1.94695645E-02  1.40095012E-01  4.59027672E-01 -1.02034192E-02  0.00000000E+00
 -5.14547211E-01  2.57273605E-01  2.57273605E-01 -5.14547211E-01  2.57273605E-01
  2.57273605E-01  0.00000000E+00  0.00000000E+00  2.54816331E-01  0.00000000E+00
  0.00000000E+00  3.37222749E-02 -2.42651678E-01  5.40242920E-01  4.59027672E-01
  0.00000000E+00 -3.37222749E-02  2.42651678E-01 -5.40242920E-01  4.59027672E-01
  0.00000000E+00  0.00000000E+00  0.00000000E+00 -2.54816331E-01  0.00000000E+00
  0.00000000E+00  3.37222749E-02 -2.42651678E-01 -5.40242920E-01 -4.59027672E-01
  0.00000000E+00 -3.37222749E-02  2.42651678E-01  5.40242920E-01 -4.59027672E-01
  0.00000000E+00  0.00000000E+00 -4.45610956E-01  4.45610956E-01  0.00000000E+00
 -4.45610956E-01  4.45610956E-01 -9.45676680E-02  6.76233220E-01  0.00000000E+00
  5.51717903E-02  0.00000000E+00 -4.72838340E-02  3.38116610E-01  3.90216658E-01
 -6.20703287E-01  0.00000000E+00  4.72838340E-02 -3.38116610E-01 -3.90216658E-01
 -6.20703287E-01  0.00000000E+00  9.45676680E-02 -6.76233220E-01  0.00000000E+00
  5.51717903E-02  0.00000000E+00  4.72838340E-02 -3.38116610E-01  3.90216658E-01
 -6.20703287E-01  0.00000000E+00 -4.72838340E-02  3.38116610E-01 -3.90216658E-01
 -6.20703287E-01  0.00000000E+00 -2.82783514E-01 -1.41391757E-01  1.41391757E-01
  2.82783514E-01  1.41391757E-01 -1.41391757E-01  0.00000000E+00  0.00000000E+00
  8.45994980E-01  0.00000000E+00  0.00000000E+00  8.18980028E-02 -5.85635148E-01
  1.70119902E-01 -3.90216658E-01  0.00000000E+00  8.18980028E-02 -5.85635148E-01
  1.70119902E-01  3.90216658E-01  0.00000000E+00  0.00000000E+00  0.00000000E+00
  8.45994980E-01  0.00000000E+00  0.00000000E+00 -8.18980028E-02  5.85635148E-01
  1.70119902E-01 -3.90216658E-01  0.00000000E+00 -8.18980028E-02  5.85635148E-01
  1.70119902E-01  3.90216658E-01  0.00000000E+00  0.00000000E+00  2.44897707E-01
  2.44897707E-01  0.00000000E+00 -2.44897707E-01 -2.44897707E-01  0.00000000E+00
  0.00000000E+00  7.56390079E-01  0.00000000E+00  0.00000000E+00  2.28852157E-15
 -1.43050173E-14  3.78195040E-01 -6.55053024E-01  0.00000000E+00 -2.28852157E-15
  1.43050173E-14 -3.78195040E-01 -6.55053024E-01  0.00000000E+00  0.00000000E+00
  0.00000000E+00 -7.56390079E-01  0.00000000E+00  0.00000000E+00  2.28852157E-15
 -1.43050173E-14 -3.78195040E-01  6.55053024E-01  0.00000000E+00 -2.28852157E-15
  1.43050173E-14  3.78195040E-01  6.55053024E-01  0.00000000E+00  0.00000000E+00
 -3.95896958E-18  3.95896958E-18  0.00000000E+00 -3.95896958E-18  3.95896958E-18
  6.37018991E-02 -4.81981214E-01  0.00000000E+00  6.70228702E-01  0.00000000E+00
 -6.37018991E-02  4.81981214E-01 -5.80435082E-01 -3.35114351E-01  0.00000000E+00
  6.37018991E-02 -4.81981214E-01  5.80435082E-01 -3.35114351E-01  0.00000000E+00
 -6.37018991E-02  4.81981214E-01  0.00000000E+00  6.70228702E-01  0.00000000E+00
  6.37018991E-02 -4.81981214E-01 -5.80435082E-01 -3.35114351E-01  0.00000000E+00
 -6.37018991E-02  4.81981214E-01  5.80435082E-01 -3.35114351E-01  0.00000000E+00
 -2.64507580E-01  2.64507580E-01 -2.64507580E-01  2.64507580E-01 -2.64507580E-01
  2.64507580E-01
Orthonormal basis                          R   N=        1296
  5.32778037E-02  2.07967309E-01  0.00000000E+00 -1.23523939E-01  0.00000000E+00
  5.32778037E-02  2.07967309E-01 -1.06974870E-01 -6.17619697E-02  0.00000000E+00
  5.32778037E-02  2.07967309E-01 -1.06974870E-01  6.17619697E-02  0.00000000E+00
  5.32778037E-02  2.07967309E-01  0.00000000E+00  1.23523939E-01  0.00000000E+00
  5.32778037E-02  2.07967309E-01  1.06974870E-01  6.17619697E-02  0.00000000E+00
  5.32778037E-02  2.07967309E-01  1.06974870E-01 -6.17619697E-02  0.00000000E+00
  6.60676170E-02  6.60676170E-02  6.60676170E-02  6.60676170E-02  6.60676170E-02
  6.60676170E-02  2.19728069E-02  6.92337609E-02  0.00000000E+00  2.22832482E-01
  0.00000000E+00  2.19728069E-02  6.92337609E-02  1.92978590E-01  1.11416241E-01
  0.00000000E+00  2.19728069E-02  6.92337609E-02  1.92978590E-01 -1.11416241E-01
  0.00000000E+00  2.19728069E-02  6.92337609E-02  0.00000000E+00 -2.22832482E-01
  0.00000000E+00  2.19728069E-02  6.92337609E-02 -1.92978590E-01 -1.11416241E-01
  0.00000000E+00  2.19728069E-02  6.92337609E-02 -1.92978590E-01  1.11416241E-01
  0.00000000E+00  1.80967995E-01  1.80967995E-01  1.80967995E-01  1.80967995E-01
  1.80967995E-01  1.80967995E-01  9.05582241E-02  2.00075518E-01  0.00000000E+00
  1.21589147E-01  0.00000000E+00 -4.52791120E-02 -1.00037759E-01 -1.67910630E-01
  1.69240596E-01  0.00000000E+00 -4.52791120E-02 -1.00037759E-01 -1.67910630E-01
 -1.69240596E-01  0.00000000E+00  9.05582241E-02  2.00075518E-01  0.00000000E+00
 -1.21589147E-01  0.00000000E+00 -4.52791120E-02 -1.00037759E-01  1.67910630E-01
 -1.69240596E-01  0.00000000E+00 -4.52791120E-02 -1.00037759E-01  1.67910630E-01
  1.69240596E-01  0.00000000E+00  2.04065323E-01 -1.02032662E-01 -1.02032662E-01
  2.04065323E-01 -1.02032662E-01 -1.02032662E-01  2.86660468E-02  2.25323591E-03
  0.00000000E+00 -2.91953090E-01  0.00000000E+00 -1.43330234E-02 -1.12661795E-03
 -1.97890832E-02  3.26228787E-01  0.00000000E+00 -1.43330234E-02 -1.12661795E-03
 -1.97890832E-02 -3.26228787E-01  0.00000000E+00  2.86660468E-02  2.25323591E-03
  0.00000000E+00  2.91953090E-01  0.00000000E+00 -1.43330234E-02 -1.12661795E-03
  1.97890832E-02 -3.26228787E-01  0.00000000E+00 -1.43330234E-02 -1.12661795E-03
  1.97890832E-02  3.26228787E-01  0.00000000E+00 -2.81412247E-01  1.40706123E-01
  1.40706123E-01 -2.81412247E-01  1.40706123E-01  1.40706123E-01  5.60388125E-01
  2.73516567E-02  0.00000000E+00 -3.31198892E-02  0.00000000E+00 -2.80194062E-01
 -1.36758283E-02  7.44156217E-02 -9.57717484E-02  0.00000000E+00 -2.80194062E-01
 -1.36758283E-02  7.44156217E-02  9.57717484E-02  0.00000000E+00  5.60388125E-01
  2.73516567E-02  0.00000000E+00  3.31198892E-02  0.00000000E+00 -2.80194062E-01
 -1.36758283E-02 -7.44156217E-02  9.57717484E-02  0.00000000E+00 -2.80194062E-01
 -1.36758283E-02 -7.44156217E-02 -9.57717484E-02  0.00000000E+00 -7.47993261E-02
  3.73996630E-02  3.73996630E-02 -7.47993261E-02  3.73996630E-02  3.73996630E-02
  4.07293849E-01 -4.97539045E-02  0.00000000E+00  4.56026994E-02  0.00000000E+00
  4.07293849E-01 -4.97539045E-02  3.94930962E-02  2.28013497E-02  0.00000000E+00
  4.07293849E-01 -4.97539045E-02  3.94930962E-02 -2.28013497E-02  0.00000000E+00
  4.07293849E-01 -4.97539045E-02  0.00000000E+00 -4.56026994E-02  0.00000000E+00
  4.07293849E-01 -4.97539045E-02 -3.94930962E-02 -2.28013497E-02  0.00000000E+00
  4.07293849E-01 -4.97539045E-02 -3.94930962E-02  2.28013497E-02  0.00000000E+00
 -8.65705665E-02 -8.65705665E-02 -8.65705665E-02 -8.65705665E-02 -8.65705665E-02
 -8.65705665E-02  9.45112473E-02 -3.58269313E-01  0.00000000E+00 -2.98598870E-01
  0.00000000E+00  9.45112473E-02 -3.58269313E-01 -2.58594207E-01 -1.49299435E-01
  0.00000000E+00  9.45112473E-02 -3.58269313E-01 -2.58594207E-01  1.49299435E-01
  0.00000000E+00  9.45112473E-02 -3.58269313E-01  0.00000000E+00  2.98598870E-01
  0.00000000E+00  9.45112473E-02 -3.58269313E-01  2.58594207E-01  1.49299435E-01
  0.00000000E+00  9.45112473E-02 -3.58269313E-01  2.58594207E-01 -1.49299435E-01
  0.00000000E+00  4.93265021E-01  4.93265021E-01  4.93265021E-01  4.93265021E-01
  4.93265021E-01  4.93265021E-01 -7.43203633E-03  1.07233022E-02  0.00000000E+00
  7.69801881E-01  0.00000000E+00  3.71601817E-03 -5.36165108E-03 -3.90985350E-01
 -9.25953894E-02  0.00000000E+00  3.71601817E-03 -5.36165108E-03 -3.90985350E-01
  9.25953894E-02  0.00000000E+00 -7.43203633E-03  1.07233022E-02  0.00000000E+00
 -7.69801881E-01  0.00000000E+00  3.71601817E-03 -5.36165108E-03  3.90985350E-01
  9.25953894E-02  0.00000000E+00  3.71601817E-03 -5.36165108E-03  3.90985350E-01
 -9.25953894E-02  0.00000000E+00 -6.39558627E-01  3.19779313E-01  3.19779313E-01
 -6.39558627E-01  3.19779313E-01  3.19779313E-01 -2.12454339E-01  1.10199374E+00
  0.00000000E+00 -2.02885989E-01  0.00000000E+00  1.06227170E-01 -5.50996869E-01
  2.71646957E-01 -2.67620342E-01  0.00000000E+00  1.06227170E-01 -5.50996869E-01
  2.71646957E-01  2.67620342E-01  0.00000000E+00 -2.12454339E-01  1.10199374E+00
  0.00000000E+00  2.02885989E-01  0.00000000E+00  1.06227170E-01 -5.50996869E-01
 -2.71646957E-01  2.67620342E-01  0.00000000E+00  1.06227170E-01 -5.50996869E-01
 -2.71646957E-01 -2.67620342E-01  0.00000000E+00 -3.11618226E-01  1.55809113E-01
  1.55809113E-01 -3.11618226E-01  1.55809113E-01  1.55809113E-01  0.00000000E+00
  0.00000000E+00  2.66183843E-01  0.00000000E+00  0.00000000E+00  7.84257226E-02
  1.73270481E-01  2.46458995E-02  1.67910630E-01  0.00000000E+00 -7.84257226E-02
 -1.73270481E-01 -2.46458995E-02  1.67910630E-01  0.00000000E+00  0.00000000E+00
  0.00000000E+00 -2.66183843E-01  0.00000000E+00  0.00000000E+00  7.84257226E-02
  1.73270481E-01 -2.46458995E-02 -1.67910630E-01  0.00000000E+00 -7.84257226E-02
 -1.73270481E-01  2.46458995E-02 -1.67910630E-01  0.00000000E+00  0.00000000E+00
  1.76725754E-01 -1.76725754E-01  0.00000000E+00  1.76725754E-01 -1.76725754E-01
  0.00000000E+00  0.00000000E+00 -3.37654020E-01  0.00000000E+00  0.00000000E+00
 -2.48255247E-02 -1.95135954E-03  3.03378322E-01 -1.97890832E-02  0.00000000E+00
  2.48255247E-02  1.95135954E-03 -3.03378322E-01 -1.97890832E-02  0.00000000E+00
  0.00000000E+00  0.00000000E+00  3.37654020E-01  0.00000000E+00  0.00000000E+00
 -2.48255247E-02 -1.95135954E-03 -3.03378322E-01  1.97890832E-02  0.00000000E+00
  2.48255247E-02  1.95135954E-03  3.03378322E-01  1.97890832E-02  0.00000000E+00
  0.00000000E+00  2.43710154E-01 -2.43710154E-01  0.00000000E+00  2.43710154E-01
 -2.43710154E-01  0.00000000E+00  0.00000000E+00 -1.38735628E-01  0.00000000E+00
  0.00000000E+00  4.85310352E-01  2.36872295E-02  9.84398996E-03 -7.44156217E-02
  0.00000000E+00 -4.85310352E-01 -2.36872295E-02 -9.84398996E-03 -7.44156217E-02
  0.00000000E+00  0.00000000E+00  0.00000000E+00  1.38735628E-01  0.00000000E+00
  0.00000000E+00  4.85310352E-01  2.36872295E-02 -9.84398996E-03  7.44156217E-02
  0.00000000E+00 -4.85310352E-01 -2.36872295E-02  9.84398996E-03  7.44156217E-02
  0.00000000E+00  0.00000000E+00 -6.47781166E-02  6.47781166E-02  0.00000000E+00
 -6.47781166E-02  6.47781166E-02  0.00000000E+00  0.00000000E+00 -1.33140108E-01
  0.00000000E+00  0.00000000E+00  6.43633227E-03 -9.28665208E-03 -5.44066384E-01
 -3.90985350E-01  0.00000000E+00 -6.43633227E-03  9.28665208E-03  5.44066384E-01
 -3.90985350E-01  0.00000000E+00  0.00000000E+00  0.00000000E+00  1.33140108E-01
  0.00000000E+00  0.00000000E+00  6.43633227E-03 -9.28665208E-03  5.44066384E-01
  3.90985350E-01  0.00000000E+00 -6.43633227E-03  9.28665208E-03 -5.44066384E-01
  3.90985350E-01  0.00000000E+00  0.00000000E+00  5.53874018E-01 -5.53874018E-01
  0.00000000E+00  5.53874018E-01 -5.53874018E-01  0.00000000E+00  0.00000000E+00
 -7.56390079E-01  0.00000000E+00  0.00000000E+00 -9.61265111E-16  4.20715981E-15
 -3.78195040E-01  6.55053024E-01  0.00000000E+00  9.61265111E-16 -4.20715981E-15
  3.78195040E-01  6.55053024E-01  0.00000000E+00  0.00000000E+00  0.00000000E+00
  7.56390079E-01  0.00000000E+00  0.00000000E+00 -9.61265111E-16  4.20715981E-15
  3.78195040E-01 -6.55053024E-01  0.00000000E+00  9.61265111E-16 -4.20715981E-15
 -3.78195040E-01 -6.55053024E-01  0.00000000E+00  0.00000000E+00 -4.04298053E-15
  4.04298053E-15  0.00000000E+00 -4.04298053E-15  4.04298053E-15  0.00000000E+00
  0.00000000E+00 -4.24455785E-01  0.00000000E+00  0.00000000E+00 -1.83990855E-01
  9.54354572E-01 -4.60505452E-02 -2.71646957E-01  0.00000000E+00  1.83990855E-01
 -9.54354572E-01  4.60505452E-02 -2.71646957E-01  0.00000000E+00  0.00000000E+00
  0.00000000E+00  4.24455785E-01  0.00000000E+00  0.00000000E+00 -1.83990855E-01
  9.54354572E-01  4.60505452E-02  2.71646957E-01  0.00000000E+00  1.83990855E-01
 -9.54354572E-01 -4.60505452E-02  2.71646957E-01  0.00000000E+00  0.00000000E+00
 -2.69869300E-01  2.69869300E-01  0.00000000E+00 -2.69869300E-01  2.69869300E-01
  0.00000000E+00  0.00000000E+00  0.00000000E+00  0.00000000E+00  0.00000000E+00
  0.00000000E+00  0.00000000E+00  0.00000000E+00  0.00000000E+00  4.60458814E-01
  0.00000000E+00  0.00000000E+00  0.00000000E+00  0.00000000E+00  4.60458814E-01
  0.00000000E+00  0.00000000E+00  0.00000000E+00  0.00000000E+00  0.00000000E+00
  0.00000000E+00  0.00000000E+00  0.00000000E+00  0.00000000E+00 -4.60458814E-01
  0.00000000E+00  0.00000000E+00  0.00000000E+00  0.00000000E+00 -4.60458814E-01
  0.00000000E+00  0.00000000E+00  0.00000000E+00  0.00000000E+00  0.00000000E+00
  0.00000000E+00  0.00000000E+00  0.00000000E+00  0.00000000E+00  0.00000000E+00
  5.31692040E-01  0.00000000E+00  0.00000000E+00  0.00000000E+00  0.00000000E+00
  2.65846020E-01  0.00000000E+00  0.00000000E+00  0.00000000E+00  0.00000000E+00
 -2.65846020E-01  0.00000000E+00  0.00000000E+00  0.00000000E+00  0.00000000E+00
 -5.31692040E-01  0.00000000E+00  0.00000000E+00  0.00000000E+00  0.00000000E+00
 -2.65846020E-01  0.00000000E+00  0.00000000E+00  0.00000000E+00  0.00000000E+00
  2.65846020E-01  0.00000000E+00  0.00000000E+00  0.00000000E+00  0.00000000E+00
  0.00000000E+00  0.00000000E+00  0.00000000E+00  0.00000000E+00  0.00000000E+00
  0.00000000E+00 -5.22194552E-01  0.00000000E+00  0.00000000E+00  0.00000000E+00
  0.00000000E+00  5.22194552E-01  0.00000000E+00  0.00000000E+00  0.00000000E+00
  0.00000000E+00 -5.22194552E-01  0.00000000E+00  0.00000000E+00  0.00000000E+00
  0.00000000E+00  5.22194552E-01  0.00000000E+00  0.00000000E+00  0.00000000E+00
  0.00000000E+00 -5.22194552E-01  0.00000000E+00  0.00000000E+00  0.00000000E+00
  0.00000000E+00  5.22194552E-01  0.00000000E+00  0.00000000E+00  0.00000000E+00
  0.00000000E+00  0.00000000E+00  0.00000000E+00  0.00000000E+00  0.00000000E+00
  0.00000000E+00  0.00000000E+00  0.00000000E+00  0.00000000E+00  0.00000000E+00
  0.00000000E+00  0.00000000E+00  5.69967912E-01  0.00000000E+00  0.00000000E+00
  0.00000000E+00  0.00000000E+00 -5.69967912E-01  0.00000000E+00  0.00000000E+00
  0.00000000E+00  0.00000000E+00  0.00000000E+00  0.00000000E+00  0.00000000E+00
  0.00000000E+00  0.00000000E+00  5.69967912E-01  0.00000000E+00  0.00000000E+00
  0.00000000E+00  0.00000000E+00 -5.69967912E-01  0.00000000E+00  0.00000000E+00
  0.00000000E+00  0.00000000E+00  0.00000000E+00  0.00000000E+00  0.00000000E+00
  0.00000000E+00  0.00000000E+00  0.00000000E+00  3.34287600E-01  0.00000000E+00
  0.00000000E+00  0.00000000E+00  0.00000000E+00  3.34287600E-01  0.00000000E+00
  0.00000000E+00  0.00000000E+00  0.00000000E+00  3.34287600E-01  0.00000000E+00
  0.00000000E+00  0.00000000E+00  0.00000000E+00  3.34287600E-01  0.00000000E+00
  0.00000000E+00  0.00000000E+00  0.00000000E+00  3.34287600E-01  0.00000000E+00
  0.00000000E+00  0.00000000E+00  0.00000000E+00  3.34287600E-01  0.00000000E+00
  0.00000000E+00  0.00000000E+00  0.00000000E+00  0.00000000E+00  0.00000000E+00
  0.00000000E+00  0.00000000E+00  0.00000000E+00  0.00000000E+00  6.58142254E-01
  0.00000000E+00  0.00000000E+00  0.00000000E+00  0.00000000E+00 -3.29071127E-01
  0.00000000E+00  0.00000000E+00  0.00000000E+00  0.00000000E+00 -3.29071127E-01
  0.00000000E+00  0.00000000E+00  0.00000000E+00  0.00000000E+00  6.58142254E-01
  0.00000000E+00  0.00000000E+00  0.00000000E+00  0.00000000E+00 -3.29071127E-01
  0.00000000E+00  0.00000000E+00  0.00000000E+00  0.00000000E+00 -3.29071127E-01
  0.00000000E+00  0.00000000E+00  0.00000000E+00  0.00000000E+00  0.00000000E+00
  0.00000000E+00  9.20522795E-02  2.78034375E-01  0.00000000E+00  4.05113459E-02
  0.00000000E+00  4.60261398E-02  1.39017187E-01 -5.38699414E-02  1.33816822E-01
  0.00000000E+00 -4.60261398E-02 -1.39017187E-01  5.38699414E-02  1.33816822E-01
  0.00000000E+00 -9.20522795E-02 -2.78034375E-01  0.00000000E+00  4.05113459E-02
  0.00000000E+00 -4.60261398E-02 -1.39017187E-01 -5.38699414E-02  1.33816822E-01
  0.00000000E+00  4.60261398E-02  1.39017187E-01  5.38699414E-02  1.33816822E-01
  0.00000000E+00  1.98466363E-01  9.92331813E-02 -9.92331813E-02 -1.98466363E-01
 -9.92331813E-02  9.92331813E-02 -9.75504670E-02 -1.27214157E-01  0.00000000E+00
 -1.84422402E-01  0.00000000E+00  9.75504670E-02  1.27214157E-01  1.59714485E-01
  9.22112010E-02  0.00000000E+00 -9.75504670E-02 -1.27214157E-01 -1.59714485E-01
  9.22112010E-02  0.00000000E+00  9.75504670E-02  1.27214157E-01  0.00000000E+00
 -1.84422402E-01  0.00000000E+00 -9.75504670E-02 -1.27214157E-01  1.59714485E-01
  9.22112010E-02  0.00000000E+00  9.75504670E-02  1.27214157E-01 -1.59714485E-01
  9.22112010E-02  0.00000000E+00 -2.33780874E-01  2.33780874E-01 -2.33780874E-01
  2.33780874E-01 -2.33780874E-01  2.33780874E-01 -8.94973725E-02 -1.04936107E-01
  0.00000000E+00  3.84767669E-01  0.00000000E+00 -4.47486863E-02 -5.24680537E-02
  2.23962462E-01 -3.14669418E-03  0.00000000E+00  4.47486863E-02  5.24680537E-02
 -2.23962462E-01 -3.14669418E-03  0.00000000E+00  8.94973725E-02  1.04936107E-01
  0.00000000E+00  3.84767669E-01  0.00000000E+00  4.47486863E-02  5.24680537E-02
  2.23962462E-01 -3.14669418E-03  0.00000000E+00 -4.47486863E-02 -5.24680537E-02
 -2.23962462E-01 -3.14669418E-03  0.00000000E+00  2.20040034E-01  1.10020017E-01
 -1.10020017E-01 -2.20040034E-01 -1.10020017E-01  1.10020017E-01 -3.87905636E-01
 -2.04628344E-02  0.00000000E+00  7.51965254E-02  0.00000000E+00  3.87905636E-01
  2.04628344E-02 -6.51221013E-02 -3.75982627E-02  0.00000000E+00 -3.87905636E-01
 -2.04628344E-02  6.51221013E-02 -3.75982627E-02  0.00000000E+00  3.87905636E-01
  2.04628344E-02  0.00000000E+00  7.51965254E-02  0.00000000E+00 -3.87905636E-01
 -2.04628344E-02 -6.51221013E-02 -3.75982627E-02  0.00000000E+00  3.87905636E-01
  2.04628344E-02  6.51221013E-02 -3.75982627E-02  0.00000000E+00  1.13677453E-01
 -1.13677453E-01  1.13677453E-01 -1.13677453E-01  1.13677453E-01 -1.13677453E-01
  5.67075470E-01 -7.62832880E-02  0.00000000E+00  9.66020264E-02  0.00000000E+00
  2.83537735E-01 -3.81416440E-02  1.02636893E-01 -8.11702876E-02  0.00000000E+00
 -2.83537735E-01  3.81416440E-02 -1.02636893E-01 -8.11702876E-02  0.00000000E+00
 -5.67075470E-01  7.62832880E-02  0.00000000E+00  9.66020264E-02  0.00000000E+00
 -2.83537735E-01  3.81416440E-02  1.02636893E-01 -8.11702876E-02  0.00000000E+00
  2.83537735E-01 -3.81416440E-02 -1.02636893E-01 -8.11702876E-02  0.00000000E+00
 -5.91815199E-02 -2.95907600E-02  2.95907600E-02  5.91815199E-02  2.95907600E-02
 -2.95907600E-02 -1.59300612E-02  4.05172314E-02  0.00000000E+00  5.07508500E-01
  0.00000000E+00 -7.96503060E-03  2.02586157E-02  1.68619126E-03  5.04587931E-01
  0.00000000E+00  7.96503060E-03 -2.02586157E-02 -1.68619126E-03  5.04587931E-01
  0.00000000E+00  1.59300612E-02 -4.05172314E-02  0.00000000E+00  5.07508500E-01
  0.00000000E+00  7.96503060E-03 -2.02586157E-02  1.68619126E-03  5.04587931E-01
  0.00000000E+00 -7.96503060E-03  2.02586157E-02 -1.68619126E-03  5.04587931E-01
  0.00000000E+00 -5.71452221E-01 -2.85726110E-01  2.85726110E-01  5.71452221E-01
  2.85726110E-01 -2.85726110E-01 -4.95680507E-02  1.67450783E-01  0.00000000E+00
  5.38268628E-01  0.00000000E+00  4.95680507E-02 -1.67450783E-01 -4.66154306E-01
 -2.69134314E-01  0.00000000E+00 -4.95680507E-02  1.67450783E-01  4.66154306E-01
 -2.69134314E-01  0.00000000E+00  4.95680507E-02 -1.67450783E-01  0.00000000E+00
  5.38268628E-01  0.00000000E+00 -4.95680507E-02  1.67450783E-01 -4.66154306E-01
 -2.69134314E-01  0.00000000E+00  4.95680507E-02 -1.67450783E-01  4.66154306E-01
 -2.69134314E-01  0.00000000E+00 -4.95059818E-01  4.95059818E-01 -4.95059818E-01
  4.95059818E-01 -4.95059818E-01  4.95059818E-01 -1.49100620E-01  7.54158476E-01
  0.00000000E+00  1.67525202E-01  0.00000000E+00 -7.45503101E-02  3.77079238E-01
  3.83079664E-01 -4.95988240E-01  0.00000000E+00  7.45503101E-02 -3.77079238E-01
 -3.83079664E-01 -4.95988240E-01  0.00000000E+00  1.49100620E-01 -7.54158476E-01
  0.00000000E+00  1.67525202E-01  0.00000000E+00  7.45503101E-02 -3.77079238E-01
  3.83079664E-01 -4.95988240E-01  0.00000000E+00 -7.45503101E-02  3.77079238E-01
 -3.83079664E-01 -4.95988240E-01  0.00000000E+00 -4.25616931E-01 -2.12808466E-01
  2.12808466E-01  4.25616931E-01  2.12808466E-01 -2.12808466E-01  1.54261599E-01
 -8.84354919E-01  0.00000000E+00  3.89859322E-01  0.00000000E+00 -1.54261599E-01
  8.84354919E-01 -3.37628077E-01 -1.94929661E-01  0.00000000E+00  1.54261599E-01
 -8.84354919E-01  3.37628077E-01 -1.94929661E-01  0.00000000E+00 -1.54261599E-01
  8.84354919E-01  0.00000000E+00  3.89859322E-01  0.00000000E+00  1.54261599E-01
 -8.84354919E-01 -3.37628077E-01 -1.94929661E-01  0.00000000E+00 -1.54261599E-01
  8.84354919E-01  3.37628077E-01 -1.94929661E-01  0.00000000E+00  1.09313400E-01
 -1.09313400E-01  1.09313400E-01 -1.09313400E-01  1.09313400E-01 -1.09313400E-01
  0.00000000E+00  0.00000000E+00  1.64918647E-01  0.00000000E+00  0.00000000E+00
  7.97196125E-02  2.40784832E-01  7.16131711E-02 -5.38699414E-02  0.00000000E+00
  7.97196125E-02  2.40784832E-01  7.16131711E-02  5.38699414E-02  0.00000000E+00
  0.00000000E+00  0.00000000E+00  1.64918647E-01  0.00000000E+00  0.00000000E+00
 -7.97196125E-02 -2.40784832E-01  7.16131711E-02 -5.38699414E-02  0.00000000E+00
 -7.97196125E-02 -2.40784832E-01  7.16131711E-02  5.38699414E-02  0.00000000E+00
  0.00000000E+00  1.71876912E-01  1.71876912E-01  0.00000000E+00 -1.71876912E-01
 -1.71876912E-01  0.00000000E+00  0.00000000E+00  3.32124345E-01  0.00000000E+00
  0.00000000E+00 -5.45619389E-16 -5.72806452E-16 -1.66062173E-01  2.87628120E-01
  0.00000000E+00 -5.45619389E-16 -5.72806452E-16 -1.66062173E-01 -2.87628120E-01
  0.00000000E+00  0.00000000E+00  0.00000000E+00  3.32124345E-01  0.00000000E+00
  0.00000000E+00  5.45619389E-16  5.72806452E-16 -1.66062173E-01  2.87628120E-01
  0.00000000E+00  5.45619389E-16  5.72806452E-16 -1.66062173E-01 -2.87628120E-01
  0.00000000E+00  0.00000000E+00  1.07854540E-15  1.07854540E-15  0.00000000E+00
 -1.07854540E-15 -1.07854540E-15  0.00000000E+00  0.00000000E+00 -1.32451482E-01
  0.00000000E+00  0.00000000E+00 -7.75069982E-02 -9.08773347E-02  2.55462881E-01
  2.23962462E-01  0.00000000E+00 -7.75069982E-02 -9.08773347E-02  2.55462881E-01
 -2.23962462E-01  0.00000000E+00  0.00000000E+00  0.00000000E+00 -1.32451482E-01
  0.00000000E+00  0.00000000E+00  7.75069982E-02  9.08773347E-02  2.55462881E-01
  2.23962462E-01  0.00000000E+00  7.75069982E-02  9.08773347E-02  2.55462881E-01
 -2.23962462E-01  0.00000000E+00  0.00000000E+00  1.90560259E-01  1.90560259E-01
  0.00000000E+00 -1.90560259E-01 -1.90560259E-01  0.00000000E+00  0.00000000E+00
 -1.40427726E-01  0.00000000E+00  0.00000000E+00  4.91101763E-01 -6.60632653E-02
  3.73445884E-02  1.02636893E-01  0.00000000E+00  4.91101763E-01 -6.60632653E-02
  3.73445884E-02 -1.02636893E-01  0.00000000E+00  0.00000000E+00  0.00000000E+00
 -1.40427726E-01  0.00000000E+00  0.00000000E+00 -4.91101763E-01  6.60632653E-02
  3.73445884E-02  1.02636893E-01  0.00000000E+00 -4.91101763E-01  6.60632653E-02
  3.73445884E-02 -1.02636893E-01  0.00000000E+00  0.00000000E+00 -5.12526997E-02
 -5.12526997E-02  0.00000000E+00  5.12526997E-02  5.12526997E-02  0.00000000E+00
  0.00000000E+00  5.03614408E-01  0.00000000E+00  0.00000000E+00 -1.37958377E-02
  3.50889517E-02  5.06534977E-01  1.68619126E-03  0.00000000E+00 -1.37958377E-02
  3.50889517E-02  5.06534977E-01 -1.68619126E-03  0.00000000E+00  0.00000000E+00
  0.00000000E+00  5.03614408E-01  0.00000000E+00  0.00000000E+00  1.37958377E-02
 -3.50889517E-02  5.06534977E-01  1.68619126E-03  0.00000000E+00  1.37958377E-02
 -3.50889517E-02  5.06534977E-01 -1.68619126E-03  0.00000000E+00  0.00000000E+00
 -4.94892140E-01 -4.94892140E-01  0.00000000E+00  4.94892140E-01  4.94892140E-01
  0.00000000E+00  0.00000000E+00 -7.17159387E-01  0.00000000E+00  0.00000000E+00
 -1.29124925E-01  6.53120399E-01 -5.36459453E-02  3.83079664E-01  0.00000000E+00
 -1.29124925E-01  6.53120399E-01 -5.36459453E-02 -3.83079664E-01  0.00000000E+00
  0.00000000E+00  0.00000000E+00 -7.17159387E-01  0.00000000E+00  0.00000000E+00
  1.29124925E-01 -6.53120399E-01 -5.36459453E-02  3.83079664E-01  0.00000000E+00
  1.29124925E-01 -6.53120399E-01 -5.36459453E-02 -3.83079664E-01  0.00000000E+00
  0.00000000E+00 -3.68595075E-01 -3.68595075E-01  0.00000000E+00  3.68595075E-01
  3.68595075E-01
Total SCF Density                          R   N=         666
  2.07000907E+00 -2.10934081E-01  8.00271212E-01 -2.31330886E-20  2.42366108E-19
  6.03421946E-01 -1.74091605E-03  2.04925257E-02 -7.38582525E-18  6.17081626E-01
  3.31531643E-20 -3.90249761E-19  9.46383087E-19  3.27182142E-18  7.88889251E-01
  2.42312699E-02 -6.31717672E-02 -9.58783970E-02  5.59320384E-02 -5.75904506E-19
  2.07000907E+00 -6.31717672E-02  9.47538429E-02  2.48942829E-01 -1.52254771E-01
  1.62918699E-18 -2.10934081E-01  8.00271212E-01  9.63777646E-02 -2.56327915E-01
 -3.51597282E-01  1.98795947E-01  5.91267303E-19 -1.50767752E-03  1.77470479E-02
  6.13666706E-01 -5.50671083E-02  1.39463429E-01  2.09838554E-01 -1.15672043E-01
  1.07717520E-17 -8.70458024E-04  1.02462629E-02  5.91481473E-03  6.06836866E-01
  5.56885075E-19 -1.34791101E-18  3.80977215E-19  1.08280991E-17  5.06192825E-01
  2.42698007E-20 -2.85682653E-19  7.81468328E-19  3.43673618E-18  7.88889251E-01
 -4.64525957E-03  1.46519731E-02  1.28538933E-02 -1.91130611E-02  2.98390407E-19
  2.42312699E-02 -6.31717672E-02  4.99367611E-04  1.10999147E-01 -2.11636226E-18
  2.07000907E+00  1.46519731E-02 -3.78153375E-02 -4.11041668E-02  7.47337940E-02
 -1.21345225E-18 -6.31717672E-02  9.47538429E-02 -7.38508514E-03 -2.91718200E-01
  5.59302433E-18 -2.10934081E-01  8.00271212E-01 -1.01254498E-02  4.41692807E-02
  3.55737922E-02 -1.60051544E-02 -1.78807458E-19  4.99367611E-04 -7.38508514E-03
  2.29057658E-03 -5.52130387E-03  2.67640453E-18 -1.50767752E-03  1.77470479E-02
  6.13666706E-01  2.06883287E-02 -7.29641497E-02 -5.42659197E-02  7.61448157E-02
 -2.30053935E-18 -1.10999147E-01  2.91718200E-01  5.52130387E-03 -4.69559902E-01
  1.85535901E-17  8.70458024E-04 -1.02462629E-02 -5.91481473E-03  6.06836866E-01
 -3.42311456E-19  1.16411166E-18  5.49812076E-19 -2.49577237E-18 -5.92000260E-02
  2.11126601E-18 -5.51765666E-18  2.46611444E-18  1.86099371E-17  5.06192825E-01
 -8.88336361E-21  1.04567108E-19  1.00674608E-18  3.49709917E-18  7.88889251E-01
 -4.36472312E-03  1.52001731E-02 -2.62109319E-19 -1.18390593E-02  2.25457327E-19
 -4.64525957E-03  1.46519731E-02 -1.01254498E-02 -2.06883287E-02  4.45645621E-19
  2.42312699E-02 -6.31717672E-02  9.63777646E-02  5.50671083E-02 -1.54045775E-18
  2.07000907E+00  1.52001731E-02 -5.18466347E-02  1.91289238E-19  4.28795628E-02
 -8.16577682E-19  1.46519731E-02 -3.78153375E-02  4.41692807E-02  7.29641497E-02
 -1.61487639E-18 -6.31717672E-02  9.47538429E-02 -2.56327915E-01 -1.39463429E-01
  3.96383734E-18 -2.10934081E-01  8.00271212E-01  2.62109319E-19 -1.91289238E-19
 -5.32088355E-02  9.64223307E-19 -1.47308485E-18  1.28538933E-02 -4.11041668E-02
  3.55737922E-02  5.42659197E-02 -1.51701585E-18 -9.58783970E-02  2.48942829E-01
 -3.51597282E-01 -2.09838554E-01  8.37310536E-18  2.31330886E-20 -2.42366108E-19
  6.03421946E-01  1.18390593E-02 -4.28795628E-02  6.81528194E-19  3.66448078E-02
 -7.20875690E-18  1.91130611E-02 -7.47337940E-02  1.60051544E-02  7.61448157E-02
 -2.65911121E-18 -5.59320384E-02  1.52254771E-01 -1.98795947E-01 -1.15672043E-01
  1.28568893E-17  1.74091605E-03 -2.04925257E-02 -7.38582525E-18  6.17081626E-01
 -2.25457327E-19  8.16577682E-19 -1.47308485E-18 -7.20875690E-18 -3.41896452E-01
 -4.29569401E-19  1.63293630E-18 -7.88396317E-19 -2.85434423E-18 -5.92000260E-02
  1.55438094E-18 -4.16974565E-18  8.16281527E-18  1.29132363E-17  5.06192825E-01
 -3.31531643E-20  3.90249761E-19  9.46383087E-19  3.27182142E-18  7.88889251E-01
 -4.64525957E-03  1.46519731E-02 -1.28538933E-02 -1.91130611E-02  4.29569401E-19
 -4.36472312E-03  1.52001731E-02 -1.02529261E-02 -5.91952964E-03  1.65046218E-19
 -4.64525957E-03  1.46519731E-02 -2.29793431E-02 -1.57526754E-03  1.47255213E-19
  2.42312699E-02 -6.31717672E-02  9.58783970E-02 -5.59320384E-02  5.75904506E-19
  2.07000907E+00  1.46519731E-02 -3.78153375E-02  4.11041668E-02  7.47337940E-02
 -1.63293630E-18  1.52001731E-02 -5.18466347E-02  3.71347907E-02  2.14397814E-02
 -5.97776352E-19  1.46519731E-02 -3.78153375E-02  8.52734475E-02 -1.76964433E-03
 -4.01424142E-19 -6.31717672E-02  9.47538429E-02 -2.48942829E-01  1.52254771E-01
 -1.62918699E-18 -2.10934081E-01  8.00271212E-01  1.01254498E-02 -4.41692807E-02
  3.55737922E-02  1.60051544E-02 -7.88396317E-19  1.02529261E-02 -3.71347907E-02
  1.41813970E-02  3.89077689E-02 -2.55789741E-18  2.29793431E-02 -8.52734475E-02
  9.64303275E-02  1.91303826E-02 -1.15844399E-18 -9.63777646E-02  2.56327915E-01
 -3.51597282E-01  1.98795947E-01  5.91267303E-19  1.50767752E-03 -1.77470479E-02
  6.13666706E-01  2.06883287E-02 -7.29641497E-02  5.42659197E-02  7.61448157E-02
 -2.85434423E-18  5.91952964E-03 -2.14397814E-02  3.89077689E-02 -3.07454247E-02
 -6.12394434E-18 -1.57526754E-03 -1.76964433E-03 -1.91303826E-02  1.52882804E-02
 -1.32090282E-18  5.50671083E-02 -1.39463429E-01  2.09838554E-01 -1.15672043E-01
  1.07717520E-17  8.70458024E-04 -1.02462629E-02  5.91481473E-03  6.06836866E-01
 -4.45645621E-19  1.61487639E-18 -1.51701585E-18 -2.65911121E-18 -5.92000260E-02
 -1.65046218E-19  5.97776352E-19 -2.55789741E-18 -6.12394434E-18 -3.41896452E-01
 -8.72579449E-20  4.68824646E-19 -4.29824459E-19 -1.51613584E-18 -5.92000260E-02
 -5.56885075E-19  1.34791101E-18  3.80977215E-19  1.08280991E-17  5.06192825E-01
 -2.42698007E-20  2.85682653E-19  7.81468328E-19  3.43673618E-18  7.88889251E-01
  2.42312699E-02 -6.31717672E-02  9.58783970E-02  5.59320384E-02 -1.55438094E-18
 -4.64525957E-03  1.46519731E-02 -2.29793431E-02  1.57526754E-03  8.72579449E-20
 -4.36472312E-03  1.52001731E-02 -1.02529261E-02  5.91952964E-03 -6.04111086E-20
 -4.64525957E-03  1.46519731E-02 -1.28538933E-02  1.91130611E-02 -2.98390407E-19
  2.42312699E-02 -6.31717672E-02 -4.99367611E-04 -1.10999147E-01  2.11636226E-18
  2.07000907E+00 -6.31717672E-02  9.47538429E-02 -2.48942829E-01 -1.52254771E-01
  4.16974565E-18  1.46519731E-02 -3.78153375E-02  8.52734475E-02  1.76964433E-03
 -4.68824646E-19  1.52001731E-02 -5.18466347E-02  3.71347907E-02 -2.14397814E-02
  2.18801331E-19  1.46519731E-02 -3.78153375E-02  4.11041668E-02 -7.47337940E-02
  1.21345225E-18 -6.31717672E-02  9.47538429E-02  7.38508514E-03  2.91718200E-01
 -5.59302433E-18 -2.10934081E-01  8.00271212E-01 -9.63777646E-02  2.56327915E-01
 -3.51597282E-01 -1.98795947E-01  8.16281527E-18  2.29793431E-02 -8.52734475E-02
  9.64303275E-02 -1.91303826E-02 -4.29824459E-19  1.02529261E-02 -3.71347907E-02
  1.41813970E-02 -3.89077689E-02 -1.07601590E-18  1.01254498E-02 -4.41692807E-02
  3.55737922E-02 -1.60051544E-02 -1.78807458E-19 -4.99367611E-04  7.38508514E-03
  2.29057658E-03 -5.52130387E-03  2.67640453E-18  1.50767752E-03 -1.77470479E-02
  6.13666706E-01 -5.50671083E-02  1.39463429E-01 -2.09838554E-01 -1.15672043E-01
  1.29132363E-17  1.57526754E-03  1.76964433E-03  1.91303826E-02  1.52882804E-02
 -1.51613584E-18 -5.91952964E-03  2.14397814E-02 -3.89077689E-02 -3.07454247E-02
 -5.72687539E-18 -2.06883287E-02  7.29641497E-02 -5.42659197E-02  7.61448157E-02
 -2.30053935E-18  1.10999147E-01 -2.91718200E-01  5.52130387E-03 -4.69559902E-01
  1.85535901E-17 -8.70458024E-04  1.02462629E-02 -5.91481473E-03  6.06836866E-01
  1.54045775E-18 -3.96383734E-18  8.37310536E-18  1.28568893E-17  5.06192825E-01
 -1.47255213E-19  4.01424142E-19 -1.15844399E-18 -1.32090282E-18 -5.92000260E-02
  6.04111086E-20 -2.18801331E-19 -1.07601590E-18 -5.72687539E-18 -3.41896452E-01
  3.42311456E-19 -1.16411166E-18  5.49812076E-19 -2.49577237E-18 -5.92000260E-02
 -2.11126601E-18  5.51765666E-18  2.46611444E-18  1.86099371E-17  5.06192825E-01
  8.88336361E-21 -1.04567108E-19  1.00674608E-18  3.49709917E-18  7.88889251E-01
 -1.08703831E-01  2.88868479E-01  7.98511663E-18  5.55214093E-01 -1.05732290E-17
  2.71343707E-02 -1.00144561E-01  6.61253056E-02 -1.07951984E-01  1.71836817E-18
 -1.71697820E-02  6.58065894E-02 -3.78354799E-03  8.99181144E-02 -1.69305085E-18
 -1.98627459E-03  7.14766585E-03  6.23359332E-20  4.35855668E-03 -8.30022481E-20
 -1.71697820E-02  6.58065894E-02  3.78354799E-03  8.99181144E-02 -1.73166343E-18
  2.71343707E-02 -1.00144561E-01 -6.61253056E-02 -1.07951984E-01  2.39320270E-18
  6.02986694E-01  2.71343707E-02 -1.00144561E-01 -1.26551813E-01  3.29020252E-03
  5.83098277E-19 -1.08703831E-01  2.88868479E-01  4.80829509E-01  2.77607046E-01
 -7.74014083E-18  2.71343707E-02 -1.00144561E-01 -6.04265077E-02 -1.11242186E-01
  2.42678050E-18 -1.71697820E-02  6.58065894E-02  7.59795973E-02  4.82357059E-02
 -1.30627819E-18 -1.98627459E-03  7.14766585E-03  3.77462081E-03  2.17927834E-03
 -6.07618628E-20 -1.71697820E-02  6.58065894E-02  7.97631453E-02  4.16824085E-02
 -1.20078666E-18 -7.04748147E-02  6.02986694E-01 -1.71697820E-02  6.58065894E-02
  7.59795973E-02 -4.82357059E-02  5.30876773E-19  2.71343707E-02 -1.00144561E-01
 -6.04265077E-02  1.11242186E-01 -1.81010443E-18 -1.08703831E-01  2.88868479E-01
  4.80829509E-01 -2.77607046E-01  2.83308817E-18  2.71343707E-02 -1.00144561E-01
 -1.26551813E-01 -3.29020252E-03  7.08412332E-19 -1.71697820E-02  6.58065894E-02
  7.97631453E-02 -4.16824085E-02  3.86772652E-19 -1.98627459E-03  7.14766585E-03
  3.77462081E-03 -2.17927834E-03  2.22403854E-20 -3.95545041E-02 -7.04748147E-02
  6.02986694E-01 -1.98627459E-03  7.14766585E-03 -6.23359332E-20 -4.35855668E-03
  8.30022481E-20 -1.71697820E-02  6.58065894E-02 -3.78354799E-03 -8.99181144E-02
  1.73166343E-18  2.71343707E-02 -1.00144561E-01  6.61253056E-02  1.07951984E-01
 -2.39320270E-18 -1.08703831E-01  2.88868479E-01 -7.98511663E-18 -5.55214093E-01
  1.05732290E-17  2.71343707E-02 -1.00144561E-01 -6.61253056E-02  1.07951984E-01
 -1.71836817E-18 -1.71697820E-02  6.58065894E-02  3.78354799E-03 -8.99181144E-02
  1.69305085E-18  1.59831394E-02 -3.95545041E-02 -7.04748147E-02  6.02986694E-01
 -1.71697820E-02  6.58065894E-02 -7.59795973E-02 -4.82357059E-02  1.30627819E-18
 -1.98627459E-03  7.14766585E-03 -3.77462081E-03 -2.17927834E-03  6.07618628E-20
 -1.71697820E-02  6.58065894E-02 -7.97631453E-02 -4.16824085E-02  1.20078666E-18
  2.71343707E-02 -1.00144561E-01  1.26551813E-01 -3.29020252E-03 -5.83098277E-19
 -1.08703831E-01  2.88868479E-01 -4.80829509E-01 -2.77607046E-01  7.74014083E-18
  2.71343707E-02 -1.00144561E-01  6.04265077E-02  1.11242186E-01 -2.42678050E-18
 -3.95545041E-02  1.59831394E-02 -3.95545041E-02 -7.04748147E-02  6.02986694E-01
  2.71343707E-02 -1.00144561E-01  1.26551813E-01  3.29020252E-03 -7.08412332E-19
 -1.71697820E-02  6.58065894E-02 -7.97631453E-02  4.16824085E-02 -3.86772652E-19
 -1.98627459E-03  7.14766585E-03 -3.77462081E-03  2.17927834E-03 -2.22403854E-20
 -1.71697820E-02  6.58065894E-02 -7.59795973E-02  4.82357059E-02 -5.30876773E-19
  2.71343707E-02 -1.00144561E-01  6.04265077E-02 -1.11242186E-01  1.81010443E-18
 -1.08703831E-01  2.88868479E-01 -4.80829509E-01  2.77607046E-01 -2.83308817E-18
 -7.04748147E-02 -3.95545041E-02  1.59831394E-02 -3.95545041E-02 -7.04748147E-02
  6.02986694E-01
Mulliken Charges                           R   N=          12
 -6.04014958E-02 -6.04014958E-02 -6.04014958E-02 -6.04014958E-02 -6.04014958E-02
 -6.04014958E-02  6.04014958E-02  6.04014958E-02  6.04014958E-02  6.04014958E-02
  6.04014958E-02  6.04014958E-02
ONIOM Charges                              I   N=          16
           0           0           0           0           0           0
           0           0           0           0           0           0
           0           0           0           0
ONIOM Multiplicities                       I   N=          16
           1           0           0           0           0           0
           0           0           0           0           0           0
           0           0           0           0
Atom Layers                                I   N=          12
           1           1           1           1           1           1
           1           1           1           1           1           1
Atom Modifiers                             I   N=          12
           0           0           0           0           0           0
           0           0           0           0           0           0
Int Atom Modified Types                    I   N=          12
           0           0           0           0           0           0
           0           0           0           0           0           0
Atom Modified Types                        C   N=          12
                                                            
                                                            
                        
Link Atoms                                 I   N=          12
           0           0           0           0           0           0
           0           0           0           0           0           0
Atom Modified MM Charges                   R   N=          12
  0.00000000E+00  0.00000000E+00  0.00000000E+00  0.00000000E+00  0.00000000E+00
  0.00000000E+00  0.00000000E+00  0.00000000E+00  0.00000000E+00  0.00000000E+00
  0.00000000E+00  0.00000000E+00
Link Distances                             R   N=          48
  0.00000000E+00  0.00000000E+00  0.00000000E+00  0.00000000E+00  0.00000000E+00
  0.00000000E+00  0.00000000E+00  0.00000000E+00  0.00000000E+00  0.00000000E+00
  0.00000000E+00  0.00000000E+00  0.00000000E+00  0.00000000E+00  0.00000000E+00
  0.00000000E+00  0.00000000E+00  0.00000000E+00  0.00000000E+00  0.00000000E+00
  0.00000000E+00  0.00000000E+00  0.00000000E+00  0.00000000E+00  0.00000000E+00
  0.00000000E+00  0.00000000E+00  0.00000000E+00  0.00000000E+00  0.00000000E+00
  0.00000000E+00  0.00000000E+00  0.00000000E+00  0.00000000E+00  0.00000000E+00
  0.00000000E+00  0.00000000E+00  0.00000000E+00  0.00000000E+00  0.00000000E+00
  0.00000000E+00  0.00000000E+00  0.00000000E+00  0.00000000E+00  0.00000000E+00
  0.00000000E+00  0.00000000E+00  0.00000000E+00
Cartesian Gradient                         R   N=          36
  0.00000000E+00  0.00000000E+00  0.00000000E+00  0.00000000E+00  0.00000000E+00
  0.00000000E+00  0.00000000E+00  0.00000000E+00  0.00000000E+00  0.00000000E+00
  0.00000000E+00  0.00000000E+00  0.00000000E+00  0.00000000E+00  0.00000000E+00
  0.00000000E+00  0.00000000E+00  0.00000000E+00  0.00000000E+00  0.00000000E+00
  0.00000000E+00  0.00000000E+00  0.00000000E+00  0.00000000E+00  0.00000000E+00
  0.00000000E+00  0.00000000E+00  0.00000000E+00  0.00000000E+00  0.00000000E+00
  0.00000000E+00  0.00000000E+00  0.00000000E+00  0.00000000E+00  0.00000000E+00
  0.00000000E+00
Dipole Moment                              R   N=           3
 -2.60651318E-15  1.94154079E-15 -1.93196291E-33
Quadrupole Moment                          R   N=           6
  9.84325191E-01  9.84325191E-01 -1.96865038E+00  6.93150475E-15 -1.57395965E-18
 -5.87409739E-18
QEq coupling tensors                       R   N=          72
 -7.00756828E-02 -1.95217482E-15 -7.82405858E-02 -3.13681830E-47 -1.33883060E-34
  1.48316269E-01 -7.61993601E-02 -3.53550674E-03 -7.21169085E-02 -1.15946131E-34
 -6.69415301E-35  1.48316269E-01 -7.61993601E-02  3.53550674E-03 -7.21169085E-02
 -1.15946131E-34  6.69415301E-35  1.48316269E-01 -7.00756828E-02 -4.76524952E-15
 -7.82405858E-02  3.13214802E-47  1.33883060E-34  1.48316269E-01 -7.61993601E-02
 -3.53550674E-03 -7.21169085E-02  1.15946131E-34  6.69415301E-35  1.48316269E-01
 -7.61993601E-02  3.53550674E-03 -7.21169085E-02  1.15946131E-34 -6.69415301E-35
  1.48316269E-01  1.42817045E-01 -1.02564875E-13 -2.95049445E-01  3.86979892E-47
  1.65256325E-34  1.52232401E-01 -1.85582823E-01 -1.89601752E-01  3.33504221E-02
  1.43116175E-34  8.26281623E-35  1.52232401E-01 -1.85582823E-01  1.89601752E-01
  3.33504221E-02  1.43116175E-34 -8.26281623E-35  1.52232401E-01  1.42817045E-01
 -1.02253681E-13 -2.95049445E-01 -3.86569585E-47 -1.65256325E-34  1.52232401E-01
 -1.85582823E-01 -1.89601752E-01  3.33504221E-02 -1.43116175E-34 -8.26281623E-35
  1.52232401E-01 -1.85582823E-01  1.89601752E-01  3.33504221E-02 -1.43116175E-34
  8.26281623E-35  1.52232401E-01
ClPar MaxAn                                I              200
ClPar NIntPar                              I               12
ClPar NRealPar                             I               16
ClPar NBits                                I               30
ClPar LenBitVec                            I                1
ClPar Read BitMap                          I   N=         200
           0           0           0           0           0           0
           0           0           0           0           0           0
           0           0           0           0           0           0
           0           0           0           0           0           0
           0           0           0           0           0           0
           0           0           0           0           0           0
           0           0           0           0           0           0
           0           0           0           0           0           0
           0           0           0           0           0           0
           0           0           0           0           0           0
           0           0           0           0           0           0
           0           0           0           0           0           0
           0           0           0           0           0           0
           0           0           0           0           0           0
           0           0           0           0           0           0
           0           0           0           0           0           0
           0           0           0           0           0           0
           0           0           0           0           0           0
           0           0           0           0           0           0
           0           0           0           0           0           0
           0           0           0           0           0           0
           0           0           0           0           0           0
           0           0           0           0           0           0
           0           0           0           0           0           0
           0           0           0           0           0           0
           0           0           0           0           0           0
           0           0           0           0           0           0
           0           0           0           0           0           0
           0           0           0           0           0           0
           0           0           0           0           0           0
           0           0           0           0           0           0
           0           0           0           0           0           0
           0           0           0           0           0           0
           0           0
ClPar Default BitMap                       I   N=         200
      516096      516096      516096      516096      516096      516096
      516096      516096      516096      516096      516096      516096
      516096      516096      516096      516096      516096      516096
      516096      516096      516096      516096      516096      516096
      516096      516096      516096      516096      516096      516096
      516096      516096      516096      516096      516096      516096
      516096      516096      516096      516096      516096      516096
      516096      516096      516096      516096      516096      516096
      516096      516096      516096      516096      516096      516096
      516096      516096      516096      516096      516096      516096
      516096      516096      516096      516096      516096      516096
      516096      516096      516096      516096      516096      516096
      516096      516096      516096      516096      516096      516096
      516096      516096      516096      516096      516096      516096
      516096      516096      122880      122880      122880      122880
      122880      122880      122880      122880      122880      122880
      122880      122880      122880      122880      122880      122880
      122880      122880      122880      122880      122880      122880
      122880      122880      122880      122880      122880      122880
      122880      122880      122880      122880      122880      122880
      122880      122880      122880      122880      122880      122880
      122880      122880      122880      122880      122880      122880
      122880      122880      122880      122880      122880      122880
      122880      122880      122880      122880      122880      122880
      122880      122880      122880      122880      122880      122880
      122880      122880      122880      122880      122880      122880
      122880      122880      122880      122880      122880      122880
      122880      122880      122880      122880      122880      122880
      122880      122880      122880      122880      122880      122880
      122880      122880      122880      122880      122880      122880
      122880      122880      122880      122880      122880      122880
      122880      122880      122880      122880      122880      122880
      122880      122880      122880      122880      122880      122880
      122880      122880
ClPar Int Params                           I   N=        2400
           0           0           0           0           0           0
           0           0           0           0           0           0
           0           0           0           0           0           0
           0           0           0           0           0           0
           0           0           0           0           0           0
           0           0           0           0           0           0
           0           0           0           0           0           0
           0           0           0           0           0           0
           0           0           0           0           0           0
           0           0           0           0           0           0
           0           0           0           0           0           0
           0           0           0           0           0           0
           0           0           0           0           0           0
           0           0           0           0           0           0
           0           0           0           0           0           0
           0           0           0           0           0           0
           0           0           0           0           0           0
           0           0           0           0           0           0
           0           0           0           0           0           0
           0           0           0           0           0           0
           0           0           0           0           0           0
           0           0           0           0           0           0
           0           0           0           0           0           0
           0           0           0           0           0           0
           0           0           0           0           0           0
           0           0           0           0           0           0
           0           0           0           0           0           0
           0           0           0           0           0           0
           0           0           0           0           0           0
           0           0           0           0           0           0
           0           0           0           0           0           0
           0           0           0           0           0           0
           0           0           0           0           0           0
           0           0           0           0           0           0
           0           0           0           0           0           0
           0           0           0           0           0           0
           0           0           0           0           0           0
           0           0           0           0           0           0
           0           0           0           0           0           0
           0           0           0           0           0           0
           0           0           0           0           0           0
           0           0           0           0           0           0
           0           0           0           0           0           0
           0           0           0           0           0           0
           0           0           0           0           0           0
           0           0           0           0           0           0
           0           0           0           0           0           0
           0           0           0           0           0           0
           0           0           0           0           0           0
           0           0           0           0           0           0
           0           0           0           0           0           0
           0           0           0           0           0           0
           0           0           0           0           0           0
           0           0           0           0           0           0
           0           0           0           0           0           0
           0           0           0           0           0           0
           0           0           0           0           0           0
           0           0           0           0           0           0
           0           0           0           0           0           0
           0           0           0           0           0           0
           0           0           0           0           0           0
           0           0           0           0           0           0
           0           0           0           0           0           0
           0           0           0           0           0           0
           0           0           0           0           0           0
           0           0           0           0           0           0
           0           0           0           0           0           0
           0           0           0           0           0           0
           0           0           0           0           0           0
           0           0           0           0           0           0
           0           0           0           0           0           0
           0           0           0           0           0           0
           0           0           0           0           0           0
           0           0           0           0           0           0
           0           0           0           0           0           0
           0           0           0           0           0           0
           0           0           0           0           0           0
           0           0           0           0           0           0
           0           0           0           0           0           0
           0           0           0           0           0           0
           0           0           0           0           0           0
           0           0           0           0           0           0
           0           0           0           0           0           0
           0           0           0           0           0           0
           0           0           0           0           0           0
           0           0           0           0           0           0
           0           0           0           0           0           0
           0           0           0           0           0           0
           0           0           0           0           0           0
           0           0           0           0           0           0
           0           0           0           0           0           0
           0           0           0           0           0           0
           0           0           0           0           0           0
           0           0           0           0           0           0
           0           0           0           0           0           0
           0           0           0           0           0           0
           0           0           0           0           0           0
           0           0           0           0           0           0
           0           0           0           0           0           0
           0           0           0           0           0           0
           0           0           0           0           0           0
           0           0           0           0           0           0
           0           0           0           0           0           0
           0           0           0           0           0           0
           0           0           0           0           0           0
           0           0           0           0           0           0
           0           0           0           0           0           0
           0           0           0           0           0           0
           0           0           0           0           0           0
           0           0           0           0           0           0
           0           0           0           0           0           0
           0           0           0           0           0           0
           0           0           0           0           0           0
           0           0           0           0           0           0
           0           0           0           0           0           0
           0           0           0           0           0           0
           0           0           0           0           0           0
           0           0           0           0           0           0
           0           0           0           0           0           0
           0           0           0           0           0           0
           0           0           0           0           0           0
           0           0           0           0           0           0
           0           0           0           0           0           0
           0           0           0           0           0           0
           0           0           0           0           0           0
           0           0           0           0           0           0
           0           0           0           0           0           0
           0           0           0           0           0           0
           0           0           0           0           0           0
           0           0           0           0           0           0
           0           0           0           0           0           0
           0           0           0           0           0           0
           0           0           0           0           0           0
           0           0           0           0           0           0
           0           0           0           0           0           0
           0           0           0           0           0           0
           0           0           0           0           0           0
           0           0           0           0           0           0
           0           0           0           0           0           0
           0           0           0           0           0           0
           0           0           0           0           0           0
           0           0           0           0           0           0
           0           0           0           0           0           0
           0           0           0           0           0           0
           0           0           0           0           0           0
           0           0           0           0           0           0
           0           0           0           0           0           0
           0           0           0           0           0           0
           0           0           0           0           0           0
           0           0           0           0           0           0
           0           0           0           0           0           0
           0           0           0           0           0           0
           0           0           0           0           0           0
           0           0           0           0           0           0
           0           0           0           0           0           0
           0           0           0           0           0           0
           0           0           0           0           0           0
           0           0           0           0           0           0
           0           0           0           0           0           0
           0           0           0           0           0           0
           0           0           0           0           0           0
           0           0           0           0           0           0
           0           0           0           0           0           0
           0           0           0           0           0           0
           0           0           0           0           0           0
           0           0           0           0           0           0
           0           0           0           0           0           0
           0           0           0           0           0           0
           0           0           0           0           0           0
           0           0           0           0           0           0
           0           0           0           0           0           0
           0           0           0           0           0           0
           0           0           0           0           0           0
           0           0           0           0           0           0
           0           0           0           0           0           0
           0           0           0           0           0           0
           0           0           0           0           0           0
           0           0           0           0           0           0
           0           0           0           0           0           0
           0           0           0           0           0           0
           0           0           0           0           0           0
           0           0           0           0           0           0
           0           0           0           0           0           0
           0           0           0           0           0           0
           0           0           0           0           0           0
           0           0           0           0           0           0
           0           0           0           0           0           0
           0           0           0           0           0           0
           0           0           0           0           0           0
           0           0           0           0           0           0
           0           0           0           0           0           0
           0           0           0           0           0           0
           0           0           0           0           0           0
           0           0           0           0           0           0
           0           0           0           0           0           0
           0           0           0           0           0           0
           0           0           0           0           0           0
           0           0           0           0           0           0
           0           0           0           0           0           0
           0           0           0           0           0           0
           0           0           0           0           0           0
           0           0           0           0           0           0
           0           0           0           0           0           0
           0           0           0           0           0           0
           0           0           0           0           0           0
           0           0           0           0           0           0
           0           0           0           0           0           0
           0           0           0           0           0           0
           0           0           0           0           0           0
           0           0           0           0           0           0
           0           0           0           0           0           0
           0           0           0           0           0           0
           0           0           0           0           0           0
           0           0           0           0           0           0
           0           0           0           0           0           0
           0           0           0           0           0           0
           0           0           0           0           0           0
           0           0           0           0           0           0
           0           0           0           0           0           0
           0           0           0           0           0           0
           0           0           0           0           0           0
           0           0           0           0           0           0
           0           0           0           0           0           0
           0           0           0           0           0           0
           0           0           0           0           0           0
           0           0           0           0           0           0
           0           0           0           0           0           0
           0           0           0           0           0           0
           0           0           0           0           0           0
           0           0           0           0           0           0
           0           0           0           0           0           0
           0           0           0           0           0           0
           0           0           0           0           0           0
           0           0           0           0           0           0
           0           0           0           0           0           0
           0           0           0           0           0           0
           0           0           0           0           0           0
           0           0           0           0           0           0
           0           0           0           0           0           0
           0           0           0           0           0           0
           0           0           0           0           0           0
           0           0           0           0           0           0
           0           0           0           0           0           0
           0           0           0           0           0           0
           0           0           0           0           0           0
           0           0           0           0           0           0
           0           0           0           0           0           0
           0           0           0           0           0           0
           0           0           0           0           0           0
           0           0           0           0           0           0
           0           0           0           0           0           0
           0           0           0           0           0           0
           0           0           0           0           0           0
           0           0           0           0           0           0
           0           0           0           0           0           0
           0           0           0           0           0           0
           0           0           0           0           0           0
           0           0           0           0           0           0
           0           0           0           0           0           0
           0           0           0           0           0           0
           0           0           0           0           0           0
           0           0           0           0           0           0
           0           0           0           0           0           0
           0           0           0           0           0           0
           0           0           0           0           0           0
           0           0           0           0           0           0
           0           0           0           0           0           0
           0           0           0           0           0           0
           0           0           0           0           0           0
           0           0           0           0           0           0
           0           0           0           0           0           0
           0           0           0           0           0           0
           0           0           0           0           0           0
           0           0           0           0           0           0
           0           0           0           0           0           0
           0           0           0           0           0           0
           0           0           0           0           0           0
           0           0           0           0           0           0
           0           0           0           0           0           0
           0           0           0           0           0           0
           0           0           0           0           0           0
           0           0           0           0           0           0
           0           0           0           0           0           0
           0           0           0           0           0           0
           0           0           0           0           0           0
           0           0           0           0           0           0
           0           0           0           0           0           0
           0           0           0           0           0           0
           0           0           0           0           0           0
           0           0           0           0           0           0
           0           0           0           0           0           0
           0           0           0           0           0           0
           0           0           0           0           0           0
           0           0           0           0           0           0
           0           0           0           0           0           0
           0           0           0           0           0           0
           0           0           0           0           0           0
           0           0           0           0           0           0
           0           0           0           0           0           0
           0           0           0           0           0           0
           0           0           0           0           0           0
           0           0           0           0           0           0
           0           0           0           0           0           0
           0           0           0           0           0           0
           0           0           0           0           0           0
           0           0           0           0           0           0
           0           0           0           0           0           0
           0           0           0           0           0           0
           0           0           0           0           0           0
           0           0           0           0           0           0
           0           0           0           0           0           0
           0           0           0           0           0           0
           0           0           0           0           0           0
           0           0           0           0           0           0
           0           0           0           0           0           0
           0           0           0           0           0           0
           0           0           0           0           0           0
           0           0           0           0           0           0
           0           0           0           0           0           0
           0           0           0           0           0           0
           0           0           0           0           0           0
           0           0           0           0           0           0
           0           0           0           0           0           0
           0           0           0           0           0           0
           0           0           0           0           0           0
           0           0           0           0           0           0
           0           0           0           0           0           0
           0           0           0           0           0           0
           0           0           0           0           0           0
           0           0           0           0           0           0
           0           0           0           0           0           0
           0           0           0           0           0           0
           0           0           0           0           0           0
           0           0           0           0           0           0
           0           0           0           0           0           0
           0           0           0           0           0           0
           0           0           0           0           0           0
           0           0           0           0           0           0
           0           0           0           0           0           0
           0           0           0           0           0           0
           0           0           0           0           0           0
           0           0           0           0           0           0
           0           0           0           0           0           0
           0           0           0           0           0           0
           0           0           0           0           0           0
           0           0           0           0           0           0
           0           0           0           0           0           0
           0           0           0           0           0           0
           0           0           0           0           0           0
           0           0           0           0           0           0
           0           0           0           0           0           0
           0           0           0           0           0           0
           0           0           0           0           0           0
           0           0           0           0           0           0
           0           0           0           0           0           0
           0           0           0           0           0           0
           0           0           0           0           0           0
           0           0           0           0           0           0
           0           0           0           0           0           0
           0           0           0           0           0           0
           0           0           0           0           0           0
           0           0           0           0           0           0
           0           0           0           0           0           0
           0           0           0           0           0           0
           0           0           0           0           0           0
           0           0           0           0           0           0
           0           0           0           0           0           0
           0           0           0           0           0           0
           0           0           0           0           0           0
           0           0           0           0           0           0
           0           0           0           0           0           0
           0           0           0           0           0           0
           0           0           0           0           0           0
           0           0           0           0           0           0
           0           0           0           0           0           0
           0           0           0           0           0           0
           0           0           0           0           0           0
           0           0           0           0           0           0
           0           0           0           0           0           0
           0           0           0           0           0           0
           0           0           0           0           0           0
           0           0           0           0           0           0
           0           0           0           0           0           0
           0           0           0           0           0           0
           0           0           0           0           0           0
           0           0           0           0           0           0
           0           0           0           0           0           0
           0           0           0           0           0           0
           0           0           0           0           0           0
           0           0           0           0           0           0
           0           0           0           0           0           0
           0           0           0           0           0           0
           0           0           0           0           0           0
           0           0           0           0           0           0
           0           0           0           0           0           0
           0           0           0           0           0           0
           0           0           0           0           0           0
           0           0           0           0           0           0
           0           0           0           0           0           0
           0           0           0           0           0           0
ClPar Real Params                          R   N=        3200
  0.00000000E+00  0.00000000E+00  0.00000000E+00  0.00000000E+00  0.00000000E+00
  0.00000000E+00  0.00000000E+00  0.00000000E+00  0.00000000E+00  0.00000000E+00
  0.00000000E+00  0.00000000E+00  0.00000000E+00  0.00000000E+00  0.00000000E+00
  0.00000000E+00  0.00000000E+00  0.00000000E+00  0.00000000E+00  0.00000000E+00
  0.00000000E+00  0.00000000E+00  0.00000000E+00  0.00000000E+00  0.00000000E+00
  0.00000000E+00  0.00000000E+00  0.00000000E+00  0.00000000E+00  0.00000000E+00
  0.00000000E+00  0.00000000E+00  0.00000000E+00  0.00000000E+00  0.00000000E+00
  0.00000000E+00  0.00000000E+00  0.00000000E+00  0.00000000E+00  0.00000000E+00
  0.00000000E+00  0.00000000E+00  0.00000000E+00  0.00000000E+00  0.00000000E+00
  0.00000000E+00  0.00000000E+00  0.00000000E+00  0.00000000E+00  0.00000000E+00
  0.00000000E+00  0.00000000E+00  0.00000000E+00  0.00000000E+00  0.00000000E+00
  0.00000000E+00  0.00000000E+00  0.00000000E+00  0.00000000E+00  0.00000000E+00
  0.00000000E+00  0.00000000E+00  0.00000000E+00  0.00000000E+00  0.00000000E+00
  0.00000000E+00  0.00000000E+00  0.00000000E+00  0.00000000E+00  0.00000000E+00
  0.00000000E+00  0.00000000E+00  0.00000000E+00  0.00000000E+00  0.00000000E+00
  0.00000000E+00  0.00000000E+00  0.00000000E+00  0.00000000E+00  0.00000000E+00
  0.00000000E+00  0.00000000E+00  0.00000000E+00  0.00000000E+00  0.00000000E+00
  0.00000000E+00  0.00000000E+00  0.00000000E+00  0.00000000E+00  0.00000000E+00
  0.00000000E+00  0.00000000E+00  0.00000000E+00  0.00000000E+00  0.00000000E+00
  0.00000000E+00  0.00000000E+00  0.00000000E+00  0.00000000E+00  0.00000000E+00
  0.00000000E+00  0.00000000E+00  0.00000000E+00  0.00000000E+00  0.00000000E+00
  0.00000000E+00  0.00000000E+00  0.00000000E+00  0.00000000E+00  0.00000000E+00
  0.00000000E+00  0.00000000E+00  0.00000000E+00  0.00000000E+00  0.00000000E+00
  0.00000000E+00  0.00000000E+00  0.00000000E+00  0.00000000E+00  0.00000000E+00
  0.00000000E+00  0.00000000E+00  0.00000000E+00  0.00000000E+00  0.00000000E+00
  0.00000000E+00  0.00000000E+00  0.00000000E+00  0.00000000E+00  0.00000000E+00
  0.00000000E+00  0.00000000E+00  0.00000000E+00  0.00000000E+00  0.00000000E+00
  0.00000000E+00  0.00000000E+00  0.00000000E+00  0.00000000E+00  0.00000000E+00
  0.00000000E+00  0.00000000E+00  0.00000000E+00  0.00000000E+00  0.00000000E+00
  0.00000000E+00  0.00000000E+00  0.00000000E+00  0.00000000E+00  0.00000000E+00
  0.00000000E+00  0.00000000E+00  0.00000000E+00  0.00000000E+00  0.00000000E+00
  0.00000000E+00  0.00000000E+00  0.00000000E+00  0.00000000E+00  0.00000000E+00
  0.00000000E+00  0.00000000E+00  0.00000000E+00  0.00000000E+00  0.00000000E+00
  0.00000000E+00  0.00000000E+00  0.00000000E+00  0.00000000E+00  0.00000000E+00
  0.00000000E+00  0.00000000E+00  0.00000000E+00  0.00000000E+00  0.00000000E+00
  0.00000000E+00  0.00000000E+00  0.00000000E+00  0.00000000E+00  0.00000000E+00
  0.00000000E+00  0.00000000E+00  0.00000000E+00  0.00000000E+00  0.00000000E+00
  0.00000000E+00  0.00000000E+00  0.00000000E+00  0.00000000E+00  0.00000000E+00
  0.00000000E+00  0.00000000E+00  0.00000000E+00  0.00000000E+00  0.00000000E+00
  0.00000000E+00  0.00000000E+00  0.00000000E+00  0.00000000E+00  0.00000000E+00
  2.26000000E-01  4.43000000E-01  1.01000000E-01  1.47000000E-01  1.92000000E-01
  2.40000000E-01  2.75000000E-01  3.03000000E-01  3.25000000E-01  4.13000000E-01
  9.60000000E-02  1.35000000E-01  1.73000000E-01  2.11000000E-01  2.48000000E-01
  2.86000000E-01  3.23000000E-01  3.60000000E-01  8.20000000E-02  1.04000000E-01
  1.17000000E-01  1.23000000E-01  1.29000000E-01  1.34000000E-01  1.40000000E-01
  1.44000000E-01  1.48000000E-01  1.52000000E-01  1.55000000E-01  1.76000000E-01
  1.98000000E-01  2.19000000E-01  2.39000000E-01  2.60000000E-01  2.80000000E-01
  3.00000000E-01  7.90000000E-02  9.90000000E-02  1.19000000E-01  1.26000000E-01
  1.33000000E-01  1.40000000E-01  1.47000000E-01  1.53000000E-01  1.58000000E-01
  1.63000000E-01  1.57000000E-01  1.70000000E-01  1.87000000E-01  2.03000000E-01
  2.19000000E-01  2.34000000E-01  2.50000000E-01  2.65000000E-01  7.40000000E-02
  9.20000000E-02  1.05000000E-01  1.06000000E-01  1.07000000E-01  1.08000000E-01
  1.09000000E-01  1.10000000E-01  1.11000000E-01  1.12000000E-01  1.13000000E-01
  1.14000000E-01  1.15000000E-01  1.16000000E-01  1.17000000E-01  1.17000000E-01
  1.26000000E-01  1.36000000E-01  1.46000000E-01  1.55000000E-01  1.65000000E-01
  1.73000000E-01  1.82000000E-01  1.90000000E-01  1.62000000E-01  1.78000000E-01
  1.10000000E-01  1.35000000E-01  1.59000000E-01  1.83000000E-01  2.07000000E-01
  2.31000000E-01  6.90000000E-02  9.40000000E-02  1.02000000E-01  1.03000000E-01
  1.05000000E-01  1.07000000E-01  1.09000000E-01  1.11000000E-01  1.13000000E-01
  1.15000000E-01  1.17000000E-01  1.19000000E-01  1.20000000E-01  1.22000000E-01
  1.24000000E-01  1.26000000E-01  1.28000000E-01  1.28000000E-01  1.28000000E-01
  1.28000000E-01  1.28000000E-01  1.28000000E-01  1.28000000E-01  1.28000000E-01
  1.28000000E-01  1.28000000E-01  1.28000000E-01  1.28000000E-01  1.28000000E-01
  1.28000000E-01  1.28000000E-01  1.28000000E-01  1.28000000E-01  1.28000000E-01
  1.28000000E-01  1.28000000E-01  1.28000000E-01  1.28000000E-01  1.28000000E-01
  1.28000000E-01  1.28000000E-01  1.28000000E-01  1.28000000E-01  1.28000000E-01
  1.28000000E-01  1.28000000E-01  1.28000000E-01  1.28000000E-01  1.28000000E-01
  1.28000000E-01  1.28000000E-01  1.28000000E-01  1.28000000E-01  1.28000000E-01
  1.28000000E-01  1.28000000E-01  1.28000000E-01  1.28000000E-01  1.28000000E-01
  1.28000000E-01  1.28000000E-01  1.28000000E-01  1.28000000E-01  1.28000000E-01
  1.28000000E-01  1.28000000E-01  1.28000000E-01  1.28000000E-01  1.28000000E-01
  1.28000000E-01  1.28000000E-01  1.28000000E-01  1.28000000E-01  1.28000000E-01
  1.28000000E-01  1.28000000E-01  1.28000000E-01  1.28000000E-01  1.28000000E-01
  1.28000000E-01  1.28000000E-01  1.28000000E-01  1.28000000E-01  1.28000000E-01
  1.28000000E-01  1.28000000E-01  1.28000000E-01  1.28000000E-01  1.28000000E-01
  1.28000000E-01  1.28000000E-01  1.28000000E-01  1.28000000E-01  1.28000000E-01
  1.28000000E-01  1.28000000E-01  1.28000000E-01  1.28000000E-01  1.28000000E-01
  1.28000000E-01  1.28000000E-01  1.28000000E-01  1.28000000E-01  1.28000000E-01
  1.28000000E-01  1.28000000E-01  1.28000000E-01  1.28000000E-01  1.28000000E-01
  1.28000000E-01  1.28000000E-01  1.28000000E-01  1.28000000E-01  1.28000000E-01
  5.47000000E-01  5.92000000E-01  5.99000000E-01  6.68000000E-01  6.98000000E-01
  7.18000000E-01  7.26000000E-01  7.36000000E-01  7.43000000E-01  7.45000000E-01
  6.07000000E-01  6.66000000E-01  6.93000000E-01  7.09000000E-01  7.20000000E-01
  7.29000000E-01  7.35000000E-01  7.40000000E-01  6.08000000E-01  7.34000000E-01
  7.46000000E-01  7.55000000E-01  7.61000000E-01  7.65000000E-01  7.67000000E-01
  7.60000000E-01  7.49000000E-01  7.33000000E-01  7.08000000E-01  6.48000000E-01
  6.88000000E-01  7.09000000E-01  7.22000000E-01  7.31000000E-01  7.38000000E-01
  7.44000000E-01  6.09000000E-01  7.30000000E-01  7.41000000E-01  7.52000000E-01
  7.58000000E-01  7.63000000E-01  7.66000000E-01  7.58000000E-01  7.48000000E-01
  7.33000000E-01  7.01000000E-01  6.45000000E-01  6.86000000E-01  7.08000000E-01
  7.22000000E-01  7.31000000E-01  7.38000000E-01  7.44000000E-01  6.08000000E-01
  7.28000000E-01  7.32000000E-01  7.32000000E-01  7.32000000E-01  7.32000000E-01
  7.32000000E-01  7.32000000E-01  7.32000000E-01  7.32000000E-01  7.32000000E-01
  7.31000000E-01  7.31000000E-01  7.31000000E-01  7.31000000E-01  7.46000000E-01
  7.37000000E-01  7.46000000E-01  7.51000000E-01  7.55000000E-01  7.58000000E-01
  7.47000000E-01  7.32000000E-01  7.11000000E-01  7.41000000E-01  7.07000000E-01
  7.47000000E-01  7.43000000E-01  7.42000000E-01  7.42000000E-01  7.43000000E-01
  7.44000000E-01  6.05000000E-01  7.24000000E-01  7.26000000E-01  7.26000000E-01
  7.27000000E-01  7.27000000E-01  7.27000000E-01  7.28000000E-01  7.28000000E-01
  7.28000000E-01  7.28000000E-01  7.28000000E-01  7.29000000E-01  7.29000000E-01
  7.29000000E-01  7.29000000E-01  7.29000000E-01  7.29000000E-01  7.29000000E-01
  7.29000000E-01  7.29000000E-01  7.29000000E-01  7.29000000E-01  7.29000000E-01
  7.29000000E-01  7.29000000E-01  7.29000000E-01  7.29000000E-01  7.29000000E-01
  7.29000000E-01  7.29000000E-01  7.29000000E-01  7.29000000E-01  7.29000000E-01
  7.29000000E-01  7.29000000E-01  7.29000000E-01  7.29000000E-01  7.29000000E-01
  7.29000000E-01  7.29000000E-01  7.29000000E-01  7.29000000E-01  7.29000000E-01
  7.29000000E-01  7.29000000E-01  7.29000000E-01  7.29000000E-01  7.29000000E-01
  7.29000000E-01  7.29000000E-01  7.29000000E-01  7.29000000E-01  7.29000000E-01
  7.29000000E-01  7.29000000E-01  7.29000000E-01  7.29000000E-01  7.29000000E-01
  7.29000000E-01  7.29000000E-01  7.29000000E-01  7.29000000E-01  7.29000000E-01
  7.29000000E-01  7.29000000E-01  7.29000000E-01  7.29000000E-01  7.29000000E-01
  7.29000000E-01  7.29000000E-01  7.29000000E-01  7.29000000E-01  7.29000000E-01
  7.29000000E-01  7.29000000E-01  7.29000000E-01  7.29000000E-01  7.29000000E-01
  7.29000000E-01  7.29000000E-01  7.29000000E-01  7.29000000E-01  7.29000000E-01
  7.29000000E-01  7.29000000E-01  7.29000000E-01  7.29000000E-01  7.29000000E-01
  7.29000000E-01  7.29000000E-01  7.29000000E-01  7.29000000E-01  7.29000000E-01
  7.29000000E-01  7.29000000E-01  7.29000000E-01  7.29000000E-01  7.29000000E-01
  7.29000000E-01  7.29000000E-01  7.29000000E-01  7.29000000E-01  7.29000000E-01
  7.29000000E-01  7.29000000E-01  7.29000000E-01  7.29000000E-01  7.29000000E-01
  7.29000000E-01  7.29000000E-01  7.29000000E-01  7.29000000E-01  7.29000000E-01
  1.00000000E+00  1.70400000E+00  3.23000000E-01  3.89000000E-01  4.67000000E-01
  5.67000000E-01  6.36000000E-01  6.64000000E-01  6.96000000E-01  8.79000000E-01
  3.07000000E-01  3.48000000E-01  4.00000000E-01  4.54000000E-01  5.09000000E-01
  5.65000000E-01  6.21000000E-01  6.77000000E-01  2.56000000E-01  3.50000000E-01
  3.64000000E-01  3.62000000E-01  3.62000000E-01  3.62000000E-01  3.62000000E-01
  3.65000000E-01  3.69000000E-01  3.75000000E-01  3.86000000E-01  4.46000000E-01
  4.55000000E-01  4.74000000E-01  4.96000000E-01  5.20000000E-01  5.45000000E-01
  5.70000000E-01  2.45000000E-01  3.22000000E-01  3.55000000E-01  3.59000000E-01
  3.64000000E-01  3.70000000E-01  3.76000000E-01  3.85000000E-01  3.95000000E-01
  4.08000000E-01  3.76000000E-01  4.23000000E-01  4.22000000E-01  4.32000000E-01
  4.45000000E-01  4.59000000E-01  4.75000000E-01  4.91000000E-01  2.28000000E-01
  2.92000000E-01  2.89000000E-01  2.92000000E-01  2.95000000E-01  2.98000000E-01
  3.00000000E-01  3.03000000E-01  3.06000000E-01  3.09000000E-01  3.12000000E-01
  3.15000000E-01  3.18000000E-01  3.21000000E-01  3.24000000E-01  3.61000000E-01
  3.69000000E-01  3.70000000E-01  3.72000000E-01  3.75000000E-01  3.78000000E-01
  3.85000000E-01  3.94000000E-01  4.07000000E-01  5.26000000E-01  6.21000000E-01
  3.36000000E-01  3.54000000E-01  3.71000000E-01  3.86000000E-01  4.02000000E-01
  4.17000000E-01  2.09000000E-01  2.94000000E-01  2.65000000E-01  2.72000000E-01
  2.78000000E-01  2.84000000E-01  2.91000000E-01  2.97000000E-01  3.03000000E-01
  3.10000000E-01  3.16000000E-01  3.22000000E-01  3.29000000E-01  3.35000000E-01
  3.41000000E-01  3.48000000E-01  3.54000000E-01  3.54000000E-01  3.54000000E-01
  3.54000000E-01  3.54000000E-01  3.54000000E-01  3.54000000E-01  3.54000000E-01
  3.54000000E-01  3.54000000E-01  3.54000000E-01  3.54000000E-01  3.54000000E-01
  3.54000000E-01  3.54000000E-01  3.54000000E-01  3.54000000E-01  3.54000000E-01
  3.54000000E-01  3.54000000E-01  3.54000000E-01  3.54000000E-01  3.54000000E-01
  3.54000000E-01  3.54000000E-01  3.54000000E-01  3.54000000E-01  3.54000000E-01
  3.54000000E-01  3.54000000E-01  3.54000000E-01  3.54000000E-01  3.54000000E-01
  3.54000000E-01  3.54000000E-01  3.54000000E-01  3.54000000E-01  3.54000000E-01
  3.54000000E-01  3.54000000E-01  3.54000000E-01  3.54000000E-01  3.54000000E-01
  3.54000000E-01  3.54000000E-01  3.54000000E-01  3.54000000E-01  3.54000000E-01
  3.54000000E-01  3.54000000E-01  3.54000000E-01  3.54000000E-01  3.54000000E-01
  3.54000000E-01  3.54000000E-01  3.54000000E-01  3.54000000E-01  3.54000000E-01
  3.54000000E-01  3.54000000E-01  3.54000000E-01  3.54000000E-01  3.54000000E-01
  3.54000000E-01  3.54000000E-01  3.54000000E-01  3.54000000E-01  3.54000000E-01
  3.54000000E-01  3.54000000E-01  3.54000000E-01  3.54000000E-01  3.54000000E-01
  3.54000000E-01  3.54000000E-01  3.54000000E-01  3.54000000E-01  3.54000000E-01
  3.54000000E-01  3.54000000E-01  3.54000000E-01  3.54000000E-01  3.54000000E-01
  3.54000000E-01  3.54000000E-01  3.54000000E-01  3.54000000E-01  3.54000000E-01
  3.54000000E-01  3.54000000E-01  3.54000000E-01  3.54000000E-01  3.54000000E-01
  3.54000000E-01  3.54000000E-01  3.54000000E-01  3.54000000E-01  3.54000000E-01
  2.74000000E-01  2.96000000E-01  5.80000000E-02  4.40000000E-02  3.90000000E-02
  3.90000000E-02  3.60000000E-02  3.20000000E-02  2.90000000E-02  3.30000000E-02
  5.50000000E-02  3.90000000E-02  3.30000000E-02  3.00000000E-02  2.80000000E-02
  2.60000000E-02  2.50000000E-02  2.50000000E-02  4.50000000E-02  4.40000000E-02
  3.30000000E-02  2.50000000E-02  2.10000000E-02  1.80000000E-02  1.50000000E-02
  1.80000000E-02  2.10000000E-02  2.50000000E-02  3.30000000E-02  5.00000000E-02
  3.80000000E-02  3.10000000E-02  2.70000000E-02  2.40000000E-02  2.20000000E-02
  2.10000000E-02  4.30000000E-02  4.00000000E-02  3.20000000E-02  2.50000000E-02
  2.10000000E-02  1.80000000E-02  1.60000000E-02  1.90000000E-02  2.20000000E-02
  2.80000000E-02  3.10000000E-02  4.70000000E-02  3.40000000E-02  2.80000000E-02
  2.40000000E-02  2.10000000E-02  1.90000000E-02  1.80000000E-02  3.90000000E-02
  3.60000000E-02  2.50000000E-02  2.50000000E-02  2.50000000E-02  2.60000000E-02
  2.60000000E-02  2.60000000E-02  2.70000000E-02  2.70000000E-02  2.70000000E-02
  2.70000000E-02  2.80000000E-02  2.80000000E-02  2.80000000E-02  3.30000000E-02
  3.30000000E-02  2.60000000E-02  2.10000000E-02  1.80000000E-02  1.60000000E-02
  1.80000000E-02  2.20000000E-02  2.60000000E-02  4.90000000E-02  8.20000000E-02
  3.00000000E-02  2.40000000E-02  2.10000000E-02  1.80000000E-02  1.60000000E-02
  1.50000000E-02  3.50000000E-02  3.60000000E-02  2.20000000E-02  2.30000000E-02
  2.40000000E-02  2.40000000E-02  2.50000000E-02  2.50000000E-02  2.60000000E-02
  2.70000000E-02  2.70000000E-02  2.80000000E-02  2.80000000E-02  2.90000000E-02
  3.00000000E-02  3.00000000E-02  3.10000000E-02  3.10000000E-02  3.10000000E-02
  3.10000000E-02  3.10000000E-02  3.10000000E-02  3.10000000E-02  3.10000000E-02
  3.10000000E-02  3.10000000E-02  3.10000000E-02  3.10000000E-02  3.10000000E-02
  3.10000000E-02  3.10000000E-02  3.10000000E-02  3.10000000E-02  3.10000000E-02
  3.10000000E-02  3.10000000E-02  3.10000000E-02  3.10000000E-02  3.10000000E-02
  3.10000000E-02  3.10000000E-02  3.10000000E-02  3.10000000E-02  3.10000000E-02
  3.10000000E-02  3.10000000E-02  3.10000000E-02  3.10000000E-02  3.10000000E-02
  3.10000000E-02  3.10000000E-02  3.10000000E-02  3.10000000E-02  3.10000000E-02
  3.10000000E-02  3.10000000E-02  3.10000000E-02  3.10000000E-02  3.10000000E-02
  3.10000000E-02  3.10000000E-02  3.10000000E-02  3.10000000E-02  3.10000000E-02
  3.10000000E-02  3.10000000E-02  3.10000000E-02  3.10000000E-02  3.10000000E-02
  3.10000000E-02  3.10000000E-02  3.10000000E-02  3.10000000E-02  3.10000000E-02
  3.10000000E-02  3.10000000E-02  3.10000000E-02  3.10000000E-02  3.10000000E-02
  3.10000000E-02  3.10000000E-02  3.10000000E-02  3.10000000E-02  3.10000000E-02
  3.10000000E-02  3.10000000E-02  3.10000000E-02  3.10000000E-02  3.10000000E-02
  3.10000000E-02  3.10000000E-02  3.10000000E-02  3.10000000E-02  3.10000000E-02
  3.10000000E-02  3.10000000E-02  3.10000000E-02  3.10000000E-02  3.10000000E-02
  3.10000000E-02  3.10000000E-02  3.10000000E-02  3.10000000E-02  3.10000000E-02
  3.10000000E-02  3.10000000E-02  3.10000000E-02  3.10000000E-02  3.10000000E-02
  3.10000000E-02  3.10000000E-02  3.10000000E-02  3.10000000E-02  3.10000000E-02
 -5.92770000E-01 -9.17860000E-01 -2.48668000E+00 -8.36430000E-01 -3.18470000E-01
 -4.55790000E-01 -5.70730000E-01 -6.77940000E-01 -7.69860000E-01 -8.51140000E-01
 -1.51908000E+00 -3.18830000E-01 -2.17900000E-01 -3.01260000E-01 -3.72750000E-01
 -4.15890000E-01 -4.45930000E-01 -5.91320000E-01 -9.56370000E-01 -2.88450000E-01
 -4.87320000E-01 -6.34280000E-01 -7.17490000E-01 -7.91980000E-01 -8.68490000E-01
 -9.17520000E-01 -9.54890000E-01 -9.88460000E-01 -1.50055000E+00 -2.92560000E-01
 -2.14960000E-01 -2.91180000E-01 -3.42080000E-01 -3.84480000E-01 -4.34940000E-01
 -5.24310000E-01 -8.10070000E-01 -2.58460000E-01 -4.35550000E-01 -5.32740000E-01
 -6.08450000E-01 -6.10260000E-01 -7.58920000E-01 -8.90130000E-01 -8.45780000E-01
 -8.69340000E-01 -1.38234000E+00 -2.64850000E-01 -1.97280000E-01 -2.65040000E-01
 -2.94470000E-01 -3.16570000E-01 -3.63590000E-01 -4.57840000E-01 -8.61830000E-01
 -1.33004000E+00 -6.82880000E-01 -6.25540000E-01 -6.35430000E-01 -8.79690000E-01
 -9.02690000E-01 -9.59650000E-01 -1.01869000E+00 -6.81170000E-01 -7.96500000E-01
 -9.04950000E-01 -8.34790000E-01 -9.01560000E-01 -9.74130000E-01 -1.03326000E+00
 -7.15490000E-01 -7.83960000E-01 -8.28380000E-01 -5.61040000E-01 -1.03841000E+00
 -8.62500000E-01 -9.59300000E-01 -1.01755000E+00 -7.64900000E-01 -1.29467000E+00
 -1.92740000E-01 -2.56010000E-01 -3.19820000E-01 -1.94660000E-01 -2.60090000E-01
 -4.27990000E-01  0.00000000E+00  0.00000000E+00  0.00000000E+00  0.00000000E+00
  0.00000000E+00  0.00000000E+00  0.00000000E+00  0.00000000E+00  0.00000000E+00
  0.00000000E+00  0.00000000E+00  0.00000000E+00  0.00000000E+00  0.00000000E+00
  0.00000000E+00  0.00000000E+00  0.00000000E+00  0.00000000E+00  0.00000000E+00
  0.00000000E+00  0.00000000E+00  0.00000000E+00  0.00000000E+00  0.00000000E+00
  0.00000000E+00  0.00000000E+00  0.00000000E+00  0.00000000E+00  0.00000000E+00
  0.00000000E+00  0.00000000E+00  0.00000000E+00  0.00000000E+00  0.00000000E+00
  0.00000000E+00  0.00000000E+00  0.00000000E+00  0.00000000E+00  0.00000000E+00
  0.00000000E+00  0.00000000E+00  0.00000000E+00  0.00000000E+00  0.00000000E+00
  0.00000000E+00  0.00000000E+00  0.00000000E+00  0.00000000E+00  0.00000000E+00
  0.00000000E+00  0.00000000E+00  0.00000000E+00  0.00000000E+00  0.00000000E+00
  0.00000000E+00  0.00000000E+00  0.00000000E+00  0.00000000E+00  0.00000000E+00
  0.00000000E+00  0.00000000E+00  0.00000000E+00  0.00000000E+00  0.00000000E+00
  0.00000000E+00  0.00000000E+00  0.00000000E+00  0.00000000E+00  0.00000000E+00
  0.00000000E+00  0.00000000E+00  0.00000000E+00  0.00000000E+00  0.00000000E+00
  0.00000000E+00  0.00000000E+00  0.00000000E+00  0.00000000E+00  0.00000000E+00
  0.00000000E+00  0.00000000E+00  0.00000000E+00  0.00000000E+00  0.00000000E+00
  0.00000000E+00  0.00000000E+00  0.00000000E+00  0.00000000E+00  0.00000000E+00
  0.00000000E+00  0.00000000E+00  0.00000000E+00  0.00000000E+00  0.00000000E+00
  0.00000000E+00  0.00000000E+00  0.00000000E+00  0.00000000E+00  0.00000000E+00
  0.00000000E+00  0.00000000E+00  0.00000000E+00  0.00000000E+00  0.00000000E+00
  0.00000000E+00  0.00000000E+00  0.00000000E+00  0.00000000E+00  0.00000000E+00
  0.00000000E+00  0.00000000E+00  0.00000000E+00  0.00000000E+00  0.00000000E+00
  1.90440000E+00  1.36430000E+00  4.84000000E-01  7.31600000E+00  9.24030000E+00
  8.78200000E+00  5.61290000E+00  4.83340000E+00  3.24870000E+00  2.71090000E+00
  2.01130000E+00  1.50282000E+01  1.46788000E+01  2.13546000E+01  2.38290000E+01
  1.98022000E+01  1.50468000E+01  1.09745000E+01  1.27219000E+01  1.51949000E+01
  1.57342000E+01  2.79222000E+01  1.61366000E+01  2.21252000E+01  2.45676000E+01
  1.96016000E+01  1.79818000E+01  1.72396000E+01  5.01500000E+00  1.92898000E+01
  2.34477000E+01  2.23993000E+01  2.96586000E+01  2.60081000E+01  2.15580000E+01
  1.69594000E+01  1.56479000E+01  1.86897000E+01  1.93530000E+01  3.43444000E+01
  1.98480000E+01  2.72140000E+01  3.02182000E+01  2.41099000E+01  2.21176000E+01
  2.12047000E+01  7.56690000E+00  2.37264000E+01  2.93879000E+01  3.01278000E+01
  4.19382000E+01  3.85203000E+01  3.39511000E+01  2.75774000E+01  1.56460000E+01
  1.04460000E+01  2.01830000E+01  4.99540000E+01  4.76430000E+01  1.18690000E+01
  1.08670000E+01  9.96100000E+00  9.18700000E+00  3.67980000E+01  1.34070000E+01
  9.38200000E+00  9.81700000E+00  8.90800000E+00  8.40700000E+00  8.05800000E+00
  1.29600000E+01  2.67920000E+01  2.49300000E+01  3.45630000E+01  1.11860000E+01
  1.09440000E+01  1.01270000E+01  9.40400000E+00  1.36660000E+01  7.81000000E+00
  6.93600000E+01  5.86630000E+01  4.79690000E+01  4.52740000E+01  3.92290000E+01
  3.30660000E+01  0.00000000E+00  0.00000000E+00  0.00000000E+00  0.00000000E+00
  0.00000000E+00  0.00000000E+00  0.00000000E+00  0.00000000E+00  0.00000000E+00
  0.00000000E+00  0.00000000E+00  0.00000000E+00  0.00000000E+00  0.00000000E+00
  0.00000000E+00  0.00000000E+00  0.00000000E+00  0.00000000E+00  0.00000000E+00
  0.00000000E+00  0.00000000E+00  0.00000000E+00  0.00000000E+00  0.00000000E+00
  0.00000000E+00  0.00000000E+00  0.00000000E+00  0.00000000E+00  0.00000000E+00
  0.00000000E+00  0.00000000E+00  0.00000000E+00  0.00000000E+00  0.00000000E+00
  0.00000000E+00  0.00000000E+00  0.00000000E+00  0.00000000E+00  0.00000000E+00
  0.00000000E+00  0.00000000E+00  0.00000000E+00  0.00000000E+00  0.00000000E+00
  0.00000000E+00  0.00000000E+00  0.00000000E+00  0.00000000E+00  0.00000000E+00
  0.00000000E+00  0.00000000E+00  0.00000000E+00  0.00000000E+00  0.00000000E+00
  0.00000000E+00  0.00000000E+00  0.00000000E+00  0.00000000E+00  0.00000000E+00
  0.00000000E+00  0.00000000E+00  0.00000000E+00  0.00000000E+00  0.00000000E+00
  0.00000000E+00  0.00000000E+00  0.00000000E+00  0.00000000E+00  0.00000000E+00
  0.00000000E+00  0.00000000E+00  0.00000000E+00  0.00000000E+00  0.00000000E+00
  0.00000000E+00  0.00000000E+00  0.00000000E+00  0.00000000E+00  0.00000000E+00
  0.00000000E+00  0.00000000E+00  0.00000000E+00  0.00000000E+00  0.00000000E+00
  0.00000000E+00  0.00000000E+00  0.00000000E+00  0.00000000E+00  0.00000000E+00
  0.00000000E+00  0.00000000E+00  0.00000000E+00  0.00000000E+00  0.00000000E+00
  0.00000000E+00  0.00000000E+00  0.00000000E+00  0.00000000E+00  0.00000000E+00
  0.00000000E+00  0.00000000E+00  0.00000000E+00  0.00000000E+00  0.00000000E+00
  0.00000000E+00  0.00000000E+00  0.00000000E+00  0.00000000E+00  0.00000000E+00
  0.00000000E+00  0.00000000E+00  0.00000000E+00  0.00000000E+00  0.00000000E+00
  0.00000000E+00  0.00000000E+00  0.00000000E+00  0.00000000E+00  0.00000000E+00
  0.00000000E+00  0.00000000E+00  0.00000000E+00  0.00000000E+00  0.00000000E+00
  0.00000000E+00  0.00000000E+00  0.00000000E+00  0.00000000E+00  0.00000000E+00
  0.00000000E+00  0.00000000E+00  0.00000000E+00  0.00000000E+00  0.00000000E+00
  0.00000000E+00  0.00000000E+00  0.00000000E+00  0.00000000E+00  0.00000000E+00
  0.00000000E+00  0.00000000E+00  0.00000000E+00  0.00000000E+00  0.00000000E+00
  0.00000000E+00  0.00000000E+00  0.00000000E+00  0.00000000E+00  0.00000000E+00
  0.00000000E+00  0.00000000E+00  0.00000000E+00  0.00000000E+00  0.00000000E+00
  0.00000000E+00  0.00000000E+00  0.00000000E+00  0.00000000E+00  0.00000000E+00
  0.00000000E+00  0.00000000E+00  0.00000000E+00  0.00000000E+00  0.00000000E+00
  0.00000000E+00  0.00000000E+00  0.00000000E+00  0.00000000E+00  0.00000000E+00
  0.00000000E+00  0.00000000E+00  0.00000000E+00  0.00000000E+00  0.00000000E+00
  0.00000000E+00  0.00000000E+00  0.00000000E+00  0.00000000E+00  0.00000000E+00
  0.00000000E+00  0.00000000E+00  0.00000000E+00  0.00000000E+00  0.00000000E+00
  0.00000000E+00  0.00000000E+00  0.00000000E+00  0.00000000E+00  0.00000000E+00
  0.00000000E+00  0.00000000E+00  0.00000000E+00  0.00000000E+00  0.00000000E+00
  0.00000000E+00  0.00000000E+00  0.00000000E+00  0.00000000E+00  0.00000000E+00
  0.00000000E+00  0.00000000E+00  0.00000000E+00  0.00000000E+00  0.00000000E+00
  0.00000000E+00  0.00000000E+00  0.00000000E+00  0.00000000E+00  0.00000000E+00
  0.00000000E+00  0.00000000E+00  0.00000000E+00  0.00000000E+00  0.00000000E+00
  0.00000000E+00  0.00000000E+00  0.00000000E+00  0.00000000E+00  0.00000000E+00
  0.00000000E+00  0.00000000E+00  0.00000000E+00  0.00000000E+00  0.00000000E+00
  0.00000000E+00  0.00000000E+00  0.00000000E+00  0.00000000E+00  0.00000000E+00
  0.00000000E+00  0.00000000E+00  0.00000000E+00  0.00000000E+00  0.00000000E+00
  0.00000000E+00  0.00000000E+00  0.00000000E+00  0.00000000E+00  0.00000000E+00
  0.00000000E+00  0.00000000E+00  0.00000000E+00  0.00000000E+00  0.00000000E+00
  0.00000000E+00  0.00000000E+00  0.00000000E+00  0.00000000E+00  0.00000000E+00
  0.00000000E+00  0.00000000E+00  0.00000000E+00  0.00000000E+00  0.00000000E+00
  0.00000000E+00  0.00000000E+00  0.00000000E+00  0.00000000E+00  0.00000000E+00
  0.00000000E+00  0.00000000E+00  0.00000000E+00  0.00000000E+00  0.00000000E+00
  0.00000000E+00  0.00000000E+00  0.00000000E+00  0.00000000E+00  0.00000000E+00
  0.00000000E+00  0.00000000E+00  0.00000000E+00  0.00000000E+00  0.00000000E+00
  0.00000000E+00  0.00000000E+00  0.00000000E+00  0.00000000E+00  0.00000000E+00
  0.00000000E+00  0.00000000E+00  0.00000000E+00  0.00000000E+00  0.00000000E+00
  0.00000000E+00  0.00000000E+00  0.00000000E+00  0.00000000E+00  0.00000000E+00
  0.00000000E+00  0.00000000E+00  0.00000000E+00  0.00000000E+00  0.00000000E+00
  0.00000000E+00  0.00000000E+00  0.00000000E+00  0.00000000E+00  0.00000000E+00
  0.00000000E+00  0.00000000E+00  0.00000000E+00  0.00000000E+00  0.00000000E+00
  0.00000000E+00  0.00000000E+00  0.00000000E+00  0.00000000E+00  0.00000000E+00
  0.00000000E+00  0.00000000E+00  0.00000000E+00  0.00000000E+00  0.00000000E+00
  0.00000000E+00  0.00000000E+00  0.00000000E+00  0.00000000E+00  0.00000000E+00
  0.00000000E+00  0.00000000E+00  0.00000000E+00  0.00000000E+00  0.00000000E+00
  0.00000000E+00  0.00000000E+00  0.00000000E+00  0.00000000E+00  0.00000000E+00
  0.00000000E+00  0.00000000E+00  0.00000000E+00  0.00000000E+00  0.00000000E+00
  0.00000000E+00  0.00000000E+00  0.00000000E+00  0.00000000E+00  0.00000000E+00
  0.00000000E+00  0.00000000E+00  0.00000000E+00  0.00000000E+00  0.00000000E+00
  0.00000000E+00  0.00000000E+00  0.00000000E+00  0.00000000E+00  0.00000000E+00
  0.00000000E+00  0.00000000E+00  0.00000000E+00  0.00000000E+00  0.00000000E+00
  0.00000000E+00  0.00000000E+00  0.00000000E+00  0.00000000E+00  0.00000000E+00
  0.00000000E+00  0.00000000E+00  0.00000000E+00  0.00000000E+00  0.00000000E+00
  0.00000000E+00  0.00000000E+00  0.00000000E+00  0.00000000E+00  0.00000000E+00
  0.00000000E+00  0.00000000E+00  0.00000000E+00  0.00000000E+00  0.00000000E+00
  0.00000000E+00  0.00000000E+00  0.00000000E+00  0.00000000E+00  0.00000000E+00
  0.00000000E+00  0.00000000E+00  0.00000000E+00  0.00000000E+00  0.00000000E+00
  0.00000000E+00  0.00000000E+00  0.00000000E+00  0.00000000E+00  0.00000000E+00
  0.00000000E+00  0.00000000E+00  0.00000000E+00  0.00000000E+00  0.00000000E+00
  0.00000000E+00  0.00000000E+00  0.00000000E+00  0.00000000E+00  0.00000000E+00
  0.00000000E+00  0.00000000E+00  0.00000000E+00  0.00000000E+00  0.00000000E+00
  0.00000000E+00  0.00000000E+00  0.00000000E+00  0.00000000E+00  0.00000000E+00
  0.00000000E+00  0.00000000E+00  0.00000000E+00  0.00000000E+00  0.00000000E+00
  0.00000000E+00  0.00000000E+00  0.00000000E+00  0.00000000E+00  0.00000000E+00
  0.00000000E+00  0.00000000E+00  0.00000000E+00  0.00000000E+00  0.00000000E+00
  0.00000000E+00  0.00000000E+00  0.00000000E+00  0.00000000E+00  0.00000000E+00
  0.00000000E+00  0.00000000E+00  0.00000000E+00  0.00000000E+00  0.00000000E+00
  0.00000000E+00  0.00000000E+00  0.00000000E+00  0.00000000E+00  0.00000000E+00
  0.00000000E+00  0.00000000E+00  0.00000000E+00  0.00000000E+00  0.00000000E+00
  0.00000000E+00  0.00000000E+00  0.00000000E+00  0.00000000E+00  0.00000000E+00
  0.00000000E+00  0.00000000E+00  0.00000000E+00  0.00000000E+00  0.00000000E+00
  0.00000000E+00  0.00000000E+00  0.00000000E+00  0.00000000E+00  0.00000000E+00
  0.00000000E+00  0.00000000E+00  0.00000000E+00  0.00000000E+00  0.00000000E+00
  0.00000000E+00  0.00000000E+00  0.00000000E+00  0.00000000E+00  0.00000000E+00
  0.00000000E+00  0.00000000E+00  0.00000000E+00  0.00000000E+00  0.00000000E+00
  0.00000000E+00  0.00000000E+00  0.00000000E+00  0.00000000E+00  0.00000000E+00
  0.00000000E+00  0.00000000E+00  0.00000000E+00  0.00000000E+00  0.00000000E+00
  0.00000000E+00  0.00000000E+00  0.00000000E+00  0.00000000E+00  0.00000000E+00
  0.00000000E+00  0.00000000E+00  0.00000000E+00  0.00000000E+00  0.00000000E+00
  0.00000000E+00  0.00000000E+00  0.00000000E+00  0.00000000E+00  0.00000000E+00
  0.00000000E+00  0.00000000E+00  0.00000000E+00  0.00000000E+00  0.00000000E+00
  0.00000000E+00  0.00000000E+00  0.00000000E+00  0.00000000E+00  0.00000000E+00
  0.00000000E+00  0.00000000E+00  0.00000000E+00  0.00000000E+00  0.00000000E+00
  0.00000000E+00  0.00000000E+00  0.00000000E+00  0.00000000E+00  0.00000000E+00
  0.00000000E+00  0.00000000E+00  0.00000000E+00  0.00000000E+00  0.00000000E+00
  0.00000000E+00  0.00000000E+00  0.00000000E+00  0.00000000E+00  0.00000000E+00
  0.00000000E+00  0.00000000E+00  0.00000000E+00  0.00000000E+00  0.00000000E+00
  0.00000000E+00  0.00000000E+00  0.00000000E+00  0.00000000E+00  0.00000000E+00
  0.00000000E+00  0.00000000E+00  0.00000000E+00  0.00000000E+00  0.00000000E+00
  0.00000000E+00  0.00000000E+00  0.00000000E+00  0.00000000E+00  0.00000000E+00
  0.00000000E+00  0.00000000E+00  0.00000000E+00  0.00000000E+00  0.00000000E+00
  0.00000000E+00  0.00000000E+00  0.00000000E+00  0.00000000E+00  0.00000000E+00
  0.00000000E+00  0.00000000E+00  0.00000000E+00  0.00000000E+00  0.00000000E+00
  0.00000000E+00  0.00000000E+00  0.00000000E+00  0.00000000E+00  0.00000000E+00
  0.00000000E+00  0.00000000E+00  0.00000000E+00  0.00000000E+00  0.00000000E+00
  0.00000000E+00  0.00000000E+00  0.00000000E+00  0.00000000E+00  0.00000000E+00
  0.00000000E+00  0.00000000E+00  0.00000000E+00  0.00000000E+00  0.00000000E+00
  0.00000000E+00  0.00000000E+00  0.00000000E+00  0.00000000E+00  0.00000000E+00
  0.00000000E+00  0.00000000E+00  0.00000000E+00  0.00000000E+00  0.00000000E+00
  0.00000000E+00  0.00000000E+00  0.00000000E+00  0.00000000E+00  0.00000000E+00
  0.00000000E+00  0.00000000E+00  0.00000000E+00  0.00000000E+00  0.00000000E+00
  0.00000000E+00  0.00000000E+00  0.00000000E+00  0.00000000E+00  0.00000000E+00
  0.00000000E+00  0.00000000E+00  0.00000000E+00  0.00000000E+00  0.00000000E+00
  0.00000000E+00  0.00000000E+00  0.00000000E+00  0.00000000E+00  0.00000000E+00
  0.00000000E+00  0.00000000E+00  0.00000000E+00  0.00000000E+00  0.00000000E+00
  0.00000000E+00  0.00000000E+00  0.00000000E+00  0.00000000E+00  0.00000000E+00
  0.00000000E+00  0.00000000E+00  0.00000000E+00  0.00000000E+00  0.00000000E+00
  0.00000000E+00  0.00000000E+00  0.00000000E+00  0.00000000E+00  0.00000000E+00
  0.00000000E+00  0.00000000E+00  0.00000000E+00  0.00000000E+00  0.00000000E+00
  0.00000000E+00  0.00000000E+00  0.00000000E+00  0.00000000E+00  0.00000000E+00
  0.00000000E+00  0.00000000E+00  0.00000000E+00  0.00000000E+00  0.00000000E+00
  0.00000000E+00  0.00000000E+00  0.00000000E+00  0.00000000E+00  0.00000000E+00
  0.00000000E+00  0.00000000E+00  0.00000000E+00  0.00000000E+00  0.00000000E+00
  0.00000000E+00  0.00000000E+00  0.00000000E+00  0.00000000E+00  0.00000000E+00
  0.00000000E+00  0.00000000E+00  0.00000000E+00  0.00000000E+00  0.00000000E+00
  0.00000000E+00  0.00000000E+00  0.00000000E+00  0.00000000E+00  0.00000000E+00
  0.00000000E+00  0.00000000E+00  0.00000000E+00  0.00000000E+00  0.00000000E+00
  0.00000000E+00  0.00000000E+00  0.00000000E+00  0.00000000E+00  0.00000000E+00
  0.00000000E+00  0.00000000E+00  0.00000000E+00  0.00000000E+00  0.00000000E+00
  0.00000000E+00  0.00000000E+00  0.00000000E+00  0.00000000E+00  0.00000000E+00
  0.00000000E+00  0.00000000E+00  0.00000000E+00  0.00000000E+00  0.00000000E+00
  0.00000000E+00  0.00000000E+00  0.00000000E+00  0.00000000E+00  0.00000000E+00
  0.00000000E+00  0.00000000E+00  0.00000000E+00  0.00000000E+00  0.00000000E+00
  0.00000000E+00  0.00000000E+00  0.00000000E+00  0.00000000E+00  0.00000000E+00
  0.00000000E+00  0.00000000E+00  0.00000000E+00  0.00000000E+00  0.00000000E+00
  0.00000000E+00  0.00000000E+00  0.00000000E+00  0.00000000E+00  0.00000000E+00
  0.00000000E+00  0.00000000E+00  0.00000000E+00  0.00000000E+00  0.00000000E+00
  0.00000000E+00  0.00000000E+00  0.00000000E+00  0.00000000E+00  0.00000000E+00
  0.00000000E+00  0.00000000E+00  0.00000000E+00  0.00000000E+00  0.00000000E+00
  0.00000000E+00  0.00000000E+00  0.00000000E+00  0.00000000E+00  0.00000000E+00
  0.00000000E+00  0.00000000E+00  0.00000000E+00  0.00000000E+00  0.00000000E+00
  0.00000000E+00  0.00000000E+00  0.00000000E+00  0.00000000E+00  0.00000000E+00
  0.00000000E+00  0.00000000E+00  0.00000000E+00  0.00000000E+00  0.00000000E+00
  0.00000000E+00  0.00000000E+00  0.00000000E+00  0.00000000E+00  0.00000000E+00
  0.00000000E+00  0.00000000E+00  0.00000000E+00  0.00000000E+00  0.00000000E+00
  0.00000000E+00  0.00000000E+00  0.00000000E+00  0.00000000E+00  0.00000000E+00
  0.00000000E+00  0.00000000E+00  0.00000000E+00  0.00000000E+00  0.00000000E+00
  0.00000000E+00  0.00000000E+00  0.00000000E+00  0.00000000E+00  0.00000000E+00
  0.00000000E+00  0.00000000E+00  0.00000000E+00  0.00000000E+00  0.00000000E+00
  0.00000000E+00  0.00000000E+00  0.00000000E+00  0.00000000E+00  0.00000000E+00
  0.00000000E+00  0.00000000E+00  0.00000000E+00  0.00000000E+00  0.00000000E+00
  0.00000000E+00  0.00000000E+00  0.00000000E+00  0.00000000E+00  0.00000000E+00
  0.00000000E+00  0.00000000E+00  0.00000000E+00  0.00000000E+00  0.00000000E+00
  0.00000000E+00  0.00000000E+00  0.00000000E+00  0.00000000E+00  0.00000000E+00
  0.00000000E+00  0.00000000E+00  0.00000000E+00  0.00000000E+00  0.00000000E+00
  0.00000000E+00  0.00000000E+00  0.00000000E+00  0.00000000E+00  0.00000000E+00
  0.00000000E+00  0.00000000E+00  0.00000000E+00  0.00000000E+00  0.00000000E+00
  0.00000000E+00  0.00000000E+00  0.00000000E+00  0.00000000E+00  0.00000000E+00
  0.00000000E+00  0.00000000E+00  0.00000000E+00  0.00000000E+00  0.00000000E+00
  0.00000000E+00  0.00000000E+00  0.00000000E+00  0.00000000E+00  0.00000000E+00
  0.00000000E+00  0.00000000E+00  0.00000000E+00  0.00000000E+00  0.00000000E+00
  0.00000000E+00  0.00000000E+00  0.00000000E+00  0.00000000E+00  0.00000000E+00
  0.00000000E+00  0.00000000E+00  0.00000000E+00  0.00000000E+00  0.00000000E+00
  0.00000000E+00  0.00000000E+00  0.00000000E+00  0.00000000E+00  0.00000000E+00
  0.00000000E+00  0.00000000E+00  0.00000000E+00  0.00000000E+00  0.00000000E+00
  0.00000000E+00  0.00000000E+00  0.00000000E+00  0.00000000E+00  0.00000000E+00
  0.00000000E+00  0.00000000E+00  0.00000000E+00  0.00000000E+00  0.00000000E+00
  0.00000000E+00  0.00000000E+00  0.00000000E+00  0.00000000E+00  0.00000000E+00
  0.00000000E+00  0.00000000E+00  0.00000000E+00  0.00000000E+00  0.00000000E+00
  0.00000000E+00  0.00000000E+00  0.00000000E+00  0.00000000E+00  0.00000000E+00
  0.00000000E+00  0.00000000E+00  0.00000000E+00  0.00000000E+00  0.00000000E+00
  0.00000000E+00  0.00000000E+00  0.00000000E+00  0.00000000E+00  0.00000000E+00
  0.00000000E+00  0.00000000E+00  0.00000000E+00  0.00000000E+00  0.00000000E+00
  0.00000000E+00  0.00000000E+00  0.00000000E+00  0.00000000E+00  0.00000000E+00
  0.00000000E+00  0.00000000E+00  0.00000000E+00  0.00000000E+00  0.00000000E+00
  0.00000000E+00  0.00000000E+00  0.00000000E+00  0.00000000E+00  0.00000000E+00
  0.00000000E+00  0.00000000E+00  0.00000000E+00  0.00000000E+00  0.00000000E+00
  0.00000000E+00  0.00000000E+00  0.00000000E+00  0.00000000E+00  0.00000000E+00
  0.00000000E+00  0.00000000E+00  0.00000000E+00  0.00000000E+00  0.00000000E+00
  0.00000000E+00  0.00000000E+00  0.00000000E+00  0.00000000E+00  0.00000000E+00
  0.00000000E+00  0.00000000E+00  0.00000000E+00  0.00000000E+00  0.00000000E+00
  0.00000000E+00  0.00000000E+00  0.00000000E+00  0.00000000E+00  0.00000000E+00
  0.00000000E+00  0.00000000E+00  0.00000000E+00  0.00000000E+00  0.00000000E+00
  0.00000000E+00  0.00000000E+00  0.00000000E+00  0.00000000E+00  0.00000000E+00
  0.00000000E+00  0.00000000E+00  0.00000000E+00  0.00000000E+00  0.00000000E+00
  0.00000000E+00  0.00000000E+00  0.00000000E+00  0.00000000E+00  0.00000000E+00
  0.00000000E+00  0.00000000E+00  0.00000000E+00  0.00000000E+00  0.00000000E+00
  0.00000000E+00  0.00000000E+00  0.00000000E+00  0.00000000E+00  0.00000000E+00
  0.00000000E+00  0.00000000E+00  0.00000000E+00  0.00000000E+00  0.00000000E+00
  0.00000000E+00  0.00000000E+00  0.00000000E+00  0.00000000E+00  0.00000000E+00
  0.00000000E+00  0.00000000E+00  0.00000000E+00  0.00000000E+00  0.00000000E+00
  0.00000000E+00  0.00000000E+00  0.00000000E+00  0.00000000E+00  0.00000000E+00
  0.00000000E+00  0.00000000E+00  0.00000000E+00  0.00000000E+00  0.00000000E+00
  0.00000000E+00  0.00000000E+00  0.00000000E+00  0.00000000E+00  0.00000000E+00
  0.00000000E+00  0.00000000E+00  0.00000000E+00  0.00000000E+00  0.00000000E+00
  0.00000000E+00  0.00000000E+00  0.00000000E+00  0.00000000E+00  0.00000000E+00
  0.00000000E+00  0.00000000E+00  0.00000000E+00  0.00000000E+00  0.00000000E+00
  0.00000000E+00  0.00000000E+00  0.00000000E+00  0.00000000E+00  0.00000000E+00
  0.00000000E+00  0.00000000E+00  0.00000000E+00  0.00000000E+00  0.00000000E+00
  0.00000000E+00  0.00000000E+00  0.00000000E+00  0.00000000E+00  0.00000000E+00
  0.00000000E+00  0.00000000E+00  0.00000000E+00  0.00000000E+00  0.00000000E+00
  0.00000000E+00  0.00000000E+00  0.00000000E+00  0.00000000E+00  0.00000000E+00
  0.00000000E+00  0.00000000E+00  0.00000000E+00  0.00000000E+00  0.00000000E+00
  0.00000000E+00  0.00000000E+00  0.00000000E+00  0.00000000E+00  0.00000000E+00
  0.00000000E+00  0.00000000E+00  0.00000000E+00  0.00000000E+00  0.00000000E+00
  0.00000000E+00  0.00000000E+00  0.00000000E+00  0.00000000E+00  0.00000000E+00
  0.00000000E+00  0.00000000E+00  0.00000000E+00  0.00000000E+00  0.00000000E+00
  0.00000000E+00  0.00000000E+00  0.00000000E+00  0.00000000E+00  0.00000000E+00
  0.00000000E+00  0.00000000E+00  0.00000000E+00  0.00000000E+00  0.00000000E+00
  0.00000000E+00  0.00000000E+00  0.00000000E+00  0.00000000E+00  0.00000000E+00
  0.00000000E+00  0.00000000E+00  0.00000000E+00  0.00000000E+00  0.00000000E+00
  0.00000000E+00  0.00000000E+00  0.00000000E+00  0.00000000E+00  0.00000000E+00
  0.00000000E+00  0.00000000E+00  0.00000000E+00  0.00000000E+00  0.00000000E+00
  0.00000000E+00  0.00000000E+00  0.00000000E+00  0.00000000E+00  0.00000000E+00
  0.00000000E+00  0.00000000E+00  0.00000000E+00  0.00000000E+00  0.00000000E+00
  0.00000000E+00  0.00000000E+00  0.00000000E+00  0.00000000E+00  0.00000000E+00
  0.00000000E+00  0.00000000E+00  0.00000000E+00  0.00000000E+00  0.00000000E+00
  0.00000000E+00  0.00000000E+00  0.00000000E+00  0.00000000E+00  0.00000000E+00
  0.00000000E+00  0.00000000E+00  0.00000000E+00  0.00000000E+00  0.00000000E+00
  0.00000000E+00  0.00000000E+00  0.00000000E+00  0.00000000E+00  0.00000000E+00
  0.00000000E+00  0.00000000E+00  0.00000000E+00  0.00000000E+00  0.00000000E+00
  0.00000000E+00  0.00000000E+00  0.00000000E+00  0.00000000E+00  0.00000000E+00
  0.00000000E+00  0.00000000E+00  0.00000000E+00  0.00000000E+00  0.00000000E+00
  0.00000000E+00  0.00000000E+00  0.00000000E+00  0.00000000E+00  0.00000000E+00
  0.00000000E+00  0.00000000E+00  0.00000000E+00  0.00000000E+00  0.00000000E+00
  0.00000000E+00  0.00000000E+00  0.00000000E+00  0.00000000E+00  0.00000000E+00
  0.00000000E+00  0.00000000E+00  0.00000000E+00  0.00000000E+00  0.00000000E+00
  0.00000000E+00  0.00000000E+00  0.00000000E+00  0.00000000E+00  0.00000000E+00
  0.00000000E+00  0.00000000E+00  0.00000000E+00  0.00000000E+00  0.00000000E+00
  0.00000000E+00  0.00000000E+00  0.00000000E+00  0.00000000E+00  0.00000000E+00
  0.00000000E+00  0.00000000E+00  0.00000000E+00  0.00000000E+00  0.00000000E+00
  0.00000000E+00  0.00000000E+00  0.00000000E+00  0.00000000E+00  0.00000000E+00
  0.00000000E+00  0.00000000E+00  0.00000000E+00  0.00000000E+00  0.00000000E+00
  0.00000000E+00  0.00000000E+00  0.00000000E+00  0.00000000E+00  0.00000000E+00
  0.00000000E+00  0.00000000E+00  0.00000000E+00  0.00000000E+00  0.00000000E+00
  0.00000000E+00  0.00000000E+00  0.00000000E+00  0.00000000E+00  0.00000000E+00
  0.00000000E+00  0.00000000E+00  0.00000000E+00  0.00000000E+00  0.00000000E+00
  0.00000000E+00  0.00000000E+00  0.00000000E+00  0.00000000E+00  0.00000000E+00
  0.00000000E+00  0.00000000E+00  0.00000000E+00  0.00000000E+00  0.00000000E+00
  0.00000000E+00  0.00000000E+00  0.00000000E+00  0.00000000E+00  0.00000000E+00
  0.00000000E+00  0.00000000E+00  0.00000000E+00  0.00000000E+00  0.00000000E+00
  0.00000000E+00  0.00000000E+00  0.00000000E+00  0.00000000E+00  0.00000000E+00
  0.00000000E+00  0.00000000E+00  0.00000000E+00  0.00000000E+00  0.00000000E+00
  0.00000000E+00  0.00000000E+00  0.00000000E+00  0.00000000E+00  0.00000000E+00
  0.00000000E+00  0.00000000E+00  0.00000000E+00  0.00000000E+00  0.00000000E+00
  0.00000000E+00  0.00000000E+00  0.00000000E+00  0.00000000E+00  0.00000000E+00
  0.00000000E+00  0.00000000E+00  0.00000000E+00  0.00000000E+00  0.00000000E+00
  0.00000000E+00  0.00000000E+00  0.00000000E+00  0.00000000E+00  0.00000000E+00
  0.00000000E+00  0.00000000E+00  0.00000000E+00  0.00000000E+00  0.00000000E+00
  0.00000000E+00  0.00000000E+00  0.00000000E+00  0.00000000E+00  0.00000000E+00
  0.00000000E+00  0.00000000E+00  0.00000000E+00  0.00000000E+00  0.00000000E+00
  0.00000000E+00  0.00000000E+00  0.00000000E+00  0.00000000E+00  0.00000000E+00
  0.00000000E+00  0.00000000E+00  0.00000000E+00  0.00000000E+00  0.00000000E+00
  0.00000000E+00  0.00000000E+00  0.00000000E+00  0.00000000E+00  0.00000000E+00
  0.00000000E+00  0.00000000E+00  0.00000000E+00  0.00000000E+00  0.00000000E+00
  0.00000000E+00  0.00000000E+00  0.00000000E+00  0.00000000E+00  0.00000000E+00
  0.00000000E+00  0.00000000E+00  0.00000000E+00  0.00000000E+00  0.00000000E+00
  0.00000000E+00  0.00000000E+00  0.00000000E+00  0.00000000E+00  0.00000000E+00
  0.00000000E+00  0.00000000E+00  0.00000000E+00  0.00000000E+00  0.00000000E+00
  0.00000000E+00  0.00000000E+00  0.00000000E+00  0.00000000E+00  0.00000000E+00
  0.00000000E+00  0.00000000E+00  0.00000000E+00  0.00000000E+00  0.00000000E+00
  0.00000000E+00  0.00000000E+00  0.00000000E+00  0.00000000E+00  0.00000000E+00
  0.00000000E+00  0.00000000E+00  0.00000000E+00  0.00000000E+00  0.00000000E+00
  0.00000000E+00  0.00000000E+00  0.00000000E+00  0.00000000E+00  0.00000000E+00
  0.00000000E+00  0.00000000E+00  0.00000000E+00  0.00000000E+00  0.00000000E+00
  0.00000000E+00  0.00000000E+00  0.00000000E+00  0.00000000E+00  0.00000000E+00
  0.00000000E+00  0.00000000E+00  0.00000000E+00  0.00000000E+00  0.00000000E+00
  0.00000000E+00  0.00000000E+00  0.00000000E+00  0.00000000E+00  0.00000000E+00
  0.00000000E+00  0.00000000E+00  0.00000000E+00  0.00000000E+00  0.00000000E+00
  0.00000000E+00  0.00000000E+00  0.00000000E+00  0.00000000E+00  0.00000000E+00
  0.00000000E+00  0.00000000E+00  0.00000000E+00  0.00000000E+00  0.00000000E+00
  0.00000000E+00  0.00000000E+00  0.00000000E+00  0.00000000E+00  0.00000000E+00
  0.00000000E+00  0.00000000E+00  0.00000000E+00  0.00000000E+00  0.00000000E+00
  0.00000000E+00  0.00000000E+00  0.00000000E+00  0.00000000E+00  0.00000000E+00
  0.00000000E+00  0.00000000E+00  0.00000000E+00  0.00000000E+00  0.00000000E+00
  0.00000000E+00  0.00000000E+00  0.00000000E+00  0.00000000E+00  0.00000000E+00
  0.00000000E+00  0.00000000E+00  0.00000000E+00  0.00000000E+00  0.00000000E+00
  0.00000000E+00  0.00000000E+00  0.00000000E+00  0.00000000E+00  0.00000000E+00
  0.00000000E+00  0.00000000E+00  0.00000000E+00  0.00000000E+00  0.00000000E+00
  0.00000000E+00  0.00000000E+00  0.00000000E+00  0.00000000E+00  0.00000000E+00
  0.00000000E+00  0.00000000E+00  0.00000000E+00  0.00000000E+00  0.00000000E+00
  0.00000000E+00  0.00000000E+00  0.00000000E+00  0.00000000E+00  0.00000000E+00
  0.00000000E+00  0.00000000E+00  0.00000000E+00  0.00000000E+00  0.00000000E+00
  0.00000000E+00  0.00000000E+00  0.00000000E+00  0.00000000E+00  0.00000000E+00
  0.00000000E+00  0.00000000E+00  0.00000000E+00  0.00000000E+00  0.00000000E+00
  0.00000000E+00  0.00000000E+00  0.00000000E+00  0.00000000E+00  0.00000000E+00
  0.00000000E+00  0.00000000E+00  0.00000000E+00  0.00000000E+00  0.00000000E+00
  0.00000000E+00  0.00000000E+00  0.00000000E+00  0.00000000E+00  0.00000000E+00
  0.00000000E+00  0.00000000E+00  0.00000000E+00  0.00000000E+00  0.00000000E+00
  0.00000000E+00  0.00000000E+00  0.00000000E+00  0.00000000E+00  0.00000000E+00
  0.00000000E+00  0.00000000E+00  0.00000000E+00  0.00000000E+00  0.00000000E+00
  0.00000000E+00  0.00000000E+00  0.00000000E+00  0.00000000E+00  0.00000000E+00
  0.00000000E+00  0.00000000E+00  0.00000000E+00  0.00000000E+00  0.00000000E+00
  0.00000000E+00  0.00000000E+00  0.00000000E+00  0.00000000E+00  0.00000000E+00
  0.00000000E+00  0.00000000E+00  0.00000000E+00  0.00000000E+00  0.00000000E+00
  0.00000000E+00  0.00000000E+00  0.00000000E+00  0.00000000E+00  0.00000000E+00
  0.00000000E+00  0.00000000E+00  0.00000000E+00  0.00000000E+00  0.00000000E+00
  0.00000000E+00  0.00000000E+00  0.00000000E+00  0.00000000E+00  0.00000000E+00
  0.00000000E+00  0.00000000E+00  0.00000000E+00  0.00000000E+00  0.00000000E+00
  0.00000000E+00  0.00000000E+00  0.00000000E+00  0.00000000E+00  0.00000000E+00
  0.00000000E+00  0.00000000E+00  0.00000000E+00  0.00000000E+00  0.00000000E+00
  0.00000000E+00  0.00000000E+00  0.00000000E+00  0.00000000E+00  0.00000000E+00
  0.00000000E+00  0.00000000E+00  0.00000000E+00  0.00000000E+00  0.00000000E+00
  0.00000000E+00  0.00000000E+00  0.00000000E+00  0.00000000E+00  0.00000000E+00
  0.00000000E+00  0.00000000E+00  0.00000000E+00  0.00000000E+00  0.00000000E+00
  0.00000000E+00  0.00000000E+00  0.00000000E+00  0.00000000E+00  0.00000000E+00
  0.00000000E+00  0.00000000E+00  0.00000000E+00  0.00000000E+00  0.00000000E+00
  0.00000000E+00  0.00000000E+00  0.00000000E+00  0.00000000E+00  0.00000000E+00
  0.00000000E+00  0.00000000E+00  0.00000000E+00  0.00000000E+00  0.00000000E+00
  0.00000000E+00  0.00000000E+00  0.00000000E+00  0.00000000E+00  0.00000000E+00
  0.00000000E+00  0.00000000E+00  0.00000000E+00  0.00000000E+00  0.00000000E+00
  0.00000000E+00  0.00000000E+00  0.00000000E+00  0.00000000E+00  0.00000000E+00
  0.00000000E+00  0.00000000E+00  0.00000000E+00  0.00000000E+00  0.00000000E+00
  0.00000000E+00  0.00000000E+00  0.00000000E+00  0.00000000E+00  0.00000000E+00
  0.00000000E+00  0.00000000E+00  0.00000000E+00  0.00000000E+00  0.00000000E+00
  0.00000000E+00  0.00000000E+00  0.00000000E+00  0.00000000E+00  0.00000000E+00
  0.00000000E+00  0.00000000E+00  0.00000000E+00  0.00000000E+00  0.00000000E+00
  0.00000000E+00  0.00000000E+00  0.00000000E+00  0.00000000E+00  0.00000000E+00
  0.00000000E+00  0.00000000E+00  0.00000000E+00  0.00000000E+00  0.00000000E+00
  0.00000000E+00  0.00000000E+00  0.00000000E+00  0.00000000E+00  0.00000000E+00
  0.00000000E+00  0.00000000E+00  0.00000000E+00  0.00000000E+00  0.00000000E+00
  0.00000000E+00  0.00000000E+00  0.00000000E+00  0.00000000E+00  0.00000000E+00
  0.00000000E+00  0.00000000E+00  0.00000000E+00  0.00000000E+00  0.00000000E+00
  0.00000000E+00  0.00000000E+00  0.00000000E+00  0.00000000E+00  0.00000000E+00
  0.00000000E+00  0.00000000E+00  0.00000000E+00  0.00000000E+00  0.00000000E+00
  0.00000000E+00  0.00000000E+00  0.00000000E+00  0.00000000E+00  0.00000000E+00
  0.00000000E+00  0.00000000E+00  0.00000000E+00  0.00000000E+00  0.00000000E+00
  0.00000000E+00  0.00000000E+00  0.00000000E+00  0.00000000E+00  0.00000000E+00
  0.00000000E+00  0.00000000E+00  0.00000000E+00  0.00000000E+00  0.00000000E+00
  0.00000000E+00  0.00000000E+00  0.00000000E+00  0.00000000E+00  0.00000000E+00
  0.00000000E+00  0.00000000E+00  0.00000000E+00  0.00000000E+00  0.00000000E+00
  0.00000000E+00  0.00000000E+00  0.00000000E+00  0.00000000E+00  0.00000000E+00
  0.00000000E+00  0.00000000E+00  0.00000000E+00  0.00000000E+00  0.00000000E+00
  0.00000000E+00  0.00000000E+00  0.00000000E+00  0.00000000E+00  0.00000000E+00
  0.00000000E+00  0.00000000E+00  0.00000000E+00  0.00000000E+00  0.00000000E+00
  0.00000000E+00  0.00000000E+00  0.00000000E+00  0.00000000E+00  0.00000000E+00
  0.00000000E+00  0.00000000E+00  0.00000000E+00  0.00000000E+00  0.00000000E+00
  0.00000000E+00  0.00000000E+00  0.00000000E+00  0.00000000E+00  0.00000000E+00
  0.00000000E+00  0.00000000E+00  0.00000000E+00  0.00000000E+00  0.00000000E+00
  0.00000000E+00  0.00000000E+00  0.00000000E+00  0.00000000E+00  0.00000000E+00
  0.00000000E+00  0.00000000E+00  0.00000000E+00  0.00000000E+00  0.00000000E+00
  0.00000000E+00  0.00000000E+00  0.00000000E+00  0.00000000E+00  0.00000000E+00
  0.00000000E+00  0.00000000E+00  0.00000000E+00  0.00000000E+00  0.00000000E+00
  0.00000000E+00  0.00000000E+00  0.00000000E+00  0.00000000E+00  0.00000000E+00
  0.00000000E+00  0.00000000E+00  0.00000000E+00  0.00000000E+00  0.00000000E+00
  0.00000000E+00  0.00000000E+00  0.00000000E+00  0.00000000E+00  0.00000000E+00
  0.00000000E+00  0.00000000E+00  0.00000000E+00  0.00000000E+00  0.00000000E+00
  0.00000000E+00  0.00000000E+00  0.00000000E+00  0.00000000E+00  0.00000000E+00
  0.00000000E+00  0.00000000E+00  0.00000000E+00  0.00000000E+00  0.00000000E+00
  0.00000000E+00  0.00000000E+00  0.00000000E+00  0.00000000E+00  0.00000000E+00
  0.00000000E+00  0.00000000E+00  0.00000000E+00  0.00000000E+00  0.00000000E+00
  0.00000000E+00  0.00000000E+00  0.00000000E+00  0.00000000E+00  0.00000000E+00
  0.00000000E+00  0.00000000E+00  0.00000000E+00  0.00000000E+00  0.00000000E+00
  0.00000000E+00  0.00000000E+00  0.00000000E+00  0.00000000E+00  0.00000000E+00
  0.00000000E+00  0.00000000E+00  0.00000000E+00  0.00000000E+00  0.00000000E+00
  0.00000000E+00  0.00000000E+00  0.00000000E+00  0.00000000E+00  0.00000000E+00
  0.00000000E+00  0.00000000E+00  0.00000000E+00  0.00000000E+00  0.00000000E+00
  0.00000000E+00  0.00000000E+00  0.00000000E+00  0.00000000E+00  0.00000000E+00
  0.00000000E+00  0.00000000E+00  0.00000000E+00  0.00000000E+00  0.00000000E+00
  0.00000000E+00  0.00000000E+00  0.00000000E+00  0.00000000E+00  0.00000000E+00
  0.00000000E+00  0.00000000E+00  0.00000000E+00  0.00000000E+00  0.00000000E+00
  0.00000000E+00  0.00000000E+00  0.00000000E+00  0.00000000E+00  0.00000000E+00
  0.00000000E+00  0.00000000E+00  0.00000000E+00  0.00000000E+00  0.00000000E+00
  0.00000000E+00  0.00000000E+00  0.00000000E+00  0.00000000E+00  0.00000000E+00
  0.00000000E+00  0.00000000E+00  0.00000000E+00  0.00000000E+00  0.00000000E+00
  0.00000000E+00  0.00000000E+00  0.00000000E+00  0.00000000E+00  0.00000000E+00
  0.00000000E+00  0.00000000E+00  0.00000000E+00  0.00000000E+00  0.00000000E+00
  0.00000000E+00  0.00000000E+00  0.00000000E+00  0.00000000E+00  0.00000000E+00
  0.00000000E+00  0.00000000E+00  0.00000000E+00  0.00000000E+00  0.00000000E+00
  0.00000000E+00  0.00000000E+00  0.00000000E+00  0.00000000E+00  0.00000000E+00
  0.00000000E+00  0.00000000E+00  0.00000000E+00  0.00000000E+00  0.00000000E+00
  0.00000000E+00  0.00000000E+00  0.00000000E+00  0.00000000E+00  0.00000000E+00
  0.00000000E+00  0.00000000E+00  0.00000000E+00  0.00000000E+00  0.00000000E+00
Gaussian Version                           C   N=           2
ES64L-GDVRevJ.28        
