%chk=test_parall.chk
%nprocs=1
#p force output=pickett External="CentralExt gau $PGAU/test_pr.dat $EGAU/test_en.dat 7 55 read parall 2" 

title

0 1
 C                  0.00000000    0.00000000    0.00000000
 H                  0.00000000    0.00000000    1.06999996
 H                 -0.00000000   -1.00880563   -0.35666665
 H                 -0.87365130    0.50440282   -0.35666665
 H                  0.87365130    0.50440282   -0.35666665

--link1--
%chk=test_parall.chk
%nprocs=1
#p force uff

title

0 1
 C                  0.00000000    0.00000000    0.00000000
 H                  0.00000000    0.00000000    1.06999996
 H                 -0.00000000   -1.00880563   -0.35666665
 H                 -0.87365130    0.50440282   -0.35666665
 H                  0.87365130    0.50440282   -0.35666665


