External Calculation                                                    
SP        RHF                                                         STO-3G              
Number of atoms                            I                6
Info1-9                                    I   N=           9
          20          15           0           0           0         110
           1           1           2
Full Title                                 C   N=           2
External Calculation    
Route                                      C   N=           2
#P hf/sto-3g scf=xqc    
Charge                                     I                0
Multiplicity                               I                1
Number of electrons                        I               38
Number of alpha electrons                  I               19
Number of beta electrons                   I               19
Number of basis functions                  I               26
Number of independent functions            I               26
Number of point charges in /Mol/           I                0
Number of translation vectors              I                0
Atomic numbers                             I   N=           6
           6           1           6           1          17           7
Nuclear charges                            R   N=           6
  6.00000000E+00  1.00000000E+00  6.00000000E+00  1.00000000E+00  1.70000000E+01
  7.00000000E+00
Current cartesian coordinates              R   N=          18
  0.00000000E+00  1.70321167E+00  0.00000000E+00 -5.08512514E-01  3.66023163E+00
  0.00000000E+00  2.46587947E+00  1.01188078E+00  0.00000000E+00  3.90925948E+00
  2.42791972E+00  0.00000000E+00 -2.37415780E+00 -6.25973844E-01  0.00000000E+00
  3.16637982E+00 -1.67673582E+00  0.00000000E+00
Number of symbols in /Mol/                 I                0
Int Atom Types                             I   N=           6
           0           0           0           0           0           0
Force Field                                I                0
Atom Types                                 C   N=           6
                                                            
            
MM charges                                 R   N=           6
  0.00000000E+00  0.00000000E+00  0.00000000E+00  0.00000000E+00  0.00000000E+00
  0.00000000E+00
Integer atomic weights                     I   N=           6
          12           1          12           1          35          14
Real atomic weights                        R   N=           6
  1.20000000E+01  1.00782504E+00  1.20000000E+01  1.00782504E+00  3.49688527E+01
  1.40030740E+01
Atom fragment info                         I   N=           6
           0           0           0           0           0           0
Atom residue num                           I   N=           6
           0           0           0           0           0           0
Nuclear spins                              I   N=           6
           0           1           0           1           3           2
Nuclear ZEff                               R   N=           6
 -3.60000000E+00 -1.00000000E+00 -3.60000000E+00 -1.00000000E+00 -1.42400000E+01
 -4.55000000E+00
Nuclear ZNuc                               R   N=           6
  6.00000000E+00  1.00000000E+00  6.00000000E+00  1.00000000E+00  1.70000000E+01
  7.00000000E+00
Nuclear QMom                               R   N=           6
  0.00000000E+00  0.00000000E+00  0.00000000E+00  0.00000000E+00 -8.16500000E+00
  2.04400000E+00
Nuclear GFac                               R   N=           6
  0.00000000E+00  2.79284600E+00  0.00000000E+00  2.79284600E+00  8.21874000E-01
  4.03761000E-01
MicOpt                                     I   N=           6
          -1          -1          -1          -1          -1          -1
Number of residues                         I                0
Number of secondary structures             I                0
SymInf integers                            I   N=          26
           1           2           1           1           1           1
           1          -1           0           0           0           0
           0           0           0           0           0           0
           0           0           0           0           0           0
           0           0
RotTr to input orientation                 R   N=          12
  9.99999979E-01  2.04382961E-04  0.00000000E+00 -2.04382961E-04  9.99999979E-01
  0.00000000E+00  0.00000000E+00  0.00000000E+00  1.00000000E+00  3.48107444E-04
  2.89405926E-13  0.00000000E+00
Number of contracted shells                I               11
Number of primitive shells                 I               33
Pure/Cartesian d shells                    I                0
Pure/Cartesian f shells                    I                0
Highest angular momentum                   I                1
Largest degree of contraction              I                3
Shell types                                I   N=          11
           0          -1           0           0          -1           0
           0          -1          -1           0          -1
Number of primitives per shell             I   N=          11
           3           3           3           3           3           3
           3           3           3           3           3
Shell to atom map                          I   N=          11
           1           1           2           3           3           4
           5           5           5           6           6
Primitive exponents                        R   N=          33
  7.16168373E+01  1.30450963E+01  3.53051216E+00  2.94124936E+00  6.83483096E-01
  2.22289916E-01  3.42525091E+00  6.23913730E-01  1.68855404E-01  7.16168373E+01
  1.30450963E+01  3.53051216E+00  2.94124936E+00  6.83483096E-01  2.22289916E-01
  3.42525091E+00  6.23913730E-01  1.68855404E-01  6.01345614E+02  1.09535854E+02
  2.96446769E+01  3.89604189E+01  9.05356348E+00  2.94449983E+00  2.12938650E+00
  5.94093427E-01  2.32524141E-01  9.91061690E+01  1.80523124E+01  4.88566024E+00
  3.78045588E+00  8.78496645E-01  2.85714374E-01
Contraction coefficients                   R   N=          33
  1.54328967E-01  5.35328142E-01  4.44634542E-01 -9.99672292E-02  3.99512826E-01
  7.00115469E-01  1.54328967E-01  5.35328142E-01  4.44634542E-01  1.54328967E-01
  5.35328142E-01  4.44634542E-01 -9.99672292E-02  3.99512826E-01  7.00115469E-01
  1.54328967E-01  5.35328142E-01  4.44634542E-01  1.54328967E-01  5.35328142E-01
  4.44634542E-01 -9.99672292E-02  3.99512826E-01  7.00115469E-01 -2.19620369E-01
  2.25595434E-01  9.00398426E-01  1.54328967E-01  5.35328142E-01  4.44634542E-01
 -9.99672292E-02  3.99512826E-01  7.00115469E-01
P(S=P) Contraction coefficients            R   N=          33
  0.00000000E+00  0.00000000E+00  0.00000000E+00  1.55916275E-01  6.07683719E-01
  3.91957393E-01  0.00000000E+00  0.00000000E+00  0.00000000E+00  0.00000000E+00
  0.00000000E+00  0.00000000E+00  1.55916275E-01  6.07683719E-01  3.91957393E-01
  0.00000000E+00  0.00000000E+00  0.00000000E+00  0.00000000E+00  0.00000000E+00
  0.00000000E+00  1.55916275E-01  6.07683719E-01  3.91957393E-01  1.05876043E-02
  5.95167005E-01  4.62001012E-01  0.00000000E+00  0.00000000E+00  0.00000000E+00
  1.55916275E-01  6.07683719E-01  3.91957393E-01
Coordinates of each shell                  R   N=          33
  0.00000000E+00  1.70321167E+00  0.00000000E+00  0.00000000E+00  1.70321167E+00
  0.00000000E+00 -5.08512514E-01  3.66023163E+00  0.00000000E+00  2.46587947E+00
  1.01188078E+00  0.00000000E+00  2.46587947E+00  1.01188078E+00  0.00000000E+00
  3.90925948E+00  2.42791972E+00  0.00000000E+00 -2.37415780E+00 -6.25973844E-01
  0.00000000E+00 -2.37415780E+00 -6.25973844E-01  0.00000000E+00 -2.37415780E+00
 -6.25973844E-01  0.00000000E+00  3.16637982E+00 -1.67673582E+00  0.00000000E+00
  3.16637982E+00 -1.67673582E+00  0.00000000E+00
Num ILSW                                   I              100
ILSW                                       I   N=         100
           0           0           0           0           2           0
           0           0           0           0           0          -1
           5           0           0           0           0           0
           0           0           0           0           0           0
           1           0           0           0           0           0
           0           0      100000           0          -1           0
           0           0           0           0           0           0
           0           0           0           1           0           0
           0 -2000000000           1           0           0           0
           0           0           4          52           0           0
           0           0           0           0           0           0
           0           0           0           6           0           1
           0           0           0           0           0           0
           0           0           0           0           0           0
           0           0           0           0           0           0
           0           0           0           0           0           0
           0           0           0           0
Num RLSW                                   I               52
RLSW                                       R   N=          52
  1.00000000E+00  1.00000000E+00  1.00000000E+00  1.00000000E+00  1.00000000E+00
  0.00000000E+00  0.00000000E+00  1.00000000E+00  0.00000000E+00  0.00000000E+00
  0.00000000E+00  0.00000000E+00  1.00000000E+00  0.00000000E+00  0.00000000E+00
  0.00000000E+00  0.00000000E+00  1.00000000E+00  0.00000000E+00  0.00000000E+00
  0.00000000E+00  0.00000000E+00  1.00000000E+00  0.00000000E+00  0.00000000E+00
  0.00000000E+00  0.00000000E+00  1.00000000E+00  0.00000000E+00  0.00000000E+00
  0.00000000E+00  0.00000000E+00  1.00000000E+00  0.00000000E+00  0.00000000E+00
  0.00000000E+00  0.00000000E+00  0.00000000E+00  1.00000000E+00  1.00000000E+00
  0.00000000E+00  1.00000000E+00  0.00000000E+00  0.00000000E+00  0.00000000E+00
  0.00000000E+00  0.00000000E+00  0.00000000E+00  0.00000000E+00  0.00000000E+00
  0.00000000E+00  0.00000000E+00
MxBond                                     I                3
NBond                                      I   N=           6
           3           1           3           1           1           1
IBond                                      I   N=          18
           2           3           5           1           0           0
           1           4           6           3           0           0
           1           0           0           3           0           0
RBond                                      R   N=          18
  1.00000000E+00  2.00000000E+00  1.00000000E+00  1.00000000E+00  0.00000000E+00
  0.00000000E+00  2.00000000E+00  1.00000000E+00  1.00000000E+00  1.00000000E+00
  0.00000000E+00  0.00000000E+00  1.00000000E+00  0.00000000E+00  0.00000000E+00
  1.00000000E+00  0.00000000E+00  0.00000000E+00
Virial Ratio                               R      2.015641936242285E+00
SCF Energy                                 R     -5.840962595551130E+02
Total Energy                               R     -5.840962595551130E+02
RMS Density                                R      8.414916553270095E-09
Job Status                                 I                1
Nuclear derivative order                   I                0
External E-field                           R   N=          35
  0.00000000E+00  0.00000000E+00  0.00000000E+00  0.00000000E+00  0.00000000E+00
  0.00000000E+00  0.00000000E+00  0.00000000E+00  0.00000000E+00  0.00000000E+00
  0.00000000E+00  0.00000000E+00  0.00000000E+00  0.00000000E+00  0.00000000E+00
  0.00000000E+00  0.00000000E+00  0.00000000E+00  0.00000000E+00  0.00000000E+00
  0.00000000E+00  0.00000000E+00  0.00000000E+00  0.00000000E+00  0.00000000E+00
  0.00000000E+00  0.00000000E+00  0.00000000E+00  0.00000000E+00  0.00000000E+00
  0.00000000E+00  0.00000000E+00  0.00000000E+00  0.00000000E+00  0.00000000E+00
IOpCl                                      I                0
IROHF                                      I                0
Alpha Orbital Energies                     R   N=          26
 -1.03742088E+02 -1.53172242E+01 -1.11552612E+01 -1.10754522E+01 -1.04207253E+01
 -7.86502622E+00 -7.85939658E+00 -7.85899318E+00 -1.12503903E+00 -1.02807998E+00
 -9.03831457E-01 -7.13817999E-01 -6.50249258E-01 -5.25596320E-01 -4.78033100E-01
 -4.32111006E-01 -4.11035657E-01 -3.54220814E-01 -3.11271085E-01  1.45129083E-01
  3.35157559E-01  3.47640917E-01  5.93707177E-01  6.47703786E-01  8.43405907E-01
  8.96481399E-01
Alpha MO coefficients                      R   N=         676
 -5.22451683E-05  3.69612261E-04 -2.47838495E-04 -2.51081172E-04  0.00000000E+00
  7.39237586E-06 -9.24744160E-07 -8.33958791E-06  4.73830907E-06  1.80150208E-05
  0.00000000E+00  2.85183415E-06  9.94506591E-01  1.57345818E-02  8.07665827E-05
  8.23808737E-05  0.00000000E+00 -1.80114776E-03 -1.69430753E-04 -1.66131130E-04
  0.00000000E+00 -3.02084627E-06  1.57996633E-05 -2.00351649E-05  1.71500669E-06
  0.00000000E+00  3.48754772E-09  2.06829544E-04 -4.14807842E-05 -3.11956361E-04
  0.00000000E+00 -1.41196053E-05  5.28104827E-04 -5.34199255E-03 -1.11115913E-03
  4.62083382E-03  0.00000000E+00  9.88064824E-06 -6.71553898E-06  2.24563698E-05
  4.56268538E-05 -1.05240674E-05  0.00000000E+00 -1.87234854E-04 -2.44400821E-04
  3.96764691E-05  0.00000000E+00  9.94407476E-01  2.42275012E-02 -1.10058334E-03
  4.22950304E-03  0.00000000E+00  9.92480885E-01  3.40824298E-02  1.45695348E-03
  3.08105894E-05  0.00000000E+00 -6.81651711E-03  4.14550548E-03 -7.17790509E-03
  4.19251952E-03 -1.16322324E-03  0.00000000E+00  8.40823591E-05  1.47928191E-04
 -4.97844410E-04  3.18172095E-04  3.02602928E-04  0.00000000E+00 -4.33525462E-03
 -3.06322780E-03 -2.92920368E-03  0.00000000E+00  1.11575442E-05  1.48088287E-04
  5.26332672E-05  9.62793726E-05  0.00000000E+00 -3.48481388E-03 -7.84733261E-03
 -4.56381889E-03  1.25987956E-03  0.00000000E+00  1.30359245E-04  9.92321260E-01
  3.51184308E-02 -1.79020515E-03  9.99026415E-04  0.00000000E+00 -6.97731736E-03
  1.79797007E-05 -3.30635109E-05  2.11443998E-05 -1.19726123E-05  0.00000000E+00
  3.96730917E-05 -5.68581477E-05  1.22172353E-04  0.00000000E+00  4.93448835E-04
 -5.08728378E-03  9.28400279E-04 -3.13325336E-03  0.00000000E+00  1.74529899E-03
 -7.67216864E-03  4.76056359E-03  4.77340987E-03  0.00000000E+00 -1.47021725E-04
  1.18240204E-04  1.42862829E-04 -2.24231510E-06 -1.59425198E-04  0.00000000E+00
 -1.00915665E-04 -3.77075371E-01  1.05361720E+00  7.02735906E-03  7.56976105E-03
  0.00000000E+00  4.42417302E-02  3.98852934E-03  3.97413879E-03  0.00000000E+00
  8.35743853E-05 -3.11747792E-04  4.43567419E-04 -1.06277474E-06  0.00000000E+00
  1.34696095E-03 -1.08714023E-02  6.42780922E-03  6.41516580E-03  0.00000000E+00
  9.29447156E-06  4.33756648E-05  2.55200673E-04 -1.30810691E-04 -3.15110818E-04
  0.00000000E+00 -7.84851228E-05  4.59883558E-03 -1.30762541E-02  7.00871594E-01
  6.97116741E-01  0.00000000E+00  5.80655756E-03  3.31380829E-02  3.29010477E-02
  0.00000000E+00  6.04010659E-05 -2.77685915E-04  3.19721093E-04 -6.39509996E-05
  0.00000000E+00  0.00000000E+00  0.00000000E+00  0.00000000E+00  0.00000000E+00
 -3.11271209E-03  0.00000000E+00  0.00000000E+00  0.00000000E+00  0.00000000E+00
  0.00000000E+00  2.52504156E-04  0.00000000E+00  0.00000000E+00  0.00000000E+00
  0.00000000E+00  0.00000000E+00  9.90162319E-01  0.00000000E+00  0.00000000E+00
  0.00000000E+00  3.92630119E-02  0.00000000E+00  0.00000000E+00  0.00000000E+00
  0.00000000E+00 -1.15263703E-04 -2.49197281E-05  2.30426469E-04  2.60489664E-03
 -2.45310609E-03  0.00000000E+00  5.27050115E-04 -5.61363712E-05 -7.86237333E-04
  2.73909364E-04 -6.38965082E-04  0.00000000E+00  2.31325801E-04  1.56412873E-04
 -4.42655977E-04 -6.98273227E-01  7.02047038E-01  0.00000000E+00 -4.76156555E-06
 -2.76690339E-02  2.77820459E-02  0.00000000E+00 -1.03526208E-04  3.42095875E-04
 -6.67983258E-04 -1.20869309E-04  0.00000000E+00 -1.45139274E-01  3.87280463E-01
  2.71225479E-02 -5.83835398E-02  0.00000000E+00  7.69302473E-02 -1.22402859E-01
  3.13819535E-01 -6.93031596E-02 -2.26168883E-02  0.00000000E+00  5.73432567E-02
  4.85960084E-02 -1.61990812E-01 -2.85619488E-02 -2.61809705E-02  0.00000000E+00
  5.24031357E-01  8.25627296E-02  7.68716140E-02  0.00000000E+00 -7.79518113E-02
  2.66312528E-01 -2.94596712E-02  7.00762984E-02  0.00000000E+00 -1.07640111E-02
  2.70874879E-02 -1.41832686E-01 -2.00025668E-02  0.00000000E+00  1.48505607E-02
  1.21786361E-01 -3.30590436E-01 -2.71258195E-02  7.93927237E-02  0.00000000E+00
 -7.91685764E-02  5.60141157E-02 -1.85265814E-01 -1.19605137E-02 -2.02632176E-02
  0.00000000E+00  6.31827848E-01  3.64208934E-02  6.32297019E-02  0.00000000E+00
  1.40457426E-01 -4.97951797E-01  2.25940641E-02 -1.07008734E-01  0.00000000E+00
  1.42439117E-01 -4.25026987E-01 -1.28803720E-01 -9.66698615E-02  0.00000000E+00
 -1.69645402E-01  5.70023055E-02 -1.47311526E-01  1.52958255E-01 -2.04265441E-01
  0.00000000E+00 -6.70134823E-02  3.60038118E-02 -1.17488975E-01  8.98956685E-03
  1.07462115E-02  0.00000000E+00  4.33966836E-01 -2.46279039E-02 -3.13406718E-02
  0.00000000E+00 -1.42816520E-01  5.37185353E-01 -4.39729818E-03  4.44632215E-02
  0.00000000E+00 -9.08058632E-02  3.15290706E-01 -2.45551427E-01  1.96306444E-01
  0.00000000E+00  3.03262706E-01  1.20946197E-01 -3.77364255E-01 -8.88169324E-02
 -1.76266774E-01  0.00000000E+00 -2.80429606E-01 -2.12864007E-02  6.77692326E-02
 -2.35696248E-02 -4.89230324E-02  0.00000000E+00 -2.83392764E-01  7.49118802E-02
  1.58219569E-01  0.00000000E+00 -9.48044277E-02  3.93506071E-01 -6.14115363E-03
 -7.83416969E-02  0.00000000E+00  3.07378412E-02 -1.00183595E-01 -2.15540746E-01
  3.77830881E-01  0.00000000E+00  2.68694616E-01 -8.04501884E-03  4.49324687E-02
  3.88160456E-01  1.59416658E-01  0.00000000E+00  2.98826630E-01  1.14708091E-02
 -3.61763719E-02  6.66631606E-02 -5.88288512E-03  0.00000000E+00  1.58308584E-01
 -2.26363948E-01  2.55799265E-02  0.00000000E+00 -1.90357251E-02  8.14669870E-02
  1.60964614E-01  1.91539949E-02  0.00000000E+00 -7.90429692E-03  6.64907308E-02
 -3.62824715E-01 -2.74989576E-01  0.00000000E+00 -1.38930921E-01 -1.54339037E-02
  7.48572405E-02  2.59556756E-01 -4.97002299E-02  0.00000000E+00  1.74855832E-01
 -1.96219482E-02  6.00984172E-02 -1.12550081E-01 -1.40654360E-01  0.00000000E+00
 -2.96032478E-01  3.85756590E-01  4.88501368E-01  0.00000000E+00  4.25711687E-02
 -1.99124709E-01  6.76326384E-02  1.58310945E-01  0.00000000E+00  0.00000000E+00
  0.00000000E+00  0.00000000E+00  0.00000000E+00  4.17377553E-01  0.00000000E+00
  0.00000000E+00  0.00000000E+00  0.00000000E+00  0.00000000E+00  2.96702924E-01
  0.00000000E+00  0.00000000E+00  0.00000000E+00  0.00000000E+00  0.00000000E+00
 -2.13807131E-01  0.00000000E+00  0.00000000E+00  0.00000000E+00  7.83951135E-01
  0.00000000E+00  0.00000000E+00  0.00000000E+00  0.00000000E+00  6.94754655E-02
  1.25752381E-02 -5.25771920E-02 -1.37266642E-02  1.01749640E-01  0.00000000E+00
  8.25027335E-02 -5.11635849E-02  2.15648025E-01 -1.07243109E-02 -4.02435986E-01
  0.00000000E+00 -2.00353727E-01  1.89119198E-03 -5.53081322E-03  1.31840639E-01
 -5.75064518E-02  0.00000000E+00  3.22113419E-02 -4.83686610E-01  2.18200319E-01
  0.00000000E+00  8.23737011E-02 -4.13398902E-01 -1.61347966E-01  5.08992388E-01
  0.00000000E+00 -8.49995301E-03  2.75256334E-02  1.14269663E-01 -1.30338596E-01
  0.00000000E+00 -2.08223284E-01  4.01287696E-03 -3.15919369E-02 -1.55793827E-01
  2.16023485E-01  0.00000000E+00  1.86286352E-02 -1.07637403E-03  3.44750365E-03
  1.52105923E-01 -1.79341114E-01  0.00000000E+00 -1.43205612E-02 -5.69277057E-01
  6.68174945E-01  0.00000000E+00 -4.73513140E-02  2.33939786E-01  9.95742526E-02
 -2.83397396E-01  0.00000000E+00  0.00000000E+00  0.00000000E+00  0.00000000E+00
  0.00000000E+00 -4.30945230E-01  0.00000000E+00  0.00000000E+00  0.00000000E+00
  0.00000000E+00  0.00000000E+00 -5.75422158E-01  0.00000000E+00  0.00000000E+00
  0.00000000E+00  0.00000000E+00  0.00000000E+00 -1.69540712E-01  0.00000000E+00
  0.00000000E+00  0.00000000E+00  6.39712491E-01  0.00000000E+00  0.00000000E+00
  0.00000000E+00  0.00000000E+00 -1.64916264E-01 -3.19816038E-02  1.38692804E-01
  1.39154380E-01 -5.62146236E-02  0.00000000E+00 -4.74481827E-02  3.51972643E-03
 -2.28306449E-02 -5.08230076E-02 -3.81433428E-02  0.00000000E+00 -2.05108874E-01
  9.64689731E-04 -3.30513755E-03 -1.82676118E-03  2.17750463E-02  0.00000000E+00
  9.53995695E-03  3.91271318E-03 -8.03801310E-02  0.00000000E+00  1.18151982E-03
 -5.77260992E-03  9.41648553E-01  2.47865233E-01  0.00000000E+00  0.00000000E+00
  0.00000000E+00  0.00000000E+00  0.00000000E+00 -6.70101177E-01  0.00000000E+00
  0.00000000E+00  0.00000000E+00  0.00000000E+00  0.00000000E+00  3.69989040E-01
  0.00000000E+00  0.00000000E+00  0.00000000E+00  0.00000000E+00  0.00000000E+00
 -4.71694911E-02  0.00000000E+00  0.00000000E+00  0.00000000E+00  1.89882637E-01
  0.00000000E+00  0.00000000E+00  0.00000000E+00  0.00000000E+00  6.77469544E-01
 -1.43903779E-01  7.79166290E-01 -5.73511505E-01 -5.06790539E-01  0.00000000E+00
 -1.82608953E-01  1.83410466E-02 -9.50589088E-02  8.57965698E-02 -1.56420503E-01
  0.00000000E+00  2.15121454E-01 -2.34460142E-02  6.57349582E-02  1.52411308E-01
  1.51230380E-01  0.00000000E+00 -4.41824921E-01 -6.44720468E-01 -6.39337926E-01
  0.00000000E+00  1.31047479E-02 -7.76921937E-02  3.16241686E-02 -1.66104956E-01
  0.00000000E+00  0.00000000E+00  0.00000000E+00  0.00000000E+00  0.00000000E+00
  5.14277285E-01  0.00000000E+00  0.00000000E+00  0.00000000E+00  0.00000000E+00
  0.00000000E+00 -7.25864200E-01  0.00000000E+00  0.00000000E+00  0.00000000E+00
  0.00000000E+00  0.00000000E+00  2.73148971E-02  0.00000000E+00  0.00000000E+00
  0.00000000E+00 -1.12531094E-01  0.00000000E+00  0.00000000E+00  0.00000000E+00
  0.00000000E+00  7.30907069E-01  1.23350394E-01 -7.89177022E-01  9.41300725E-02
 -5.51533201E-01  0.00000000E+00  9.84350746E-01 -8.38577679E-02  4.52340279E-01
 -8.75410766E-02 -5.46146036E-01  0.00000000E+00  1.53491672E-01  1.10691056E-03
 -3.53001859E-03  3.09030912E-03 -1.84426123E-02  0.00000000E+00  1.60076796E-02
 -1.38580823E-02  7.82888919E-02  0.00000000E+00  6.27812587E-02 -3.87559011E-01
  2.09816580E-01 -5.75213001E-01  0.00000000E+00 -8.28934551E-03  8.68215017E-02
 -2.93413956E-01  3.90492521E-01  0.00000000E+00 -4.28940330E-01 -1.91155076E-01
  1.19702630E+00  4.48503716E-01  1.00990132E-03  0.00000000E+00 -9.52122029E-01
  7.16140854E-04 -1.84635253E-03 -1.35376198E-02  8.09320977E-03  0.00000000E+00
  1.56490620E-02  5.97051097E-02 -3.37155147E-02  0.00000000E+00  5.63967048E-02
 -3.46892016E-01  4.69140376E-02 -5.56850470E-01  0.00000000E+00  8.52952190E-02
 -6.20659935E-01 -4.23309752E-01 -6.31650050E-01  0.00000000E+00  6.32479602E-01
 -6.07193913E-02  4.68503092E-01 -7.74185819E-02  1.02152788E+00  0.00000000E+00
 -7.04487378E-01 -5.36147265E-03  1.32130122E-02  2.69637600E-02  2.73782011E-02
  0.00000000E+00 -1.24544876E-01 -1.26956721E-01 -1.27648102E-01  0.00000000E+00
 -4.98135445E-02  3.36279921E-01 -1.20946002E-01  4.18113063E-01  0.00000000E+00
 -9.86195267E-02  7.41702274E-01  9.38440603E-01 -5.22057655E-01  0.00000000E+00
  2.79145851E-01  8.93227039E-02 -6.60543349E-01  1.18370662E+00  2.98391514E-02
  0.00000000E+00 -4.10690494E-01 -6.98675945E-04  1.73972914E-03  1.96112484E-02
 -1.23621055E-02  0.00000000E+00 -1.63131169E-02 -8.97619272E-02  5.34364441E-02
  0.00000000E+00 -3.84741582E-03  2.73322250E-02 -1.76127542E-01 -7.70434044E-03
  0.00000000E+00
Orthonormal basis                          R   N=         676
  1.11382863E-01  3.52477518E-01  1.42179743E-01  5.74800575E-03  0.00000000E+00
  2.14090149E-01  1.16444446E-01  3.64995434E-01 -1.09158828E-01  6.98354149E-02
  0.00000000E+00  2.22165637E-01  7.64191940E-03  2.13542639E-02  1.93961030E-02
  1.37662262E-02  0.00000000E+00  8.00804313E-02  8.78400089E-02  6.21314709E-02
  0.00000000E+00  2.56361849E-02  1.00602644E-01 -4.62516293E-02  1.03567476E-01
  0.00000000E+00  1.15127464E-01  2.55431020E-01 -2.09209809E-01  1.29166720E-01
  0.00000000E+00  2.85224774E-01 -1.13113104E-01 -2.51465900E-01 -2.30378767E-01
  1.20398104E-01  0.00000000E+00 -2.20732197E-01  2.74934646E-02  5.71990932E-02
  2.24914855E-02  4.77697179E-02  0.00000000E+00  1.29233233E-01  6.84416196E-02
  1.50301658E-01  0.00000000E+00 -7.69573231E-02 -2.07238687E-01  1.56216593E-06
 -1.91975472E-01  0.00000000E+00 -2.93521530E-02 -7.59864064E-02  9.84413188E-02
  3.72428939E-01  0.00000000E+00  1.57432841E-01  2.50833712E-03 -5.89371262E-03
  1.81837011E-01  3.69622488E-01  0.00000000E+00  2.40660290E-01 -4.88344801E-02
 -9.56665656E-02 -6.67494307E-02 -3.26113412E-02  0.00000000E+00 -1.89375939E-01
 -1.93319424E-01 -8.92196093E-02  0.00000000E+00 -6.97016574E-02 -1.72471925E-01
  1.25742438E-01 -1.01930849E-01  0.00000000E+00 -3.19073331E-02 -1.15747753E-02
 -4.30325960E-01  1.16029762E-01  0.00000000E+00  1.55667593E-01 -2.57232577E-02
 -5.93591104E-03  4.38923526E-01 -1.09993887E-01  0.00000000E+00  1.69661854E-01
  1.34770220E-01  1.86886752E-01 -8.19972287E-03  1.01978340E-01  0.00000000E+00
  1.79875510E-01 -2.30858300E-02  2.02684003E-01  0.00000000E+00  9.35897646E-02
  1.64954177E-01  1.28399973E-01  1.31273305E-01  0.00000000E+00 -3.82435668E-02
 -4.66836002E-02  8.15413093E-02 -2.14167003E-01  0.00000000E+00 -2.14698328E-01
  3.06651866E-02  2.18170509E-02  3.27003967E-04  2.71965619E-01  0.00000000E+00
  1.65129080E-01  3.83366454E-01  4.49281905E-01  2.02313846E-02 -4.59678233E-02
  0.00000000E+00  2.35855335E-01  3.08582431E-02 -8.03872380E-02  0.00000000E+00
 -1.53361936E-01 -2.30116970E-01  3.44420818E-02 -1.06905325E-01  0.00000000E+00
 -5.36587370E-03  6.57391846E-03 -1.47154955E-01 -2.80903437E-01  0.00000000E+00
 -1.89018498E-01  1.28650508E-02  1.11423049E-02  1.34542682E-01  2.06403109E-01
  0.00000000E+00  2.10305105E-01 -2.92723922E-01 -2.82995871E-01  2.34411500E-01
  2.03605416E-01  0.00000000E+00 -1.45233266E-02  3.13766262E-01  2.72934530E-01
  0.00000000E+00 -1.62208034E-01 -2.03585876E-01  7.78232735E-02 -4.74758538E-02
  0.00000000E+00  3.33096287E-03  7.21662705E-03 -8.68168263E-02  9.36267326E-02
  0.00000000E+00  1.15787765E-01 -8.29127302E-02 -5.25040399E-02  1.06957428E-01
  5.51686295E-04  0.00000000E+00  2.98445856E-02  3.74080795E-04  2.13844852E-04
  4.62023672E-01 -4.42674969E-01  0.00000000E+00 -9.50184249E-04  4.24500311E-01
 -4.07038821E-01  0.00000000E+00  8.50061727E-02  7.80881162E-02  4.69335685E-02
 -4.57173780E-02  0.00000000E+00 -1.53743137E-02 -2.29972549E-02  1.14635626E-01
 -2.79791088E-02  0.00000000E+00 -8.32808996E-02 -9.11374185E-02 -4.16455276E-02
 -7.56314216E-02  1.96334138E-01  0.00000000E+00  4.89200029E-02  1.06433510E-01
  4.85172449E-02  9.99621574E-02  2.24690564E-01  0.00000000E+00 -1.21789602E-01
  6.26522009E-02  1.39060509E-01  0.00000000E+00  5.45907953E-01  3.58312238E-01
  1.07898150E-01 -5.00503715E-01  0.00000000E+00  1.47197851E-01  8.56851503E-02
 -1.44819947E-01 -2.09537479E-01  0.00000000E+00 -8.78969284E-02 -6.35975457E-02
 -1.56385645E-02  4.04640938E-02  1.19801269E-01  0.00000000E+00  1.11873518E-01
 -3.66429194E-01 -1.33104367E-01 -3.75845635E-01 -3.45732395E-01  0.00000000E+00
  4.61305187E-01 -1.85505814E-01 -1.70574937E-01  0.00000000E+00  1.48218029E-01
  8.28559702E-02  8.25899204E-02 -2.15771509E-01  0.00000000E+00  6.76357803E-01
  5.24132071E-02  1.00604265E-01 -7.00425149E-02  0.00000000E+00 -1.35363057E-01
 -2.79344768E-01 -3.03681718E-02  2.05962341E-02 -3.87485558E-02  0.00000000E+00
 -4.75790502E-02  1.25854942E-01  5.92900850E-03 -3.41079035E-02 -1.07132186E-02
  0.00000000E+00 -1.96622025E-01 -5.09680361E-04  2.27562397E-03  0.00000000E+00
 -1.66781008E-02 -4.77569971E-03  5.68225580E-01  2.21744875E-01  0.00000000E+00
 -1.07036879E-01 -1.13403474E-03 -4.19901716E-02  1.09189388E-02  0.00000000E+00
  2.25186514E-02  7.93974675E-01 -1.46458668E-02 -7.78792399E-02 -2.30406536E-02
  0.00000000E+00 -2.29900951E-01 -3.26204821E-02  1.39150774E-03  5.44593471E-02
 -5.47691370E-02  0.00000000E+00  4.64942613E-02 -9.68880814E-03  6.71894642E-03
  0.00000000E+00  8.98552838E-03  3.66077590E-03  5.66453422E-01 -7.03681244E-02
  0.00000000E+00  6.25167596E-01 -7.86727991E-02 -1.85596725E-01  2.93280162E-02
  0.00000000E+00 -9.51906203E-02  4.58503830E-01 -5.10650533E-02  1.81875485E-01
 -1.74806781E-02  0.00000000E+00  3.92985178E-02  1.25231083E-01 -1.80193490E-02
 -2.36648336E-02 -8.00676473E-02  0.00000000E+00 -2.00383848E-01  6.69526837E-03
  1.93801620E-02  0.00000000E+00 -2.41047875E-02  3.18050806E-03 -5.08645863E-01
 -2.48110520E-01  0.00000000E+00  2.62741988E-01 -1.15297190E-01  1.48020679E-01
  1.64962918E-01  0.00000000E+00 -3.91262717E-02  5.56418876E-02 -4.02248603E-02
  1.98997695E-02  1.12760522E-02  0.00000000E+00 -5.80636765E-02 -3.03389615E-01
  1.18912693E-01  5.06307196E-01  4.83659352E-01  0.00000000E+00  4.49171093E-01
 -3.07656481E-01 -2.93764976E-01  0.00000000E+00  1.48585870E-01 -8.73390746E-02
 -8.40273648E-02  1.34628343E-01  0.00000000E+00 -2.94662259E-02  9.33344187E-03
 -6.94107531E-02 -4.87868325E-02  0.00000000E+00 -4.72053062E-02  1.06648917E-01
 -8.50717340E-02 -4.94284005E-02  1.86819271E-01  0.00000000E+00 -1.88154999E-02
  4.77777888E-02 -2.22118675E-02 -6.19154948E-02 -1.79202961E-01  0.00000000E+00
 -7.27151793E-02  4.10540331E-02  1.26805233E-01  0.00000000E+00  7.60731375E-01
 -5.10407362E-01 -1.19743239E-01  4.73516106E-01  0.00000000E+00  1.07680409E-02
 -6.40953996E-03 -4.27767367E-02  2.58026021E-02  0.00000000E+00  9.71434836E-02
  7.68790120E-02 -6.07991242E-02  7.72598189E-02  3.36226151E-03  0.00000000E+00
 -7.14802419E-03 -3.43612948E-04  1.25551595E-04 -5.57647413E-01  5.50728404E-01
  0.00000000E+00 -1.62735540E-03  5.79310875E-01 -5.73187832E-01  0.00000000E+00
  7.28431251E-02 -7.15681900E-02  2.03093781E-02  3.46185303E-02  0.00000000E+00
  5.31231454E-02 -8.78100144E-02  1.30776365E-01  1.32754864E-01  0.00000000E+00
 -2.88637597E-02  4.74677898E-03 -1.37060142E-02  2.35299965E-02  1.68544822E-03
  0.00000000E+00 -4.24376971E-02 -7.66426197E-01  8.68181371E-01 -1.38211371E-01
 -1.37582880E-01  0.00000000E+00 -2.72614665E-01  2.41967315E-01  2.40610583E-01
  0.00000000E+00 -2.01576714E-02  3.46237770E-02 -2.33187457E-02  1.60292605E-02
  0.00000000E+00  1.00782135E-01 -2.45891778E-01  4.44806512E-01  6.09923711E-01
  0.00000000E+00 -3.34297901E-01  4.14736648E-02 -1.16590330E-01  1.29400329E-01
  4.13933716E-01  0.00000000E+00 -3.63541574E-01  1.48115561E-01 -2.57431016E-01
 -1.83614245E-01 -1.67727122E-01  0.00000000E+00  6.13747717E-01  5.10926259E-01
  4.67268601E-01  0.00000000E+00 -1.20709091E-01  3.79545414E-01 -1.21619317E-01
  2.93898285E-01  0.00000000E+00 -8.51719341E-02  2.32270306E-01 -6.88136317E-01
 -1.86297953E-02  0.00000000E+00 -3.73796934E-01  7.47006587E-02 -1.80945777E-01
 -4.48993902E-01  8.15337086E-01  0.00000000E+00 -5.00532000E-02 -5.57301407E-02
  1.06345428E-01  7.04671544E-02  1.01816637E-01  0.00000000E+00 -3.31886333E-01
 -2.23038007E-01 -3.18814606E-01  0.00000000E+00 -1.90643776E-01  6.96197923E-01
 -1.13504527E-01  5.70318389E-01  0.00000000E+00  2.62800595E-02 -1.34742534E-01
 -3.08117501E-01  7.48037176E-01  0.00000000E+00 -5.77425981E-01  5.35028645E-02
 -2.05637249E-01 -8.86155607E-01 -6.12778730E-01  0.00000000E+00  9.81740208E-01
  1.76912709E-02 -3.60403637E-02 -4.74155237E-02 -1.99639111E-02  0.00000000E+00
  1.54562264E-01  1.69450106E-01  7.39030303E-02  0.00000000E+00  2.81362522E-02
 -1.31630862E-01  1.47822285E-01 -5.97763079E-02  0.00000000E+00  1.76477716E-01
 -7.70109842E-01  3.14910839E-01 -5.91295395E-01  0.00000000E+00  9.36522881E-01
  1.80019015E-01 -7.75971589E-01 -3.78020325E-01  1.22691600E-01  0.00000000E+00
  5.86512426E-01  1.49201817E-02 -3.24705300E-02 -1.56278080E-02 -4.56813527E-02
  0.00000000E+00  1.11065119E-01  5.30961715E-02  1.56908544E-01  0.00000000E+00
 -8.66717668E-02  3.64822517E-01 -2.34378723E-02  3.34881830E-01  0.00000000E+00
  2.39210634E-01 -1.29650516E+00 -7.11323144E-01  5.70112864E-02  0.00000000E+00
  3.80905846E-01 -2.48904285E-01  1.34984073E+00 -6.18174490E-01  2.88339419E-01
  0.00000000E+00 -3.99640068E-01  8.98879601E-03 -2.21759735E-02 -3.19646168E-02
 -1.35771899E-02  0.00000000E+00  9.88902324E-02  1.29401050E-01  5.40448498E-02
  0.00000000E+00  3.36023441E-02 -1.60627607E-01  1.00988032E-01 -1.38938338E-01
  0.00000000E+00  0.00000000E+00  0.00000000E+00  0.00000000E+00  0.00000000E+00
  4.83663696E-01  0.00000000E+00  0.00000000E+00  0.00000000E+00  0.00000000E+00
  0.00000000E+00  4.66090949E-01  0.00000000E+00  0.00000000E+00  0.00000000E+00
  0.00000000E+00  0.00000000E+00  2.83770074E-01  0.00000000E+00  0.00000000E+00
  0.00000000E+00  3.97471715E-01  0.00000000E+00  0.00000000E+00  0.00000000E+00
  0.00000000E+00  2.45284384E-01  0.00000000E+00  0.00000000E+00  0.00000000E+00
  0.00000000E+00 -1.77112133E-01  0.00000000E+00  0.00000000E+00  0.00000000E+00
  0.00000000E+00  0.00000000E+00 -4.02814748E-01  0.00000000E+00  0.00000000E+00
  0.00000000E+00  0.00000000E+00  0.00000000E+00  5.50341637E-01  0.00000000E+00
  0.00000000E+00  0.00000000E+00  4.86946428E-01  0.00000000E+00  0.00000000E+00
  0.00000000E+00  0.00000000E+00 -3.11095637E-01  0.00000000E+00  0.00000000E+00
  0.00000000E+00  0.00000000E+00 -5.40504040E-01  0.00000000E+00  0.00000000E+00
  0.00000000E+00  0.00000000E+00  0.00000000E+00 -2.21328477E-02  0.00000000E+00
  0.00000000E+00  0.00000000E+00  0.00000000E+00  0.00000000E+00  2.71753847E-01
  0.00000000E+00  0.00000000E+00  0.00000000E+00 -7.42825021E-03  0.00000000E+00
  0.00000000E+00  0.00000000E+00  0.00000000E+00  8.05493642E-01  0.00000000E+00
  0.00000000E+00  0.00000000E+00  0.00000000E+00 -2.29074366E-01  0.00000000E+00
  0.00000000E+00  0.00000000E+00  0.00000000E+00  0.00000000E+00  5.46270096E-01
  0.00000000E+00  0.00000000E+00  0.00000000E+00  0.00000000E+00  0.00000000E+00
  6.53817037E-01  0.00000000E+00  0.00000000E+00  0.00000000E+00 -6.03459500E-01
  0.00000000E+00  0.00000000E+00  0.00000000E+00  0.00000000E+00 -3.64850863E-01
  0.00000000E+00  0.00000000E+00  0.00000000E+00  0.00000000E+00  6.80826890E-01
  0.00000000E+00  0.00000000E+00  0.00000000E+00  0.00000000E+00  0.00000000E+00
 -6.36013128E-01  0.00000000E+00  0.00000000E+00  0.00000000E+00  0.00000000E+00
  0.00000000E+00  4.16079057E-01  0.00000000E+00  0.00000000E+00  0.00000000E+00
 -5.61028132E-01  0.00000000E+00  0.00000000E+00  0.00000000E+00  0.00000000E+00
  2.93825238E-01
Total SCF Density                          R   N=         351
  2.07402339E+00 -2.41564372E-01  9.38784035E-01 -1.26637719E-02  9.20522987E-03
  6.17082660E-01 -9.78104411E-03  1.36834201E-02 -8.04486403E-02  6.01276787E-01
  0.00000000E+00  0.00000000E+00  0.00000000E+00  0.00000000E+00  7.19855004E-01
 -1.12223015E-01  2.89754124E-01 -1.83361915E-01  4.98137296E-01  0.00000000E+00
  5.41693960E-01  2.66649408E-02 -6.95566030E-02 -1.06342747E-01  3.89425422E-02
  0.00000000E+00  2.85206610E-02  2.07071944E+00 -6.29016995E-02  8.15789411E-02
  2.40549071E-01 -9.55253221E-02  0.00000000E+00 -8.60754884E-02 -2.21305405E-01
  8.57674326E-01  1.14128716E-01 -3.05666604E-01 -3.96952352E-01  1.39438025E-01
  0.00000000E+00  8.71124382E-02 -1.19750724E-02  7.75111623E-02  5.63706953E-01
 -2.44080541E-02  5.42637810E-02  1.32561608E-01 -1.63703069E-02  0.00000000E+00
 -9.19794483E-02  2.54230003E-03 -5.20264823E-02  1.07835588E-02  6.35185757E-01
  0.00000000E+00  0.00000000E+00  0.00000000E+00  0.00000000E+00  7.43623577E-01
  0.00000000E+00  0.00000000E+00  0.00000000E+00  0.00000000E+00  0.00000000E+00
  8.38286697E-01  4.04824931E-02 -1.51046239E-01 -1.22414418E-01  6.38387848E-03
  0.00000000E+00 -5.02346067E-02 -1.13639991E-01  2.94044964E-01  3.67782709E-01
  3.73908748E-01  0.00000000E+00  5.90332905E-01 -1.28440766E-03 -1.82010588E-03
 -6.83277045E-03 -7.25782969E-03  0.00000000E+00 -3.57675494E-03  8.74538502E-04
 -2.26706529E-03  3.94773868E-03  3.19104330E-03  0.00000000E+00  2.69817769E-03
  2.27804239E+00  4.72571788E-03  6.28785585E-03  2.26073863E-02  2.34916157E-02
  0.00000000E+00  1.20620738E-02 -2.99519426E-03  7.88371659E-03 -1.29876978E-02
 -9.62321019E-03  0.00000000E+00 -8.61964520E-03 -8.14478066E-01  2.38892589E+00
  2.46930234E-02 -9.52431240E-02  1.00111611E-01  1.04966494E-01  0.00000000E+00
  2.85635676E-03 -1.02934896E-02  4.30512028E-02 -4.57295728E-02 -3.33910499E-03
  0.00000000E+00 -3.57339381E-02  4.73780050E-03 -1.32714388E-02  2.07616833E+00
  2.45240596E-02 -9.16018456E-02  1.09532322E-01  9.36652524E-02  0.00000000E+00
  6.18492434E-02 -1.38369474E-04 -6.07985076E-03 -5.77124522E-03 -1.12702814E-02
  0.00000000E+00 -1.88568684E-02  4.72407916E-03 -1.32900370E-02 -3.76000287E-02
  2.07653363E+00  0.00000000E+00  0.00000000E+00  0.00000000E+00  0.00000000E+00
 -3.85152520E-02  0.00000000E+00  0.00000000E+00  0.00000000E+00  0.00000000E+00
  0.00000000E+00  6.87406037E-02  0.00000000E+00  0.00000000E+00  0.00000000E+00
  0.00000000E+00  0.00000000E+00  2.10975792E+00  1.57981169E-02 -1.81192588E-01
  2.21339582E-02  1.05199900E-02  0.00000000E+00 -4.19830178E-02  9.83419807E-03
 -1.84714151E-02  4.81735305E-02  4.62872445E-02  0.00000000E+00  3.45598529E-02
  1.43553045E-01 -4.98802860E-01  7.67231261E-02  7.60279004E-02  0.00000000E+00
  2.11699517E+00 -7.40982012E-02  2.50355504E-01 -3.34063483E-01 -3.10010700E-01
  0.00000000E+00 -4.35245269E-03  4.05283457E-02 -1.56849717E-01  1.77567431E-01
  1.82548726E-02  0.00000000E+00  1.35587785E-01 -1.68358950E-02  4.74009851E-02
 -3.42163745E-01  1.47889325E-01  0.00000000E+00 -2.45359364E-01  1.54868739E+00
 -7.39319409E-02  2.39792680E-01 -3.23963032E-01 -3.13076274E-01  0.00000000E+00
 -2.36244669E-01 -1.52114492E-03  2.72824587E-02  1.69445698E-02  4.23286485E-02
  0.00000000E+00  7.08265977E-02 -1.68069252E-02  4.75529889E-02  1.47992803E-01
 -3.43783213E-01  0.00000000E+00 -2.43391258E-01 -5.63918181E-01  1.55523934E+00
  0.00000000E+00  0.00000000E+00  0.00000000E+00  0.00000000E+00  1.02800691E-01
  0.00000000E+00  0.00000000E+00  0.00000000E+00  0.00000000E+00  0.00000000E+00
 -2.70988468E-01  0.00000000E+00  0.00000000E+00  0.00000000E+00  0.00000000E+00
  0.00000000E+00 -4.74389799E-01  0.00000000E+00  0.00000000E+00  0.00000000E+00
  2.05070608E+00 -2.88667177E-03  7.78674920E-03  3.75193933E-03 -1.55675095E-02
  0.00000000E+00 -5.75437695E-03  6.30161269E-03  4.37397687E-03 -5.68789919E-03
  2.96371349E-02  0.00000000E+00  9.40049746E-03  1.37682279E-04 -6.12010409E-04
 -1.49397571E-03  3.25238984E-04  0.00000000E+00  6.59163989E-04  5.41152399E-03
 -2.09409441E-03  0.00000000E+00  2.11047868E+00  9.46097320E-03 -1.71442842E-02
 -3.31410493E-03  6.60400200E-02  0.00000000E+00  1.66109901E-02  8.85025293E-03
 -1.74797922E-01 -1.90611093E-02  3.09325291E-02  0.00000000E+00 -2.74515592E-02
 -1.03773910E-04  1.08234813E-03  4.80546102E-03 -2.19211325E-03  0.00000000E+00
  3.28458852E-03 -1.68486250E-02  1.15886692E-02  0.00000000E+00 -4.71602680E-01
  2.06970794E+00 -4.91271949E-02  2.38635398E-01  1.66926914E-01 -7.92317355E-02
  0.00000000E+00 -9.58372432E-02  3.18309391E-02 -1.21707257E-01  3.93912865E-02
  1.54521775E-01  0.00000000E+00 -2.01000647E-01  1.27194346E-03 -4.97060332E-03
 -6.71635501E-03  3.57882855E-03  0.00000000E+00  1.30241892E-02  2.55276901E-02
 -1.77661631E-02  0.00000000E+00 -2.29835837E-02  1.20597678E-01  1.90914442E+00
  9.50889960E-03 -2.18122788E-02 -7.16902910E-02  3.37268032E-02  0.00000000E+00
  8.97885955E-02 -1.21122143E-01  4.12032509E-01  1.72855559E-01 -5.71327730E-01
  0.00000000E+00 -1.86380310E-01 -1.39658114E-03  4.30025496E-03  1.71398128E-02
  1.81734146E-02  0.00000000E+00 -2.08164391E-02 -6.44659559E-02 -7.11380385E-02
  0.00000000E+00  9.36063597E-02 -4.85972012E-01  2.65287948E-01  9.01514861E-01
  0.00000000E+00  0.00000000E+00  0.00000000E+00  0.00000000E+00  2.00135472E-01
  0.00000000E+00  0.00000000E+00  0.00000000E+00  0.00000000E+00  0.00000000E+00
  2.31020035E-01  0.00000000E+00  0.00000000E+00  0.00000000E+00  0.00000000E+00
  0.00000000E+00  2.59830824E-02  0.00000000E+00  0.00000000E+00  0.00000000E+00
 -1.02076300E-01  0.00000000E+00  0.00000000E+00  0.00000000E+00  0.00000000E+00
  6.40484556E-02
Mulliken Charges                           R   N=           6
  2.54819671E-02  1.18091880E-01 -4.81743763E-02  7.49876400E-02 -8.66312082E-02
 -8.37559024E-02
ONIOM Charges                              I   N=          16
           0           0           0           0           0           0
           0           0           0           0           0           0
           0           0           0           0
ONIOM Multiplicities                       I   N=          16
           1           0           0           0           0           0
           0           0           0           0           0           0
           0           0           0           0
Atom Layers                                I   N=           6
           1           1           1           1           1           1
Atom Modifiers                             I   N=           6
           0           0           0           0           0           0
Int Atom Modified Types                    I   N=           6
           0           0           0           0           0           0
Force Field                                I                0
Atom Modified Types                        C   N=           6
                                                            
            
Link Atoms                                 I   N=           6
           0           0           0           0           0           0
Atom Modified MM Charges                   R   N=           6
  0.00000000E+00  0.00000000E+00  0.00000000E+00  0.00000000E+00  0.00000000E+00
  0.00000000E+00
Link Distances                             R   N=          24
  0.00000000E+00  0.00000000E+00  0.00000000E+00  0.00000000E+00  0.00000000E+00
  0.00000000E+00  0.00000000E+00  0.00000000E+00  0.00000000E+00  0.00000000E+00
  0.00000000E+00  0.00000000E+00  0.00000000E+00  0.00000000E+00  0.00000000E+00
  0.00000000E+00  0.00000000E+00  0.00000000E+00  0.00000000E+00  0.00000000E+00
  0.00000000E+00  0.00000000E+00  0.00000000E+00  0.00000000E+00
Cartesian Gradient                         R   N=          18
  0.00000000E+00  0.00000000E+00  0.00000000E+00  0.00000000E+00  0.00000000E+00
  0.00000000E+00  0.00000000E+00  0.00000000E+00  0.00000000E+00  0.00000000E+00
  0.00000000E+00  0.00000000E+00  0.00000000E+00  0.00000000E+00  0.00000000E+00
  0.00000000E+00  0.00000000E+00  0.00000000E+00
Nonadiabatic coupling                      R   N=          18
  0.00000000E+00  0.00000000E+00  0.00000000E+00  0.00000000E+00  0.00000000E+00
  0.00000000E+00  0.00000000E+00  0.00000000E+00  0.00000000E+00  0.00000000E+00
  0.00000000E+00  0.00000000E+00  0.00000000E+00  0.00000000E+00  0.00000000E+00
  0.00000000E+00  0.00000000E+00  0.00000000E+00
Dipole Moment                              R   N=           3
  4.01572144E-02  1.15495587E+00  0.00000000E+00
Quadrupole Moment                          R   N=           6
 -1.89774308E+00  8.61782513E-01  1.03596056E+00  1.31336288E+00  0.00000000E+00
  0.00000000E+00
QEq coupling tensors                       R   N=          36
 -2.97727305E-02 -1.96359274E-01 -6.93381648E-02  0.00000000E+00  0.00000000E+00
  9.91108953E-02  1.37634672E-01  1.38433745E-01 -3.23832102E-01  0.00000000E+00
  0.00000000E+00  1.86197430E-01 -1.54291586E-01  2.35099723E-02 -7.39914985E-02
  0.00000000E+00  0.00000000E+00  2.28283085E-01 -1.00714436E-01 -2.67086020E-01
 -8.58330275E-02  0.00000000E+00  0.00000000E+00  1.86547464E-01 -8.37916693E-01
 -2.78516831E+00 -8.11483721E-01  0.00000000E+00  0.00000000E+00  1.64940041E+00
  2.53738201E+00  6.68873434E-01  5.55760036E-03  0.00000000E+00  0.00000000E+00
 -2.54293961E+00
ClPar MaxAn                                I              200
ClPar NIntPar                              I                4
ClPar NRealPar                             I               16
ClPar NBits                                I               30
ClPar LenBitVec                            I                1
ClPar Read BitMap                          I   N=         200
           0           0           0           0           0           0
           0           0           0           0           0           0
           0           0           0           0           0           0
           0           0           0           0           0           0
           0           0           0           0           0           0
           0           0           0           0           0           0
           0           0           0           0           0           0
           0           0           0           0           0           0
           0           0           0           0           0           0
           0           0           0           0           0           0
           0           0           0           0           0           0
           0           0           0           0           0           0
           0           0           0           0           0           0
           0           0           0           0           0           0
           0           0           0           0           0           0
           0           0           0           0           0           0
           0           0           0           0           0           0
           0           0           0           0           0           0
           0           0           0           0           0           0
           0           0           0           0           0           0
           0           0           0           0           0           0
           0           0           0           0           0           0
           0           0           0           0           0           0
           0           0           0           0           0           0
           0           0           0           0           0           0
           0           0           0           0           0           0
           0           0           0           0           0           0
           0           0           0           0           0           0
           0           0           0           0           0           0
           0           0           0           0           0           0
           0           0           0           0           0           0
           0           0           0           0           0           0
           0           0           0           0           0           0
           0           0
ClPar Default BitMap                       I   N=         200
        2016        2016        2016        2016        2016        2016
        2016        2016        2016        2016        2016        2016
        2016        2016        2016        2016        2016        2016
        2016        2016        2016        2016        2016        2016
        2016        2016        2016        2016        2016        2016
        2016        2016        2016        2016        2016        2016
        2016        2016        2016        2016        2016        2016
        2016        2016        2016        2016        2016        2016
        2016        2016        2016        2016        2016        2016
        2016        2016        2016        2016        2016        2016
        2016        2016        2016        2016        2016        2016
        2016        2016        2016        2016        2016        2016
        2016        2016        2016        2016        2016        2016
        2016        2016        2016        2016        2016        2016
        2016        2016         480         480         480         480
         480         480         480         480         480         480
         480         480         480         480         480         480
         480         480         480         480         480         480
         480         480         480         480         480         480
         480         480         480         480         480         480
         480         480         480         480         480         480
         480         480         480         480         480         480
         480         480         480         480         480         480
         480         480         480         480         480         480
         480         480         480         480         480         480
         480         480         480         480         480         480
         480         480         480         480         480         480
         480         480         480         480         480         480
         480         480         480         480         480         480
         480         480         480         480         480         480
         480         480         480         480         480         480
         480         480         480         480         480         480
         480         480         480         480         480         480
         480         480
ClPar Int Params                           I   N=         800
           0           0           0           0           0           0
           0           0           0           0           0           0
           0           0           0           0           0           0
           0           0           0           0           0           0
           0           0           0           0           0           0
           0           0           0           0           0           0
           0           0           0           0           0           0
           0           0           0           0           0           0
           0           0           0           0           0           0
           0           0           0           0           0           0
           0           0           0           0           0           0
           0           0           0           0           0           0
           0           0           0           0           0           0
           0           0           0           0           0           0
           0           0           0           0           0           0
           0           0           0           0           0           0
           0           0           0           0           0           0
           0           0           0           0           0           0
           0           0           0           0           0           0
           0           0           0           0           0           0
           0           0           0           0           0           0
           0           0           0           0           0           0
           0           0           0           0           0           0
           0           0           0           0           0           0
           0           0           0           0           0           0
           0           0           0           0           0           0
           0           0           0           0           0           0
           0           0           0           0           0           0
           0           0           0           0           0           0
           0           0           0           0           0           0
           0           0           0           0           0           0
           0           0           0           0           0           0
           0           0           0           0           0           0
           0           0           0           0           0           0
           0           0           0           0           0           0
           0           0           0           0           0           0
           0           0           0           0           0           0
           0           0           0           0           0           0
           0           0           0           0           0           0
           0           0           0           0           0           0
           0           0           0           0           0           0
           0           0           0           0           0           0
           0           0           0           0           0           0
           0           0           0           0           0           0
           0           0           0           0           0           0
           0           0           0           0           0           0
           0           0           0           0           0           0
           0           0           0           0           0           0
           0           0           0           0           0           0
           0           0           0           0           0           0
           0           0           0           0           0           0
           0           0           0           0           0           0
           0           0           0           0           0           0
           0           0           0           0           0           0
           0           0           0           0           0           0
           0           0           0           0           0           0
           0           0           0           0           0           0
           0           0           0           0           0           0
           0           0           0           0           0           0
           0           0           0           0           0           0
           0           0           0           0           0           0
           0           0           0           0           0           0
           0           0           0           0           0           0
           0           0           0           0           0           0
           0           0           0           0           0           0
           0           0           0           0           0           0
           0           0           0           0           0           0
           0           0           0           0           0           0
           0           0           0           0           0           0
           0           0           0           0           0           0
           0           0           0           0           0           0
           0           0           0           0           0           0
           0           0           0           0           0           0
           0           0           0           0           0           0
           0           0           0           0           0           0
           0           0           0           0           0           0
           0           0           0           0           0           0
           0           0           0           0           0           0
           0           0           0           0           0           0
           0           0           0           0           0           0
           0           0           0           0           0           0
           0           0           0           0           0           0
           0           0           0           0           0           0
           0           0           0           0           0           0
           0           0           0           0           0           0
           0           0           0           0           0           0
           0           0           0           0           0           0
           0           0           0           0           0           0
           0           0           0           0           0           0
           0           0           0           0           0           0
           0           0           0           0           0           0
           0           0           0           0           0           0
           0           0           0           0           0           0
           0           0           0           0           0           0
           0           0           0           0           0           0
           0           0           0           0           0           0
           0           0           0           0           0           0
           0           0           0           0           0           0
           0           0           0           0           0           0
           0           0           0           0           0           0
           0           0           0           0           0           0
           0           0           0           0           0           0
           0           0           0           0           0           0
           0           0           0           0           0           0
           0           0           0           0           0           0
           0           0           0           0           0           0
           0           0           0           0           0           0
           0           0           0           0           0           0
           0           0           0           0           0           0
           0           0           0           0           0           0
           0           0           0           0           0           0
           0           0           0           0           0           0
           0           0           0           0           0           0
           0           0           0           0           0           0
           0           0           0           0           0           0
           0           0           0           0           0           0
           0           0           0           0           0           0
           0           0           0           0           0           0
           0           0           0           0           0           0
           0           0           0           0           0           0
           0           0           0           0           0           0
           0           0           0           0           0           0
           0           0           0           0           0           0
           0           0           0           0           0           0
           0           0           0           0           0           0
           0           0           0           0           0           0
           0           0           0           0           0           0
           0           0           0           0           0           0
           0           0           0           0           0           0
           0           0           0           0           0           0
           0           0           0           0           0           0
           0           0           0           0           0           0
           0           0           0           0           0           0
           0           0
ClPar Real Params                          R   N=        3200
  0.00000000E+00  0.00000000E+00  0.00000000E+00  0.00000000E+00  0.00000000E+00
  0.00000000E+00  0.00000000E+00  0.00000000E+00  0.00000000E+00  0.00000000E+00
  0.00000000E+00  0.00000000E+00  0.00000000E+00  0.00000000E+00  0.00000000E+00
  0.00000000E+00  0.00000000E+00  0.00000000E+00  0.00000000E+00  0.00000000E+00
  0.00000000E+00  0.00000000E+00  0.00000000E+00  0.00000000E+00  0.00000000E+00
  0.00000000E+00  0.00000000E+00  0.00000000E+00  0.00000000E+00  0.00000000E+00
  0.00000000E+00  0.00000000E+00  0.00000000E+00  0.00000000E+00  0.00000000E+00
  0.00000000E+00  0.00000000E+00  0.00000000E+00  0.00000000E+00  0.00000000E+00
  0.00000000E+00  0.00000000E+00  0.00000000E+00  0.00000000E+00  0.00000000E+00
  0.00000000E+00  0.00000000E+00  0.00000000E+00  0.00000000E+00  0.00000000E+00
  0.00000000E+00  0.00000000E+00  0.00000000E+00  0.00000000E+00  0.00000000E+00
  0.00000000E+00  0.00000000E+00  0.00000000E+00  0.00000000E+00  0.00000000E+00
  0.00000000E+00  0.00000000E+00  0.00000000E+00  0.00000000E+00  0.00000000E+00
  0.00000000E+00  0.00000000E+00  0.00000000E+00  0.00000000E+00  0.00000000E+00
  0.00000000E+00  0.00000000E+00  0.00000000E+00  0.00000000E+00  0.00000000E+00
  0.00000000E+00  0.00000000E+00  0.00000000E+00  0.00000000E+00  0.00000000E+00
  0.00000000E+00  0.00000000E+00  0.00000000E+00  0.00000000E+00  0.00000000E+00
  0.00000000E+00  0.00000000E+00  0.00000000E+00  0.00000000E+00  0.00000000E+00
  0.00000000E+00  0.00000000E+00  0.00000000E+00  0.00000000E+00  0.00000000E+00
  0.00000000E+00  0.00000000E+00  0.00000000E+00  0.00000000E+00  0.00000000E+00
  0.00000000E+00  0.00000000E+00  0.00000000E+00  0.00000000E+00  0.00000000E+00
  0.00000000E+00  0.00000000E+00  0.00000000E+00  0.00000000E+00  0.00000000E+00
  0.00000000E+00  0.00000000E+00  0.00000000E+00  0.00000000E+00  0.00000000E+00
  0.00000000E+00  0.00000000E+00  0.00000000E+00  0.00000000E+00  0.00000000E+00
  0.00000000E+00  0.00000000E+00  0.00000000E+00  0.00000000E+00  0.00000000E+00
  0.00000000E+00  0.00000000E+00  0.00000000E+00  0.00000000E+00  0.00000000E+00
  0.00000000E+00  0.00000000E+00  0.00000000E+00  0.00000000E+00  0.00000000E+00
  0.00000000E+00  0.00000000E+00  0.00000000E+00  0.00000000E+00  0.00000000E+00
  0.00000000E+00  0.00000000E+00  0.00000000E+00  0.00000000E+00  0.00000000E+00
  0.00000000E+00  0.00000000E+00  0.00000000E+00  0.00000000E+00  0.00000000E+00
  0.00000000E+00  0.00000000E+00  0.00000000E+00  0.00000000E+00  0.00000000E+00
  0.00000000E+00  0.00000000E+00  0.00000000E+00  0.00000000E+00  0.00000000E+00
  0.00000000E+00  0.00000000E+00  0.00000000E+00  0.00000000E+00  0.00000000E+00
  0.00000000E+00  0.00000000E+00  0.00000000E+00  0.00000000E+00  0.00000000E+00
  0.00000000E+00  0.00000000E+00  0.00000000E+00  0.00000000E+00  0.00000000E+00
  0.00000000E+00  0.00000000E+00  0.00000000E+00  0.00000000E+00  0.00000000E+00
  0.00000000E+00  0.00000000E+00  0.00000000E+00  0.00000000E+00  0.00000000E+00
  0.00000000E+00  0.00000000E+00  0.00000000E+00  0.00000000E+00  0.00000000E+00
  0.00000000E+00  0.00000000E+00  0.00000000E+00  0.00000000E+00  0.00000000E+00
  0.00000000E+00  0.00000000E+00  0.00000000E+00  0.00000000E+00  0.00000000E+00
  2.26000000E-01  4.43000000E-01  1.01000000E-01  1.47000000E-01  1.92000000E-01
  2.40000000E-01  2.75000000E-01  3.03000000E-01  3.25000000E-01  4.13000000E-01
  9.60000000E-02  1.35000000E-01  1.73000000E-01  2.11000000E-01  2.48000000E-01
  2.86000000E-01  3.23000000E-01  3.60000000E-01  8.20000000E-02  1.04000000E-01
  1.17000000E-01  1.23000000E-01  1.29000000E-01  1.34000000E-01  1.40000000E-01
  1.44000000E-01  1.48000000E-01  1.52000000E-01  1.55000000E-01  1.76000000E-01
  1.98000000E-01  2.19000000E-01  2.39000000E-01  2.60000000E-01  2.80000000E-01
  3.00000000E-01  7.90000000E-02  9.90000000E-02  1.19000000E-01  1.26000000E-01
  1.33000000E-01  1.40000000E-01  1.47000000E-01  1.53000000E-01  1.58000000E-01
  1.63000000E-01  1.57000000E-01  1.70000000E-01  1.87000000E-01  2.03000000E-01
  2.19000000E-01  2.34000000E-01  2.50000000E-01  2.65000000E-01  7.40000000E-02
  9.20000000E-02  1.05000000E-01  1.06000000E-01  1.07000000E-01  1.08000000E-01
  1.09000000E-01  1.10000000E-01  1.11000000E-01  1.12000000E-01  1.13000000E-01
  1.14000000E-01  1.15000000E-01  1.16000000E-01  1.17000000E-01  1.17000000E-01
  1.26000000E-01  1.36000000E-01  1.46000000E-01  1.55000000E-01  1.65000000E-01
  1.73000000E-01  1.82000000E-01  1.90000000E-01  1.62000000E-01  1.78000000E-01
  1.10000000E-01  1.35000000E-01  1.59000000E-01  1.83000000E-01  2.07000000E-01
  2.31000000E-01  6.90000000E-02  9.40000000E-02  1.02000000E-01  1.03000000E-01
  1.05000000E-01  1.07000000E-01  1.09000000E-01  1.11000000E-01  1.13000000E-01
  1.15000000E-01  1.17000000E-01  1.19000000E-01  1.20000000E-01  1.22000000E-01
  1.24000000E-01  1.26000000E-01  1.28000000E-01  1.28000000E-01  1.28000000E-01
  1.28000000E-01  1.28000000E-01  1.28000000E-01  1.28000000E-01  1.28000000E-01
  1.28000000E-01  1.28000000E-01  1.28000000E-01  1.28000000E-01  1.28000000E-01
  1.28000000E-01  1.28000000E-01  1.28000000E-01  1.28000000E-01  1.28000000E-01
  1.28000000E-01  1.28000000E-01  1.28000000E-01  1.28000000E-01  1.28000000E-01
  1.28000000E-01  1.28000000E-01  1.28000000E-01  1.28000000E-01  1.28000000E-01
  1.28000000E-01  1.28000000E-01  1.28000000E-01  1.28000000E-01  1.28000000E-01
  1.28000000E-01  1.28000000E-01  1.28000000E-01  1.28000000E-01  1.28000000E-01
  1.28000000E-01  1.28000000E-01  1.28000000E-01  1.28000000E-01  1.28000000E-01
  1.28000000E-01  1.28000000E-01  1.28000000E-01  1.28000000E-01  1.28000000E-01
  1.28000000E-01  1.28000000E-01  1.28000000E-01  1.28000000E-01  1.28000000E-01
  1.28000000E-01  1.28000000E-01  1.28000000E-01  1.28000000E-01  1.28000000E-01
  1.28000000E-01  1.28000000E-01  1.28000000E-01  1.28000000E-01  1.28000000E-01
  1.28000000E-01  1.28000000E-01  1.28000000E-01  1.28000000E-01  1.28000000E-01
  1.28000000E-01  1.28000000E-01  1.28000000E-01  1.28000000E-01  1.28000000E-01
  1.28000000E-01  1.28000000E-01  1.28000000E-01  1.28000000E-01  1.28000000E-01
  1.28000000E-01  1.28000000E-01  1.28000000E-01  1.28000000E-01  1.28000000E-01
  1.28000000E-01  1.28000000E-01  1.28000000E-01  1.28000000E-01  1.28000000E-01
  1.28000000E-01  1.28000000E-01  1.28000000E-01  1.28000000E-01  1.28000000E-01
  1.28000000E-01  1.28000000E-01  1.28000000E-01  1.28000000E-01  1.28000000E-01
  5.47000000E-01  5.92000000E-01  5.99000000E-01  6.68000000E-01  6.98000000E-01
  7.18000000E-01  7.26000000E-01  7.36000000E-01  7.43000000E-01  7.45000000E-01
  6.07000000E-01  6.66000000E-01  6.93000000E-01  7.09000000E-01  7.20000000E-01
  7.29000000E-01  7.35000000E-01  7.40000000E-01  6.08000000E-01  7.34000000E-01
  7.46000000E-01  7.55000000E-01  7.61000000E-01  7.65000000E-01  7.67000000E-01
  7.60000000E-01  7.49000000E-01  7.33000000E-01  7.08000000E-01  6.48000000E-01
  6.88000000E-01  7.09000000E-01  7.22000000E-01  7.31000000E-01  7.38000000E-01
  7.44000000E-01  6.09000000E-01  7.30000000E-01  7.41000000E-01  7.52000000E-01
  7.58000000E-01  7.63000000E-01  7.66000000E-01  7.58000000E-01  7.48000000E-01
  7.33000000E-01  7.01000000E-01  6.45000000E-01  6.86000000E-01  7.08000000E-01
  7.22000000E-01  7.31000000E-01  7.38000000E-01  7.44000000E-01  6.08000000E-01
  7.28000000E-01  7.32000000E-01  7.32000000E-01  7.32000000E-01  7.32000000E-01
  7.32000000E-01  7.32000000E-01  7.32000000E-01  7.32000000E-01  7.32000000E-01
  7.31000000E-01  7.31000000E-01  7.31000000E-01  7.31000000E-01  7.46000000E-01
  7.37000000E-01  7.46000000E-01  7.51000000E-01  7.55000000E-01  7.58000000E-01
  7.47000000E-01  7.32000000E-01  7.11000000E-01  7.41000000E-01  7.07000000E-01
  7.47000000E-01  7.43000000E-01  7.42000000E-01  7.42000000E-01  7.43000000E-01
  7.44000000E-01  6.05000000E-01  7.24000000E-01  7.26000000E-01  7.26000000E-01
  7.27000000E-01  7.27000000E-01  7.27000000E-01  7.28000000E-01  7.28000000E-01
  7.28000000E-01  7.28000000E-01  7.28000000E-01  7.29000000E-01  7.29000000E-01
  7.29000000E-01  7.29000000E-01  7.29000000E-01  7.29000000E-01  7.29000000E-01
  7.29000000E-01  7.29000000E-01  7.29000000E-01  7.29000000E-01  7.29000000E-01
  7.29000000E-01  7.29000000E-01  7.29000000E-01  7.29000000E-01  7.29000000E-01
  7.29000000E-01  7.29000000E-01  7.29000000E-01  7.29000000E-01  7.29000000E-01
  7.29000000E-01  7.29000000E-01  7.29000000E-01  7.29000000E-01  7.29000000E-01
  7.29000000E-01  7.29000000E-01  7.29000000E-01  7.29000000E-01  7.29000000E-01
  7.29000000E-01  7.29000000E-01  7.29000000E-01  7.29000000E-01  7.29000000E-01
  7.29000000E-01  7.29000000E-01  7.29000000E-01  7.29000000E-01  7.29000000E-01
  7.29000000E-01  7.29000000E-01  7.29000000E-01  7.29000000E-01  7.29000000E-01
  7.29000000E-01  7.29000000E-01  7.29000000E-01  7.29000000E-01  7.29000000E-01
  7.29000000E-01  7.29000000E-01  7.29000000E-01  7.29000000E-01  7.29000000E-01
  7.29000000E-01  7.29000000E-01  7.29000000E-01  7.29000000E-01  7.29000000E-01
  7.29000000E-01  7.29000000E-01  7.29000000E-01  7.29000000E-01  7.29000000E-01
  7.29000000E-01  7.29000000E-01  7.29000000E-01  7.29000000E-01  7.29000000E-01
  7.29000000E-01  7.29000000E-01  7.29000000E-01  7.29000000E-01  7.29000000E-01
  7.29000000E-01  7.29000000E-01  7.29000000E-01  7.29000000E-01  7.29000000E-01
  7.29000000E-01  7.29000000E-01  7.29000000E-01  7.29000000E-01  7.29000000E-01
  7.29000000E-01  7.29000000E-01  7.29000000E-01  7.29000000E-01  7.29000000E-01
  7.29000000E-01  7.29000000E-01  7.29000000E-01  7.29000000E-01  7.29000000E-01
  7.29000000E-01  7.29000000E-01  7.29000000E-01  7.29000000E-01  7.29000000E-01
  1.00000000E+00  1.70400000E+00  3.23000000E-01  3.89000000E-01  4.67000000E-01
  5.67000000E-01  6.36000000E-01  6.64000000E-01  6.96000000E-01  8.79000000E-01
  3.07000000E-01  3.48000000E-01  4.00000000E-01  4.54000000E-01  5.09000000E-01
  5.65000000E-01  6.21000000E-01  6.77000000E-01  2.56000000E-01  3.50000000E-01
  3.64000000E-01  3.62000000E-01  3.62000000E-01  3.62000000E-01  3.62000000E-01
  3.65000000E-01  3.69000000E-01  3.75000000E-01  3.86000000E-01  4.46000000E-01
  4.55000000E-01  4.74000000E-01  4.96000000E-01  5.20000000E-01  5.45000000E-01
  5.70000000E-01  2.45000000E-01  3.22000000E-01  3.55000000E-01  3.59000000E-01
  3.64000000E-01  3.70000000E-01  3.76000000E-01  3.85000000E-01  3.95000000E-01
  4.08000000E-01  3.76000000E-01  4.23000000E-01  4.22000000E-01  4.32000000E-01
  4.45000000E-01  4.59000000E-01  4.75000000E-01  4.91000000E-01  2.28000000E-01
  2.92000000E-01  2.89000000E-01  2.92000000E-01  2.95000000E-01  2.98000000E-01
  3.00000000E-01  3.03000000E-01  3.06000000E-01  3.09000000E-01  3.12000000E-01
  3.15000000E-01  3.18000000E-01  3.21000000E-01  3.24000000E-01  3.61000000E-01
  3.69000000E-01  3.70000000E-01  3.72000000E-01  3.75000000E-01  3.78000000E-01
  3.85000000E-01  3.94000000E-01  4.07000000E-01  5.26000000E-01  6.21000000E-01
  3.36000000E-01  3.54000000E-01  3.71000000E-01  3.86000000E-01  4.02000000E-01
  4.17000000E-01  2.09000000E-01  2.94000000E-01  2.65000000E-01  2.72000000E-01
  2.78000000E-01  2.84000000E-01  2.91000000E-01  2.97000000E-01  3.03000000E-01
  3.10000000E-01  3.16000000E-01  3.22000000E-01  3.29000000E-01  3.35000000E-01
  3.41000000E-01  3.48000000E-01  3.54000000E-01  3.54000000E-01  3.54000000E-01
  3.54000000E-01  3.54000000E-01  3.54000000E-01  3.54000000E-01  3.54000000E-01
  3.54000000E-01  3.54000000E-01  3.54000000E-01  3.54000000E-01  3.54000000E-01
  3.54000000E-01  3.54000000E-01  3.54000000E-01  3.54000000E-01  3.54000000E-01
  3.54000000E-01  3.54000000E-01  3.54000000E-01  3.54000000E-01  3.54000000E-01
  3.54000000E-01  3.54000000E-01  3.54000000E-01  3.54000000E-01  3.54000000E-01
  3.54000000E-01  3.54000000E-01  3.54000000E-01  3.54000000E-01  3.54000000E-01
  3.54000000E-01  3.54000000E-01  3.54000000E-01  3.54000000E-01  3.54000000E-01
  3.54000000E-01  3.54000000E-01  3.54000000E-01  3.54000000E-01  3.54000000E-01
  3.54000000E-01  3.54000000E-01  3.54000000E-01  3.54000000E-01  3.54000000E-01
  3.54000000E-01  3.54000000E-01  3.54000000E-01  3.54000000E-01  3.54000000E-01
  3.54000000E-01  3.54000000E-01  3.54000000E-01  3.54000000E-01  3.54000000E-01
  3.54000000E-01  3.54000000E-01  3.54000000E-01  3.54000000E-01  3.54000000E-01
  3.54000000E-01  3.54000000E-01  3.54000000E-01  3.54000000E-01  3.54000000E-01
  3.54000000E-01  3.54000000E-01  3.54000000E-01  3.54000000E-01  3.54000000E-01
  3.54000000E-01  3.54000000E-01  3.54000000E-01  3.54000000E-01  3.54000000E-01
  3.54000000E-01  3.54000000E-01  3.54000000E-01  3.54000000E-01  3.54000000E-01
  3.54000000E-01  3.54000000E-01  3.54000000E-01  3.54000000E-01  3.54000000E-01
  3.54000000E-01  3.54000000E-01  3.54000000E-01  3.54000000E-01  3.54000000E-01
  3.54000000E-01  3.54000000E-01  3.54000000E-01  3.54000000E-01  3.54000000E-01
  2.74000000E-01  2.96000000E-01  5.80000000E-02  4.40000000E-02  3.90000000E-02
  3.90000000E-02  3.60000000E-02  3.20000000E-02  2.90000000E-02  3.30000000E-02
  5.50000000E-02  3.90000000E-02  3.30000000E-02  3.00000000E-02  2.80000000E-02
  2.60000000E-02  2.50000000E-02  2.50000000E-02  4.50000000E-02  4.40000000E-02
  3.30000000E-02  2.50000000E-02  2.10000000E-02  1.80000000E-02  1.50000000E-02
  1.80000000E-02  2.10000000E-02  2.50000000E-02  3.30000000E-02  5.00000000E-02
  3.80000000E-02  3.10000000E-02  2.70000000E-02  2.40000000E-02  2.20000000E-02
  2.10000000E-02  4.30000000E-02  4.00000000E-02  3.20000000E-02  2.50000000E-02
  2.10000000E-02  1.80000000E-02  1.60000000E-02  1.90000000E-02  2.20000000E-02
  2.80000000E-02  3.10000000E-02  4.70000000E-02  3.40000000E-02  2.80000000E-02
  2.40000000E-02  2.10000000E-02  1.90000000E-02  1.80000000E-02  3.90000000E-02
  3.60000000E-02  2.50000000E-02  2.50000000E-02  2.50000000E-02  2.60000000E-02
  2.60000000E-02  2.60000000E-02  2.70000000E-02  2.70000000E-02  2.70000000E-02
  2.70000000E-02  2.80000000E-02  2.80000000E-02  2.80000000E-02  3.30000000E-02
  3.30000000E-02  2.60000000E-02  2.10000000E-02  1.80000000E-02  1.60000000E-02
  1.80000000E-02  2.20000000E-02  2.60000000E-02  4.90000000E-02  8.20000000E-02
  3.00000000E-02  2.40000000E-02  2.10000000E-02  1.80000000E-02  1.60000000E-02
  1.50000000E-02  3.50000000E-02  3.60000000E-02  2.20000000E-02  2.30000000E-02
  2.40000000E-02  2.40000000E-02  2.50000000E-02  2.50000000E-02  2.60000000E-02
  2.70000000E-02  2.70000000E-02  2.80000000E-02  2.80000000E-02  2.90000000E-02
  3.00000000E-02  3.00000000E-02  3.10000000E-02  3.10000000E-02  3.10000000E-02
  3.10000000E-02  3.10000000E-02  3.10000000E-02  3.10000000E-02  3.10000000E-02
  3.10000000E-02  3.10000000E-02  3.10000000E-02  3.10000000E-02  3.10000000E-02
  3.10000000E-02  3.10000000E-02  3.10000000E-02  3.10000000E-02  3.10000000E-02
  3.10000000E-02  3.10000000E-02  3.10000000E-02  3.10000000E-02  3.10000000E-02
  3.10000000E-02  3.10000000E-02  3.10000000E-02  3.10000000E-02  3.10000000E-02
  3.10000000E-02  3.10000000E-02  3.10000000E-02  3.10000000E-02  3.10000000E-02
  3.10000000E-02  3.10000000E-02  3.10000000E-02  3.10000000E-02  3.10000000E-02
  3.10000000E-02  3.10000000E-02  3.10000000E-02  3.10000000E-02  3.10000000E-02
  3.10000000E-02  3.10000000E-02  3.10000000E-02  3.10000000E-02  3.10000000E-02
  3.10000000E-02  3.10000000E-02  3.10000000E-02  3.10000000E-02  3.10000000E-02
  3.10000000E-02  3.10000000E-02  3.10000000E-02  3.10000000E-02  3.10000000E-02
  3.10000000E-02  3.10000000E-02  3.10000000E-02  3.10000000E-02  3.10000000E-02
  3.10000000E-02  3.10000000E-02  3.10000000E-02  3.10000000E-02  3.10000000E-02
  3.10000000E-02  3.10000000E-02  3.10000000E-02  3.10000000E-02  3.10000000E-02
  3.10000000E-02  3.10000000E-02  3.10000000E-02  3.10000000E-02  3.10000000E-02
  3.10000000E-02  3.10000000E-02  3.10000000E-02  3.10000000E-02  3.10000000E-02
  3.10000000E-02  3.10000000E-02  3.10000000E-02  3.10000000E-02  3.10000000E-02
  3.10000000E-02  3.10000000E-02  3.10000000E-02  3.10000000E-02  3.10000000E-02
  3.10000000E-02  3.10000000E-02  3.10000000E-02  3.10000000E-02  3.10000000E-02
 -5.92770000E-01 -9.17860000E-01 -2.48668000E+00 -8.36430000E-01 -3.18470000E-01
 -4.55790000E-01 -5.70730000E-01 -6.77940000E-01 -7.69860000E-01 -8.51140000E-01
 -1.51908000E+00 -3.18830000E-01 -2.17900000E-01 -3.01260000E-01 -3.72750000E-01
 -4.15890000E-01 -4.45930000E-01 -5.91320000E-01 -9.56370000E-01 -2.88450000E-01
 -4.87320000E-01 -6.34280000E-01 -7.17490000E-01 -7.91980000E-01 -8.68490000E-01
 -9.17520000E-01 -9.54890000E-01 -9.88460000E-01 -1.50055000E+00 -2.92560000E-01
 -2.14960000E-01 -2.91180000E-01 -3.42080000E-01 -3.84480000E-01 -4.34940000E-01
 -5.24310000E-01 -8.10070000E-01 -2.58460000E-01 -4.35550000E-01 -5.32740000E-01
 -6.08450000E-01 -6.10260000E-01 -7.58920000E-01 -8.90130000E-01 -8.45780000E-01
 -8.69340000E-01 -1.38234000E+00 -2.64850000E-01 -1.97280000E-01 -2.65040000E-01
 -2.94470000E-01 -3.16570000E-01 -3.63590000E-01 -4.57840000E-01 -8.61830000E-01
 -1.33004000E+00 -6.82880000E-01 -6.25540000E-01 -6.35430000E-01 -8.79690000E-01
 -9.02690000E-01 -9.59650000E-01 -1.01869000E+00 -6.81170000E-01 -7.96500000E-01
 -9.04950000E-01 -8.34790000E-01 -9.01560000E-01 -9.74130000E-01 -1.03326000E+00
 -7.15490000E-01 -7.83960000E-01 -8.28380000E-01 -5.61040000E-01 -1.03841000E+00
 -8.62500000E-01 -9.59300000E-01 -1.01755000E+00 -7.64900000E-01 -1.29467000E+00
 -1.92740000E-01 -2.56010000E-01 -3.19820000E-01 -1.94660000E-01 -2.60090000E-01
 -4.27990000E-01  0.00000000E+00  0.00000000E+00  0.00000000E+00  0.00000000E+00
  0.00000000E+00  0.00000000E+00  0.00000000E+00  0.00000000E+00  0.00000000E+00
  0.00000000E+00  0.00000000E+00  0.00000000E+00  0.00000000E+00  0.00000000E+00
  0.00000000E+00  0.00000000E+00  0.00000000E+00  0.00000000E+00  0.00000000E+00
  0.00000000E+00  0.00000000E+00  0.00000000E+00  0.00000000E+00  0.00000000E+00
  0.00000000E+00  0.00000000E+00  0.00000000E+00  0.00000000E+00  0.00000000E+00
  0.00000000E+00  0.00000000E+00  0.00000000E+00  0.00000000E+00  0.00000000E+00
  0.00000000E+00  0.00000000E+00  0.00000000E+00  0.00000000E+00  0.00000000E+00
  0.00000000E+00  0.00000000E+00  0.00000000E+00  0.00000000E+00  0.00000000E+00
  0.00000000E+00  0.00000000E+00  0.00000000E+00  0.00000000E+00  0.00000000E+00
  0.00000000E+00  0.00000000E+00  0.00000000E+00  0.00000000E+00  0.00000000E+00
  0.00000000E+00  0.00000000E+00  0.00000000E+00  0.00000000E+00  0.00000000E+00
  0.00000000E+00  0.00000000E+00  0.00000000E+00  0.00000000E+00  0.00000000E+00
  0.00000000E+00  0.00000000E+00  0.00000000E+00  0.00000000E+00  0.00000000E+00
  0.00000000E+00  0.00000000E+00  0.00000000E+00  0.00000000E+00  0.00000000E+00
  0.00000000E+00  0.00000000E+00  0.00000000E+00  0.00000000E+00  0.00000000E+00
  0.00000000E+00  0.00000000E+00  0.00000000E+00  0.00000000E+00  0.00000000E+00
  0.00000000E+00  0.00000000E+00  0.00000000E+00  0.00000000E+00  0.00000000E+00
  0.00000000E+00  0.00000000E+00  0.00000000E+00  0.00000000E+00  0.00000000E+00
  0.00000000E+00  0.00000000E+00  0.00000000E+00  0.00000000E+00  0.00000000E+00
  0.00000000E+00  0.00000000E+00  0.00000000E+00  0.00000000E+00  0.00000000E+00
  0.00000000E+00  0.00000000E+00  0.00000000E+00  0.00000000E+00  0.00000000E+00
  0.00000000E+00  0.00000000E+00  0.00000000E+00  0.00000000E+00  0.00000000E+00
  1.90440000E+00  1.36430000E+00  4.84000000E-01  7.31600000E+00  9.24030000E+00
  8.78200000E+00  5.61290000E+00  4.83340000E+00  3.24870000E+00  2.71090000E+00
  2.01130000E+00  1.50282000E+01  1.46788000E+01  2.13546000E+01  2.38290000E+01
  1.98022000E+01  1.50468000E+01  1.09745000E+01  1.27219000E+01  1.51949000E+01
  1.57342000E+01  2.79222000E+01  1.61366000E+01  2.21252000E+01  2.45676000E+01
  1.96016000E+01  1.79818000E+01  1.72396000E+01  5.01500000E+00  1.92898000E+01
  2.34477000E+01  2.23993000E+01  2.96586000E+01  2.60081000E+01  2.15580000E+01
  1.69594000E+01  1.56479000E+01  1.86897000E+01  1.93530000E+01  3.43444000E+01
  1.98480000E+01  2.72140000E+01  3.02182000E+01  2.41099000E+01  2.21176000E+01
  2.12047000E+01  7.56690000E+00  2.37264000E+01  2.93879000E+01  3.01278000E+01
  4.19382000E+01  3.85203000E+01  3.39511000E+01  2.75774000E+01  1.56460000E+01
  1.04460000E+01  2.01830000E+01  4.99540000E+01  4.76430000E+01  1.18690000E+01
  1.08670000E+01  9.96100000E+00  9.18700000E+00  3.67980000E+01  1.34070000E+01
  9.38200000E+00  9.81700000E+00  8.90800000E+00  8.40700000E+00  8.05800000E+00
  1.29600000E+01  2.67920000E+01  2.49300000E+01  3.45630000E+01  1.11860000E+01
  1.09440000E+01  1.01270000E+01  9.40400000E+00  1.36660000E+01  7.81000000E+00
  6.93600000E+01  5.86630000E+01  4.79690000E+01  4.52740000E+01  3.92290000E+01
  3.30660000E+01  0.00000000E+00  0.00000000E+00  0.00000000E+00  0.00000000E+00
  0.00000000E+00  0.00000000E+00  0.00000000E+00  0.00000000E+00  0.00000000E+00
  0.00000000E+00  0.00000000E+00  0.00000000E+00  0.00000000E+00  0.00000000E+00
  0.00000000E+00  0.00000000E+00  0.00000000E+00  0.00000000E+00  0.00000000E+00
  0.00000000E+00  0.00000000E+00  0.00000000E+00  0.00000000E+00  0.00000000E+00
  0.00000000E+00  0.00000000E+00  0.00000000E+00  0.00000000E+00  0.00000000E+00
  0.00000000E+00  0.00000000E+00  0.00000000E+00  0.00000000E+00  0.00000000E+00
  0.00000000E+00  0.00000000E+00  0.00000000E+00  0.00000000E+00  0.00000000E+00
  0.00000000E+00  0.00000000E+00  0.00000000E+00  0.00000000E+00  0.00000000E+00
  0.00000000E+00  0.00000000E+00  0.00000000E+00  0.00000000E+00  0.00000000E+00
  0.00000000E+00  0.00000000E+00  0.00000000E+00  0.00000000E+00  0.00000000E+00
  0.00000000E+00  0.00000000E+00  0.00000000E+00  0.00000000E+00  0.00000000E+00
  0.00000000E+00  0.00000000E+00  0.00000000E+00  0.00000000E+00  0.00000000E+00
  0.00000000E+00  0.00000000E+00  0.00000000E+00  0.00000000E+00  0.00000000E+00
  0.00000000E+00  0.00000000E+00  0.00000000E+00  0.00000000E+00  0.00000000E+00
  0.00000000E+00  0.00000000E+00  0.00000000E+00  0.00000000E+00  0.00000000E+00
  0.00000000E+00  0.00000000E+00  0.00000000E+00  0.00000000E+00  0.00000000E+00
  0.00000000E+00  0.00000000E+00  0.00000000E+00  0.00000000E+00  0.00000000E+00
  0.00000000E+00  0.00000000E+00  0.00000000E+00  0.00000000E+00  0.00000000E+00
  0.00000000E+00  0.00000000E+00  0.00000000E+00  0.00000000E+00  0.00000000E+00
  0.00000000E+00  0.00000000E+00  0.00000000E+00  0.00000000E+00  0.00000000E+00
  0.00000000E+00  0.00000000E+00  0.00000000E+00  0.00000000E+00  0.00000000E+00
  0.00000000E+00  0.00000000E+00  0.00000000E+00  0.00000000E+00  0.00000000E+00
  0.00000000E+00  0.00000000E+00  0.00000000E+00  0.00000000E+00  0.00000000E+00
  0.00000000E+00  0.00000000E+00  0.00000000E+00  0.00000000E+00  0.00000000E+00
  0.00000000E+00  0.00000000E+00  0.00000000E+00  0.00000000E+00  0.00000000E+00
  0.00000000E+00  0.00000000E+00  0.00000000E+00  0.00000000E+00  0.00000000E+00
  0.00000000E+00  0.00000000E+00  0.00000000E+00  0.00000000E+00  0.00000000E+00
  0.00000000E+00  0.00000000E+00  0.00000000E+00  0.00000000E+00  0.00000000E+00
  0.00000000E+00  0.00000000E+00  0.00000000E+00  0.00000000E+00  0.00000000E+00
  0.00000000E+00  0.00000000E+00  0.00000000E+00  0.00000000E+00  0.00000000E+00
  0.00000000E+00  0.00000000E+00  0.00000000E+00  0.00000000E+00  0.00000000E+00
  0.00000000E+00  0.00000000E+00  0.00000000E+00  0.00000000E+00  0.00000000E+00
  0.00000000E+00  0.00000000E+00  0.00000000E+00  0.00000000E+00  0.00000000E+00
  0.00000000E+00  0.00000000E+00  0.00000000E+00  0.00000000E+00  0.00000000E+00
  0.00000000E+00  0.00000000E+00  0.00000000E+00  0.00000000E+00  0.00000000E+00
  0.00000000E+00  0.00000000E+00  0.00000000E+00  0.00000000E+00  0.00000000E+00
  0.00000000E+00  0.00000000E+00  0.00000000E+00  0.00000000E+00  0.00000000E+00
  0.00000000E+00  0.00000000E+00  0.00000000E+00  0.00000000E+00  0.00000000E+00
  0.00000000E+00  0.00000000E+00  0.00000000E+00  0.00000000E+00  0.00000000E+00
  0.00000000E+00  0.00000000E+00  0.00000000E+00  0.00000000E+00  0.00000000E+00
  0.00000000E+00  0.00000000E+00  0.00000000E+00  0.00000000E+00  0.00000000E+00
  0.00000000E+00  0.00000000E+00  0.00000000E+00  0.00000000E+00  0.00000000E+00
  0.00000000E+00  0.00000000E+00  0.00000000E+00  0.00000000E+00  0.00000000E+00
  0.00000000E+00  0.00000000E+00  0.00000000E+00  0.00000000E+00  0.00000000E+00
  0.00000000E+00  0.00000000E+00  0.00000000E+00  0.00000000E+00  0.00000000E+00
  0.00000000E+00  0.00000000E+00  0.00000000E+00  0.00000000E+00  0.00000000E+00
  0.00000000E+00  0.00000000E+00  0.00000000E+00  0.00000000E+00  0.00000000E+00
  0.00000000E+00  0.00000000E+00  0.00000000E+00  0.00000000E+00  0.00000000E+00
  0.00000000E+00  0.00000000E+00  0.00000000E+00  0.00000000E+00  0.00000000E+00
  0.00000000E+00  0.00000000E+00  0.00000000E+00  0.00000000E+00  0.00000000E+00
  0.00000000E+00  0.00000000E+00  0.00000000E+00  0.00000000E+00  0.00000000E+00
  0.00000000E+00  0.00000000E+00  0.00000000E+00  0.00000000E+00  0.00000000E+00
  0.00000000E+00  0.00000000E+00  0.00000000E+00  0.00000000E+00  0.00000000E+00
  0.00000000E+00  0.00000000E+00  0.00000000E+00  0.00000000E+00  0.00000000E+00
  0.00000000E+00  0.00000000E+00  0.00000000E+00  0.00000000E+00  0.00000000E+00
  0.00000000E+00  0.00000000E+00  0.00000000E+00  0.00000000E+00  0.00000000E+00
  0.00000000E+00  0.00000000E+00  0.00000000E+00  0.00000000E+00  0.00000000E+00
  0.00000000E+00  0.00000000E+00  0.00000000E+00  0.00000000E+00  0.00000000E+00
  0.00000000E+00  0.00000000E+00  0.00000000E+00  0.00000000E+00  0.00000000E+00
  0.00000000E+00  0.00000000E+00  0.00000000E+00  0.00000000E+00  0.00000000E+00
  0.00000000E+00  0.00000000E+00  0.00000000E+00  0.00000000E+00  0.00000000E+00
  0.00000000E+00  0.00000000E+00  0.00000000E+00  0.00000000E+00  0.00000000E+00
  0.00000000E+00  0.00000000E+00  0.00000000E+00  0.00000000E+00  0.00000000E+00
  0.00000000E+00  0.00000000E+00  0.00000000E+00  0.00000000E+00  0.00000000E+00
  0.00000000E+00  0.00000000E+00  0.00000000E+00  0.00000000E+00  0.00000000E+00
  0.00000000E+00  0.00000000E+00  0.00000000E+00  0.00000000E+00  0.00000000E+00
  0.00000000E+00  0.00000000E+00  0.00000000E+00  0.00000000E+00  0.00000000E+00
  0.00000000E+00  0.00000000E+00  0.00000000E+00  0.00000000E+00  0.00000000E+00
  0.00000000E+00  0.00000000E+00  0.00000000E+00  0.00000000E+00  0.00000000E+00
  0.00000000E+00  0.00000000E+00  0.00000000E+00  0.00000000E+00  0.00000000E+00
  0.00000000E+00  0.00000000E+00  0.00000000E+00  0.00000000E+00  0.00000000E+00
  0.00000000E+00  0.00000000E+00  0.00000000E+00  0.00000000E+00  0.00000000E+00
  0.00000000E+00  0.00000000E+00  0.00000000E+00  0.00000000E+00  0.00000000E+00
  0.00000000E+00  0.00000000E+00  0.00000000E+00  0.00000000E+00  0.00000000E+00
  0.00000000E+00  0.00000000E+00  0.00000000E+00  0.00000000E+00  0.00000000E+00
  0.00000000E+00  0.00000000E+00  0.00000000E+00  0.00000000E+00  0.00000000E+00
  0.00000000E+00  0.00000000E+00  0.00000000E+00  0.00000000E+00  0.00000000E+00
  0.00000000E+00  0.00000000E+00  0.00000000E+00  0.00000000E+00  0.00000000E+00
  0.00000000E+00  0.00000000E+00  0.00000000E+00  0.00000000E+00  0.00000000E+00
  0.00000000E+00  0.00000000E+00  0.00000000E+00  0.00000000E+00  0.00000000E+00
  0.00000000E+00  0.00000000E+00  0.00000000E+00  0.00000000E+00  0.00000000E+00
  0.00000000E+00  0.00000000E+00  0.00000000E+00  0.00000000E+00  0.00000000E+00
  0.00000000E+00  0.00000000E+00  0.00000000E+00  0.00000000E+00  0.00000000E+00
  0.00000000E+00  0.00000000E+00  0.00000000E+00  0.00000000E+00  0.00000000E+00
  0.00000000E+00  0.00000000E+00  0.00000000E+00  0.00000000E+00  0.00000000E+00
  0.00000000E+00  0.00000000E+00  0.00000000E+00  0.00000000E+00  0.00000000E+00
  0.00000000E+00  0.00000000E+00  0.00000000E+00  0.00000000E+00  0.00000000E+00
  0.00000000E+00  0.00000000E+00  0.00000000E+00  0.00000000E+00  0.00000000E+00
  0.00000000E+00  0.00000000E+00  0.00000000E+00  0.00000000E+00  0.00000000E+00
  0.00000000E+00  0.00000000E+00  0.00000000E+00  0.00000000E+00  0.00000000E+00
  0.00000000E+00  0.00000000E+00  0.00000000E+00  0.00000000E+00  0.00000000E+00
  0.00000000E+00  0.00000000E+00  0.00000000E+00  0.00000000E+00  0.00000000E+00
  0.00000000E+00  0.00000000E+00  0.00000000E+00  0.00000000E+00  0.00000000E+00
  0.00000000E+00  0.00000000E+00  0.00000000E+00  0.00000000E+00  0.00000000E+00
  0.00000000E+00  0.00000000E+00  0.00000000E+00  0.00000000E+00  0.00000000E+00
  0.00000000E+00  0.00000000E+00  0.00000000E+00  0.00000000E+00  0.00000000E+00
  0.00000000E+00  0.00000000E+00  0.00000000E+00  0.00000000E+00  0.00000000E+00
  0.00000000E+00  0.00000000E+00  0.00000000E+00  0.00000000E+00  0.00000000E+00
  0.00000000E+00  0.00000000E+00  0.00000000E+00  0.00000000E+00  0.00000000E+00
  0.00000000E+00  0.00000000E+00  0.00000000E+00  0.00000000E+00  0.00000000E+00
  0.00000000E+00  0.00000000E+00  0.00000000E+00  0.00000000E+00  0.00000000E+00
  0.00000000E+00  0.00000000E+00  0.00000000E+00  0.00000000E+00  0.00000000E+00
  0.00000000E+00  0.00000000E+00  0.00000000E+00  0.00000000E+00  0.00000000E+00
  0.00000000E+00  0.00000000E+00  0.00000000E+00  0.00000000E+00  0.00000000E+00
  0.00000000E+00  0.00000000E+00  0.00000000E+00  0.00000000E+00  0.00000000E+00
  0.00000000E+00  0.00000000E+00  0.00000000E+00  0.00000000E+00  0.00000000E+00
  0.00000000E+00  0.00000000E+00  0.00000000E+00  0.00000000E+00  0.00000000E+00
  0.00000000E+00  0.00000000E+00  0.00000000E+00  0.00000000E+00  0.00000000E+00
  0.00000000E+00  0.00000000E+00  0.00000000E+00  0.00000000E+00  0.00000000E+00
  0.00000000E+00  0.00000000E+00  0.00000000E+00  0.00000000E+00  0.00000000E+00
  0.00000000E+00  0.00000000E+00  0.00000000E+00  0.00000000E+00  0.00000000E+00
  0.00000000E+00  0.00000000E+00  0.00000000E+00  0.00000000E+00  0.00000000E+00
  0.00000000E+00  0.00000000E+00  0.00000000E+00  0.00000000E+00  0.00000000E+00
  0.00000000E+00  0.00000000E+00  0.00000000E+00  0.00000000E+00  0.00000000E+00
  0.00000000E+00  0.00000000E+00  0.00000000E+00  0.00000000E+00  0.00000000E+00
  0.00000000E+00  0.00000000E+00  0.00000000E+00  0.00000000E+00  0.00000000E+00
  0.00000000E+00  0.00000000E+00  0.00000000E+00  0.00000000E+00  0.00000000E+00
  0.00000000E+00  0.00000000E+00  0.00000000E+00  0.00000000E+00  0.00000000E+00
  0.00000000E+00  0.00000000E+00  0.00000000E+00  0.00000000E+00  0.00000000E+00
  0.00000000E+00  0.00000000E+00  0.00000000E+00  0.00000000E+00  0.00000000E+00
  0.00000000E+00  0.00000000E+00  0.00000000E+00  0.00000000E+00  0.00000000E+00
  0.00000000E+00  0.00000000E+00  0.00000000E+00  0.00000000E+00  0.00000000E+00
  0.00000000E+00  0.00000000E+00  0.00000000E+00  0.00000000E+00  0.00000000E+00
  0.00000000E+00  0.00000000E+00  0.00000000E+00  0.00000000E+00  0.00000000E+00
  0.00000000E+00  0.00000000E+00  0.00000000E+00  0.00000000E+00  0.00000000E+00
  0.00000000E+00  0.00000000E+00  0.00000000E+00  0.00000000E+00  0.00000000E+00
  0.00000000E+00  0.00000000E+00  0.00000000E+00  0.00000000E+00  0.00000000E+00
  0.00000000E+00  0.00000000E+00  0.00000000E+00  0.00000000E+00  0.00000000E+00
  0.00000000E+00  0.00000000E+00  0.00000000E+00  0.00000000E+00  0.00000000E+00
  0.00000000E+00  0.00000000E+00  0.00000000E+00  0.00000000E+00  0.00000000E+00
  0.00000000E+00  0.00000000E+00  0.00000000E+00  0.00000000E+00  0.00000000E+00
  0.00000000E+00  0.00000000E+00  0.00000000E+00  0.00000000E+00  0.00000000E+00
  0.00000000E+00  0.00000000E+00  0.00000000E+00  0.00000000E+00  0.00000000E+00
  0.00000000E+00  0.00000000E+00  0.00000000E+00  0.00000000E+00  0.00000000E+00
  0.00000000E+00  0.00000000E+00  0.00000000E+00  0.00000000E+00  0.00000000E+00
  0.00000000E+00  0.00000000E+00  0.00000000E+00  0.00000000E+00  0.00000000E+00
  0.00000000E+00  0.00000000E+00  0.00000000E+00  0.00000000E+00  0.00000000E+00
  0.00000000E+00  0.00000000E+00  0.00000000E+00  0.00000000E+00  0.00000000E+00
  0.00000000E+00  0.00000000E+00  0.00000000E+00  0.00000000E+00  0.00000000E+00
  0.00000000E+00  0.00000000E+00  0.00000000E+00  0.00000000E+00  0.00000000E+00
  0.00000000E+00  0.00000000E+00  0.00000000E+00  0.00000000E+00  0.00000000E+00
  0.00000000E+00  0.00000000E+00  0.00000000E+00  0.00000000E+00  0.00000000E+00
  0.00000000E+00  0.00000000E+00  0.00000000E+00  0.00000000E+00  0.00000000E+00
  0.00000000E+00  0.00000000E+00  0.00000000E+00  0.00000000E+00  0.00000000E+00
  0.00000000E+00  0.00000000E+00  0.00000000E+00  0.00000000E+00  0.00000000E+00
  0.00000000E+00  0.00000000E+00  0.00000000E+00  0.00000000E+00  0.00000000E+00
  0.00000000E+00  0.00000000E+00  0.00000000E+00  0.00000000E+00  0.00000000E+00
  0.00000000E+00  0.00000000E+00  0.00000000E+00  0.00000000E+00  0.00000000E+00
  0.00000000E+00  0.00000000E+00  0.00000000E+00  0.00000000E+00  0.00000000E+00
  0.00000000E+00  0.00000000E+00  0.00000000E+00  0.00000000E+00  0.00000000E+00
  0.00000000E+00  0.00000000E+00  0.00000000E+00  0.00000000E+00  0.00000000E+00
  0.00000000E+00  0.00000000E+00  0.00000000E+00  0.00000000E+00  0.00000000E+00
  0.00000000E+00  0.00000000E+00  0.00000000E+00  0.00000000E+00  0.00000000E+00
  0.00000000E+00  0.00000000E+00  0.00000000E+00  0.00000000E+00  0.00000000E+00
  0.00000000E+00  0.00000000E+00  0.00000000E+00  0.00000000E+00  0.00000000E+00
  0.00000000E+00  0.00000000E+00  0.00000000E+00  0.00000000E+00  0.00000000E+00
  0.00000000E+00  0.00000000E+00  0.00000000E+00  0.00000000E+00  0.00000000E+00
  0.00000000E+00  0.00000000E+00  0.00000000E+00  0.00000000E+00  0.00000000E+00
  0.00000000E+00  0.00000000E+00  0.00000000E+00  0.00000000E+00  0.00000000E+00
  0.00000000E+00  0.00000000E+00  0.00000000E+00  0.00000000E+00  0.00000000E+00
  0.00000000E+00  0.00000000E+00  0.00000000E+00  0.00000000E+00  0.00000000E+00
  0.00000000E+00  0.00000000E+00  0.00000000E+00  0.00000000E+00  0.00000000E+00
  0.00000000E+00  0.00000000E+00  0.00000000E+00  0.00000000E+00  0.00000000E+00
  0.00000000E+00  0.00000000E+00  0.00000000E+00  0.00000000E+00  0.00000000E+00
  0.00000000E+00  0.00000000E+00  0.00000000E+00  0.00000000E+00  0.00000000E+00
  0.00000000E+00  0.00000000E+00  0.00000000E+00  0.00000000E+00  0.00000000E+00
  0.00000000E+00  0.00000000E+00  0.00000000E+00  0.00000000E+00  0.00000000E+00
  0.00000000E+00  0.00000000E+00  0.00000000E+00  0.00000000E+00  0.00000000E+00
  0.00000000E+00  0.00000000E+00  0.00000000E+00  0.00000000E+00  0.00000000E+00
  0.00000000E+00  0.00000000E+00  0.00000000E+00  0.00000000E+00  0.00000000E+00
  0.00000000E+00  0.00000000E+00  0.00000000E+00  0.00000000E+00  0.00000000E+00
  0.00000000E+00  0.00000000E+00  0.00000000E+00  0.00000000E+00  0.00000000E+00
  0.00000000E+00  0.00000000E+00  0.00000000E+00  0.00000000E+00  0.00000000E+00
  0.00000000E+00  0.00000000E+00  0.00000000E+00  0.00000000E+00  0.00000000E+00
  0.00000000E+00  0.00000000E+00  0.00000000E+00  0.00000000E+00  0.00000000E+00
  0.00000000E+00  0.00000000E+00  0.00000000E+00  0.00000000E+00  0.00000000E+00
  0.00000000E+00  0.00000000E+00  0.00000000E+00  0.00000000E+00  0.00000000E+00
  0.00000000E+00  0.00000000E+00  0.00000000E+00  0.00000000E+00  0.00000000E+00
  0.00000000E+00  0.00000000E+00  0.00000000E+00  0.00000000E+00  0.00000000E+00
  0.00000000E+00  0.00000000E+00  0.00000000E+00  0.00000000E+00  0.00000000E+00
  0.00000000E+00  0.00000000E+00  0.00000000E+00  0.00000000E+00  0.00000000E+00
  0.00000000E+00  0.00000000E+00  0.00000000E+00  0.00000000E+00  0.00000000E+00
  0.00000000E+00  0.00000000E+00  0.00000000E+00  0.00000000E+00  0.00000000E+00
  0.00000000E+00  0.00000000E+00  0.00000000E+00  0.00000000E+00  0.00000000E+00
  0.00000000E+00  0.00000000E+00  0.00000000E+00  0.00000000E+00  0.00000000E+00
  0.00000000E+00  0.00000000E+00  0.00000000E+00  0.00000000E+00  0.00000000E+00
  0.00000000E+00  0.00000000E+00  0.00000000E+00  0.00000000E+00  0.00000000E+00
  0.00000000E+00  0.00000000E+00  0.00000000E+00  0.00000000E+00  0.00000000E+00
  0.00000000E+00  0.00000000E+00  0.00000000E+00  0.00000000E+00  0.00000000E+00
  0.00000000E+00  0.00000000E+00  0.00000000E+00  0.00000000E+00  0.00000000E+00
  0.00000000E+00  0.00000000E+00  0.00000000E+00  0.00000000E+00  0.00000000E+00
  0.00000000E+00  0.00000000E+00  0.00000000E+00  0.00000000E+00  0.00000000E+00
  0.00000000E+00  0.00000000E+00  0.00000000E+00  0.00000000E+00  0.00000000E+00
  0.00000000E+00  0.00000000E+00  0.00000000E+00  0.00000000E+00  0.00000000E+00
  0.00000000E+00  0.00000000E+00  0.00000000E+00  0.00000000E+00  0.00000000E+00
  0.00000000E+00  0.00000000E+00  0.00000000E+00  0.00000000E+00  0.00000000E+00
  0.00000000E+00  0.00000000E+00  0.00000000E+00  0.00000000E+00  0.00000000E+00
  0.00000000E+00  0.00000000E+00  0.00000000E+00  0.00000000E+00  0.00000000E+00
  0.00000000E+00  0.00000000E+00  0.00000000E+00  0.00000000E+00  0.00000000E+00
  0.00000000E+00  0.00000000E+00  0.00000000E+00  0.00000000E+00  0.00000000E+00
  0.00000000E+00  0.00000000E+00  0.00000000E+00  0.00000000E+00  0.00000000E+00
  0.00000000E+00  0.00000000E+00  0.00000000E+00  0.00000000E+00  0.00000000E+00
  0.00000000E+00  0.00000000E+00  0.00000000E+00  0.00000000E+00  0.00000000E+00
  0.00000000E+00  0.00000000E+00  0.00000000E+00  0.00000000E+00  0.00000000E+00
  0.00000000E+00  0.00000000E+00  0.00000000E+00  0.00000000E+00  0.00000000E+00
  0.00000000E+00  0.00000000E+00  0.00000000E+00  0.00000000E+00  0.00000000E+00
  0.00000000E+00  0.00000000E+00  0.00000000E+00  0.00000000E+00  0.00000000E+00
  0.00000000E+00  0.00000000E+00  0.00000000E+00  0.00000000E+00  0.00000000E+00
  0.00000000E+00  0.00000000E+00  0.00000000E+00  0.00000000E+00  0.00000000E+00
  0.00000000E+00  0.00000000E+00  0.00000000E+00  0.00000000E+00  0.00000000E+00
  0.00000000E+00  0.00000000E+00  0.00000000E+00  0.00000000E+00  0.00000000E+00
  0.00000000E+00  0.00000000E+00  0.00000000E+00  0.00000000E+00  0.00000000E+00
  0.00000000E+00  0.00000000E+00  0.00000000E+00  0.00000000E+00  0.00000000E+00
  0.00000000E+00  0.00000000E+00  0.00000000E+00  0.00000000E+00  0.00000000E+00
  0.00000000E+00  0.00000000E+00  0.00000000E+00  0.00000000E+00  0.00000000E+00
  0.00000000E+00  0.00000000E+00  0.00000000E+00  0.00000000E+00  0.00000000E+00
  0.00000000E+00  0.00000000E+00  0.00000000E+00  0.00000000E+00  0.00000000E+00
  0.00000000E+00  0.00000000E+00  0.00000000E+00  0.00000000E+00  0.00000000E+00
  0.00000000E+00  0.00000000E+00  0.00000000E+00  0.00000000E+00  0.00000000E+00
  0.00000000E+00  0.00000000E+00  0.00000000E+00  0.00000000E+00  0.00000000E+00
  0.00000000E+00  0.00000000E+00  0.00000000E+00  0.00000000E+00  0.00000000E+00
  0.00000000E+00  0.00000000E+00  0.00000000E+00  0.00000000E+00  0.00000000E+00
  0.00000000E+00  0.00000000E+00  0.00000000E+00  0.00000000E+00  0.00000000E+00
  0.00000000E+00  0.00000000E+00  0.00000000E+00  0.00000000E+00  0.00000000E+00
  0.00000000E+00  0.00000000E+00  0.00000000E+00  0.00000000E+00  0.00000000E+00
  0.00000000E+00  0.00000000E+00  0.00000000E+00  0.00000000E+00  0.00000000E+00
  0.00000000E+00  0.00000000E+00  0.00000000E+00  0.00000000E+00  0.00000000E+00
  0.00000000E+00  0.00000000E+00  0.00000000E+00  0.00000000E+00  0.00000000E+00
  0.00000000E+00  0.00000000E+00  0.00000000E+00  0.00000000E+00  0.00000000E+00
  0.00000000E+00  0.00000000E+00  0.00000000E+00  0.00000000E+00  0.00000000E+00
  0.00000000E+00  0.00000000E+00  0.00000000E+00  0.00000000E+00  0.00000000E+00
  0.00000000E+00  0.00000000E+00  0.00000000E+00  0.00000000E+00  0.00000000E+00
  0.00000000E+00  0.00000000E+00  0.00000000E+00  0.00000000E+00  0.00000000E+00
  0.00000000E+00  0.00000000E+00  0.00000000E+00  0.00000000E+00  0.00000000E+00
  0.00000000E+00  0.00000000E+00  0.00000000E+00  0.00000000E+00  0.00000000E+00
  0.00000000E+00  0.00000000E+00  0.00000000E+00  0.00000000E+00  0.00000000E+00
  0.00000000E+00  0.00000000E+00  0.00000000E+00  0.00000000E+00  0.00000000E+00
  0.00000000E+00  0.00000000E+00  0.00000000E+00  0.00000000E+00  0.00000000E+00
  0.00000000E+00  0.00000000E+00  0.00000000E+00  0.00000000E+00  0.00000000E+00
  0.00000000E+00  0.00000000E+00  0.00000000E+00  0.00000000E+00  0.00000000E+00
  0.00000000E+00  0.00000000E+00  0.00000000E+00  0.00000000E+00  0.00000000E+00
  0.00000000E+00  0.00000000E+00  0.00000000E+00  0.00000000E+00  0.00000000E+00
  0.00000000E+00  0.00000000E+00  0.00000000E+00  0.00000000E+00  0.00000000E+00
  0.00000000E+00  0.00000000E+00  0.00000000E+00  0.00000000E+00  0.00000000E+00
  0.00000000E+00  0.00000000E+00  0.00000000E+00  0.00000000E+00  0.00000000E+00
  0.00000000E+00  0.00000000E+00  0.00000000E+00  0.00000000E+00  0.00000000E+00
  0.00000000E+00  0.00000000E+00  0.00000000E+00  0.00000000E+00  0.00000000E+00
  0.00000000E+00  0.00000000E+00  0.00000000E+00  0.00000000E+00  0.00000000E+00
  0.00000000E+00  0.00000000E+00  0.00000000E+00  0.00000000E+00  0.00000000E+00
  0.00000000E+00  0.00000000E+00  0.00000000E+00  0.00000000E+00  0.00000000E+00
  0.00000000E+00  0.00000000E+00  0.00000000E+00  0.00000000E+00  0.00000000E+00
  0.00000000E+00  0.00000000E+00  0.00000000E+00  0.00000000E+00  0.00000000E+00
  0.00000000E+00  0.00000000E+00  0.00000000E+00  0.00000000E+00  0.00000000E+00
  0.00000000E+00  0.00000000E+00  0.00000000E+00  0.00000000E+00  0.00000000E+00
  0.00000000E+00  0.00000000E+00  0.00000000E+00  0.00000000E+00  0.00000000E+00
  0.00000000E+00  0.00000000E+00  0.00000000E+00  0.00000000E+00  0.00000000E+00
  0.00000000E+00  0.00000000E+00  0.00000000E+00  0.00000000E+00  0.00000000E+00
  0.00000000E+00  0.00000000E+00  0.00000000E+00  0.00000000E+00  0.00000000E+00
  0.00000000E+00  0.00000000E+00  0.00000000E+00  0.00000000E+00  0.00000000E+00
  0.00000000E+00  0.00000000E+00  0.00000000E+00  0.00000000E+00  0.00000000E+00
  0.00000000E+00  0.00000000E+00  0.00000000E+00  0.00000000E+00  0.00000000E+00
  0.00000000E+00  0.00000000E+00  0.00000000E+00  0.00000000E+00  0.00000000E+00
  0.00000000E+00  0.00000000E+00  0.00000000E+00  0.00000000E+00  0.00000000E+00
  0.00000000E+00  0.00000000E+00  0.00000000E+00  0.00000000E+00  0.00000000E+00
  0.00000000E+00  0.00000000E+00  0.00000000E+00  0.00000000E+00  0.00000000E+00
  0.00000000E+00  0.00000000E+00  0.00000000E+00  0.00000000E+00  0.00000000E+00
  0.00000000E+00  0.00000000E+00  0.00000000E+00  0.00000000E+00  0.00000000E+00
  0.00000000E+00  0.00000000E+00  0.00000000E+00  0.00000000E+00  0.00000000E+00
  0.00000000E+00  0.00000000E+00  0.00000000E+00  0.00000000E+00  0.00000000E+00
  0.00000000E+00  0.00000000E+00  0.00000000E+00  0.00000000E+00  0.00000000E+00
  0.00000000E+00  0.00000000E+00  0.00000000E+00  0.00000000E+00  0.00000000E+00
  0.00000000E+00  0.00000000E+00  0.00000000E+00  0.00000000E+00  0.00000000E+00
  0.00000000E+00  0.00000000E+00  0.00000000E+00  0.00000000E+00  0.00000000E+00
  0.00000000E+00  0.00000000E+00  0.00000000E+00  0.00000000E+00  0.00000000E+00
  0.00000000E+00  0.00000000E+00  0.00000000E+00  0.00000000E+00  0.00000000E+00
  0.00000000E+00  0.00000000E+00  0.00000000E+00  0.00000000E+00  0.00000000E+00
  0.00000000E+00  0.00000000E+00  0.00000000E+00  0.00000000E+00  0.00000000E+00
  0.00000000E+00  0.00000000E+00  0.00000000E+00  0.00000000E+00  0.00000000E+00
  0.00000000E+00  0.00000000E+00  0.00000000E+00  0.00000000E+00  0.00000000E+00
  0.00000000E+00  0.00000000E+00  0.00000000E+00  0.00000000E+00  0.00000000E+00
  0.00000000E+00  0.00000000E+00  0.00000000E+00  0.00000000E+00  0.00000000E+00
  0.00000000E+00  0.00000000E+00  0.00000000E+00  0.00000000E+00  0.00000000E+00
  0.00000000E+00  0.00000000E+00  0.00000000E+00  0.00000000E+00  0.00000000E+00
  0.00000000E+00  0.00000000E+00  0.00000000E+00  0.00000000E+00  0.00000000E+00
  0.00000000E+00  0.00000000E+00  0.00000000E+00  0.00000000E+00  0.00000000E+00
  0.00000000E+00  0.00000000E+00  0.00000000E+00  0.00000000E+00  0.00000000E+00
  0.00000000E+00  0.00000000E+00  0.00000000E+00  0.00000000E+00  0.00000000E+00
  0.00000000E+00  0.00000000E+00  0.00000000E+00  0.00000000E+00  0.00000000E+00
  0.00000000E+00  0.00000000E+00  0.00000000E+00  0.00000000E+00  0.00000000E+00
  0.00000000E+00  0.00000000E+00  0.00000000E+00  0.00000000E+00  0.00000000E+00
  0.00000000E+00  0.00000000E+00  0.00000000E+00  0.00000000E+00  0.00000000E+00
  0.00000000E+00  0.00000000E+00  0.00000000E+00  0.00000000E+00  0.00000000E+00
  0.00000000E+00  0.00000000E+00  0.00000000E+00  0.00000000E+00  0.00000000E+00
  0.00000000E+00  0.00000000E+00  0.00000000E+00  0.00000000E+00  0.00000000E+00
  0.00000000E+00  0.00000000E+00  0.00000000E+00  0.00000000E+00  0.00000000E+00
  0.00000000E+00  0.00000000E+00  0.00000000E+00  0.00000000E+00  0.00000000E+00
  0.00000000E+00  0.00000000E+00  0.00000000E+00  0.00000000E+00  0.00000000E+00
  0.00000000E+00  0.00000000E+00  0.00000000E+00  0.00000000E+00  0.00000000E+00
  0.00000000E+00  0.00000000E+00  0.00000000E+00  0.00000000E+00  0.00000000E+00
  0.00000000E+00  0.00000000E+00  0.00000000E+00  0.00000000E+00  0.00000000E+00
  0.00000000E+00  0.00000000E+00  0.00000000E+00  0.00000000E+00  0.00000000E+00
  0.00000000E+00  0.00000000E+00  0.00000000E+00  0.00000000E+00  0.00000000E+00
  0.00000000E+00  0.00000000E+00  0.00000000E+00  0.00000000E+00  0.00000000E+00
  0.00000000E+00  0.00000000E+00  0.00000000E+00  0.00000000E+00  0.00000000E+00
  0.00000000E+00  0.00000000E+00  0.00000000E+00  0.00000000E+00  0.00000000E+00
  0.00000000E+00  0.00000000E+00  0.00000000E+00  0.00000000E+00  0.00000000E+00
  0.00000000E+00  0.00000000E+00  0.00000000E+00  0.00000000E+00  0.00000000E+00
  0.00000000E+00  0.00000000E+00  0.00000000E+00  0.00000000E+00  0.00000000E+00
  0.00000000E+00  0.00000000E+00  0.00000000E+00  0.00000000E+00  0.00000000E+00
  0.00000000E+00  0.00000000E+00  0.00000000E+00  0.00000000E+00  0.00000000E+00
  0.00000000E+00  0.00000000E+00  0.00000000E+00  0.00000000E+00  0.00000000E+00
  0.00000000E+00  0.00000000E+00  0.00000000E+00  0.00000000E+00  0.00000000E+00
  0.00000000E+00  0.00000000E+00  0.00000000E+00  0.00000000E+00  0.00000000E+00
  0.00000000E+00  0.00000000E+00  0.00000000E+00  0.00000000E+00  0.00000000E+00
  0.00000000E+00  0.00000000E+00  0.00000000E+00  0.00000000E+00  0.00000000E+00
  0.00000000E+00  0.00000000E+00  0.00000000E+00  0.00000000E+00  0.00000000E+00
  0.00000000E+00  0.00000000E+00  0.00000000E+00  0.00000000E+00  0.00000000E+00
  0.00000000E+00  0.00000000E+00  0.00000000E+00  0.00000000E+00  0.00000000E+00
  0.00000000E+00  0.00000000E+00  0.00000000E+00  0.00000000E+00  0.00000000E+00
  0.00000000E+00  0.00000000E+00  0.00000000E+00  0.00000000E+00  0.00000000E+00
  0.00000000E+00  0.00000000E+00  0.00000000E+00  0.00000000E+00  0.00000000E+00
  0.00000000E+00  0.00000000E+00  0.00000000E+00  0.00000000E+00  0.00000000E+00
  0.00000000E+00  0.00000000E+00  0.00000000E+00  0.00000000E+00  0.00000000E+00
  0.00000000E+00  0.00000000E+00  0.00000000E+00  0.00000000E+00  0.00000000E+00
  0.00000000E+00  0.00000000E+00  0.00000000E+00  0.00000000E+00  0.00000000E+00
  0.00000000E+00  0.00000000E+00  0.00000000E+00  0.00000000E+00  0.00000000E+00
  0.00000000E+00  0.00000000E+00  0.00000000E+00  0.00000000E+00  0.00000000E+00
  0.00000000E+00  0.00000000E+00  0.00000000E+00  0.00000000E+00  0.00000000E+00
  0.00000000E+00  0.00000000E+00  0.00000000E+00  0.00000000E+00  0.00000000E+00
  0.00000000E+00  0.00000000E+00  0.00000000E+00  0.00000000E+00  0.00000000E+00
  0.00000000E+00  0.00000000E+00  0.00000000E+00  0.00000000E+00  0.00000000E+00
  0.00000000E+00  0.00000000E+00  0.00000000E+00  0.00000000E+00  0.00000000E+00
  0.00000000E+00  0.00000000E+00  0.00000000E+00  0.00000000E+00  0.00000000E+00
  0.00000000E+00  0.00000000E+00  0.00000000E+00  0.00000000E+00  0.00000000E+00
  0.00000000E+00  0.00000000E+00  0.00000000E+00  0.00000000E+00  0.00000000E+00
  0.00000000E+00  0.00000000E+00  0.00000000E+00  0.00000000E+00  0.00000000E+00
  0.00000000E+00  0.00000000E+00  0.00000000E+00  0.00000000E+00  0.00000000E+00
  0.00000000E+00  0.00000000E+00  0.00000000E+00  0.00000000E+00  0.00000000E+00
  0.00000000E+00  0.00000000E+00  0.00000000E+00  0.00000000E+00  0.00000000E+00
  0.00000000E+00  0.00000000E+00  0.00000000E+00  0.00000000E+00  0.00000000E+00
  0.00000000E+00  0.00000000E+00  0.00000000E+00  0.00000000E+00  0.00000000E+00
  0.00000000E+00  0.00000000E+00  0.00000000E+00  0.00000000E+00  0.00000000E+00
  0.00000000E+00  0.00000000E+00  0.00000000E+00  0.00000000E+00  0.00000000E+00
  0.00000000E+00  0.00000000E+00  0.00000000E+00  0.00000000E+00  0.00000000E+00
  0.00000000E+00  0.00000000E+00  0.00000000E+00  0.00000000E+00  0.00000000E+00
  0.00000000E+00  0.00000000E+00  0.00000000E+00  0.00000000E+00  0.00000000E+00
  0.00000000E+00  0.00000000E+00  0.00000000E+00  0.00000000E+00  0.00000000E+00
  0.00000000E+00  0.00000000E+00  0.00000000E+00  0.00000000E+00  0.00000000E+00
  0.00000000E+00  0.00000000E+00  0.00000000E+00  0.00000000E+00  0.00000000E+00
  0.00000000E+00  0.00000000E+00  0.00000000E+00  0.00000000E+00  0.00000000E+00
  0.00000000E+00  0.00000000E+00  0.00000000E+00  0.00000000E+00  0.00000000E+00
  0.00000000E+00  0.00000000E+00  0.00000000E+00  0.00000000E+00  0.00000000E+00
  0.00000000E+00  0.00000000E+00  0.00000000E+00  0.00000000E+00  0.00000000E+00
  0.00000000E+00  0.00000000E+00  0.00000000E+00  0.00000000E+00  0.00000000E+00
  0.00000000E+00  0.00000000E+00  0.00000000E+00  0.00000000E+00  0.00000000E+00
  0.00000000E+00  0.00000000E+00  0.00000000E+00  0.00000000E+00  0.00000000E+00
  0.00000000E+00  0.00000000E+00  0.00000000E+00  0.00000000E+00  0.00000000E+00
  0.00000000E+00  0.00000000E+00  0.00000000E+00  0.00000000E+00  0.00000000E+00
  0.00000000E+00  0.00000000E+00  0.00000000E+00  0.00000000E+00  0.00000000E+00
  0.00000000E+00  0.00000000E+00  0.00000000E+00  0.00000000E+00  0.00000000E+00
  0.00000000E+00  0.00000000E+00  0.00000000E+00  0.00000000E+00  0.00000000E+00
  0.00000000E+00  0.00000000E+00  0.00000000E+00  0.00000000E+00  0.00000000E+00
  0.00000000E+00  0.00000000E+00  0.00000000E+00  0.00000000E+00  0.00000000E+00
  0.00000000E+00  0.00000000E+00  0.00000000E+00  0.00000000E+00  0.00000000E+00
  0.00000000E+00  0.00000000E+00  0.00000000E+00  0.00000000E+00  0.00000000E+00
  0.00000000E+00  0.00000000E+00  0.00000000E+00  0.00000000E+00  0.00000000E+00
  0.00000000E+00  0.00000000E+00  0.00000000E+00  0.00000000E+00  0.00000000E+00
  0.00000000E+00  0.00000000E+00  0.00000000E+00  0.00000000E+00  0.00000000E+00
  0.00000000E+00  0.00000000E+00  0.00000000E+00  0.00000000E+00  0.00000000E+00
  0.00000000E+00  0.00000000E+00  0.00000000E+00  0.00000000E+00  0.00000000E+00
  0.00000000E+00  0.00000000E+00  0.00000000E+00  0.00000000E+00  0.00000000E+00
  0.00000000E+00  0.00000000E+00  0.00000000E+00  0.00000000E+00  0.00000000E+00
  0.00000000E+00  0.00000000E+00  0.00000000E+00  0.00000000E+00  0.00000000E+00
  0.00000000E+00  0.00000000E+00  0.00000000E+00  0.00000000E+00  0.00000000E+00
  0.00000000E+00  0.00000000E+00  0.00000000E+00  0.00000000E+00  0.00000000E+00
  0.00000000E+00  0.00000000E+00  0.00000000E+00  0.00000000E+00  0.00000000E+00
  0.00000000E+00  0.00000000E+00  0.00000000E+00  0.00000000E+00  0.00000000E+00
  0.00000000E+00  0.00000000E+00  0.00000000E+00  0.00000000E+00  0.00000000E+00
  0.00000000E+00  0.00000000E+00  0.00000000E+00  0.00000000E+00  0.00000000E+00
  0.00000000E+00  0.00000000E+00  0.00000000E+00  0.00000000E+00  0.00000000E+00
  0.00000000E+00  0.00000000E+00  0.00000000E+00  0.00000000E+00  0.00000000E+00
  0.00000000E+00  0.00000000E+00  0.00000000E+00  0.00000000E+00  0.00000000E+00
Gaussian Version                           C   N=           2
ES64L-G16RevC.01        
