%chk=test_parall.chk
%nprocs=1
#p force output=pickett External="CentralExt gau $PGAU/test_pr.dat $EGAU/test_en.dat 2 20 read parall 6"  

title

0 1
 C                 -0.46251765   -0.49519611    0.00000000
 H                 -1.50442070   -0.25160212    0.00000000
 C                  0.46251765    0.49519611    0.00000000
 H                  1.50442070    0.25160212    0.00000000
 S                 -0.04979647    2.19987621    0.00000000
 S                  0.04979647   -2.19987621    0.00000000




--link1--
%chk=test_parall.chk
%nprocs=1
#p force hf/sto-3g

title

0 1
 C                 -0.46251765   -0.49519611    0.00000000
 H                 -1.50442070   -0.25160212    0.00000000
 C                  0.46251765    0.49519611    0.00000000
 H                  1.50442070    0.25160212    0.00000000
 S                 -0.04979647    2.19987621    0.00000000
 S                  0.04979647   -2.19987621    0.00000000


